55
Lattice="11.5478352 0.0 0.0 5.773917198490155 10.000722372470358 0.0 5.773916394327279 3.333571176804646 9.428767828939895" Properties=species:S:1:pos:R:3:momenta:R:3:forces:R:3:energies:R:1 spacegroup="_JSON {\"number\": 1, \"setting\": 1}" unit_cell=conventional occupancy="_JSON {\"0\": {\"Si\": 1.0}, \"1\": {\"Si\": 1.0}, \"2\": {\"Si\": 1.0}, \"3\": {\"Si\": 1.0}, \"4\": {\"Si\": 1.0}, \"5\": {\"Si\": 1.0}, \"6\": {\"Si\": 1.0}, \"7\": {\"Si\": 1.0}, \"8\": {\"Si\": 1.0}, \"9\": {\"Si\": 1.0}, \"10\": {\"Si\": 1.0}, \"11\": {\"Si\": 1.0}, \"12\": {\"Si\": 1.0}, \"13\": {\"Si\": 1.0}, \"14\": {\"Si\": 1.0}, \"15\": {\"Si\": 1.0}, \"16\": {\"Si\": 1.0}, \"17\": {\"Si\": 1.0}, \"18\": {\"Si\": 1.0}, \"19\": {\"Si\": 1.0}, \"20\": {\"Si\": 1.0}, \"21\": {\"Si\": 1.0}, \"22\": {\"Si\": 1.0}, \"23\": {\"Si\": 1.0}, \"24\": {\"Si\": 1.0}, \"25\": {\"Si\": 1.0}, \"26\": {\"Si\": 1.0}, \"27\": {\"Si\": 1.0}, \"28\": {\"Si\": 1.0}, \"29\": {\"Si\": 1.0}, \"30\": {\"Si\": 1.0}, \"31\": {\"Si\": 1.0}, \"32\": {\"Si\": 1.0}, \"33\": {\"Si\": 1.0}, \"34\": {\"Si\": 1.0}, \"35\": {\"Si\": 1.0}, \"36\": {\"Si\": 1.0}, \"37\": {\"Si\": 1.0}, \"38\": {\"Si\": 1.0}, \"39\": {\"Si\": 1.0}, \"40\": {\"Si\": 1.0}, \"41\": {\"Si\": 1.0}, \"42\": {\"Si\": 1.0}, \"43\": {\"Si\": 1.0}, \"44\": {\"Si\": 1.0}, \"45\": {\"Si\": 1.0}, \"46\": {\"Si\": 1.0}, \"47\": {\"Si\": 1.0}, \"48\": {\"Si\": 1.0}, \"49\": {\"Si\": 1.0}, \"50\": {\"Si\": 1.0}, \"51\": {\"Si\": 1.0}, \"52\": {\"Si\": 1.0}, \"53\": {\"Si\": 1.0}, \"54\": {\"Si\": 1.0}}" energy=-477.243229455931 stress="-0.011691643017375783 0.0044534545600184395 0.0027602189534190716 0.0044534545600184395 -0.011968071532096886 -0.0001267703429544755 0.0027602189534190716 -0.0001267703429544755 -0.006258482080180051" free_energy=-477.243229455931 pbc="T T T"
Si       6.70184641       3.88258389       2.77344513      -0.39685359       1.26230235      -1.22924122       0.00096173      -0.00153843      -0.00004503      -8.74631158
Si       8.63347321       5.00016910       5.97174738      -0.22715541      -0.42550116       0.48774541      -0.00134181      -0.00057344       0.00508976      -8.65991667
Si      10.50755470       6.08217023       9.03211023      -0.02605326      -0.15879646       0.39515697      -0.00466113      -0.00248985      -0.00033070      -8.65991667
Si       8.63864270       7.20722240       2.83030030      -0.85845013      -0.28576964       0.39193474      -0.00242903      -0.00020555       0.00161803      -8.73293686
Si      10.57554926       8.32858175       5.90097450      -0.91599703       0.53754175      -0.38355121      -0.00305318       0.00174954       0.00125112      -8.75575622
Si      12.43799913       9.40078119       9.03462457       0.79212833       0.19042010      -0.20104948      -0.00247630      -0.00023284       0.00154084      -8.73293686
Si      10.57204274      10.53807762       2.75018839       0.92092547       0.33293175      -0.33809643      -0.00144887      -0.00057788       0.00053442      -8.72253618
Si      12.50857586      11.65613520       5.91253436       0.78868732      -0.86406923       0.12503885      -0.00099397      -0.00031525       0.00127727      -8.72253619
Si      15.03040403      12.23260678       8.86423877      -0.19386491      -1.37138502       2.05528870       0.00299877      -0.01001765       0.00170540      -7.92065066
Si      10.54427752       3.90630944       2.78855498       0.40919610      -0.00855364       1.65300710      -0.00025946       0.00305711      -0.00013239      -8.73500228
Si      12.50152121       5.00246779       5.89752088       0.22623086       0.55563424      -0.63828704      -0.00126349       0.00188058       0.00010884      -8.75079174
Si      14.37779265       6.11958976       9.04866019      -0.83432794      -0.57111844       0.16656161      -0.00090415       0.00268490      -0.00118517      -8.73500228
Si      12.49881596       7.22096051       2.75721177       0.21376229      -0.73093105      -0.39338004      -0.00104523       0.00190254       0.00115407      -8.75449896
Si      14.42379684       8.33234840       5.90069300      -0.77182913       1.18771684       1.02198525      -0.00201413       0.00134315      -0.00042815      -8.75449896
Si      16.34409068       9.44512541       9.04529643       0.31797613       0.67111109      -0.49042880      -0.00208518      -0.00288255       0.00229604      -8.70220805
Si      14.41647384      10.55221625       2.76272549       0.40244045       1.07496186       2.07495597      -0.00038872       0.00020696       0.00016486      -8.73908253
Si      16.42466187      11.64164264       5.85830998       0.82976628      -1.90896717       1.02041088       0.00181181       0.00077337      -0.00188657      -8.69439736
Si      18.35246020      12.75465719       9.00639209       0.61198401       0.04599300      -0.06526876       0.00222303       0.00101078      -0.00121506      -8.69439736
Si      14.40956914       3.89979962       2.75977306      -0.09767953      -1.45838577      -0.39351431       0.00100244      -0.00030624       0.00144911      -8.75396561
Si      16.33581843       5.01191983       5.90532559       0.63993831       1.45884456       0.30399713      -0.00059358      -0.00122770      -0.00115717      -8.75396561
Si      18.14630635       6.26357399       9.06651718       0.84773258      -0.54612609       0.32859579       0.00174210      -0.00308960       0.00002552      -8.65786364
Si      16.33547986       7.22461022       2.76406514      -1.01702365       0.18860228      -0.20155982      -0.00030475      -0.00095548       0.00052442      -8.75508559
Si      18.27212091       8.34561655       5.89686242       0.81959356       0.00450609      -0.78541014      -0.00346041       0.00215229       0.00092228      -8.74619855
Si      20.19619227       9.45647933       9.03885840       0.32183667       0.60114067      -1.04738350      -0.00310456       0.00235774       0.00150338      -8.74619855
Si      18.26448722      10.57083128       2.80414399       0.77743972       0.23913006      -1.80992905       0.00020673       0.00013684      -0.00670545      -8.71852523
Si      20.23544215      11.66138506       5.87877479      -0.62212368       0.91696520       0.02932039       0.00083923       0.00046980      -0.00068003      -8.75417187
Si      22.07520558      12.77094988       9.02702222      -0.14527537      -1.43422440       0.44267213       0.00553883       0.00321533       0.00200184      -8.71852523
Si       0.64992502       0.75243794       0.51457283      -0.41753663      -1.80952962       0.76173274       0.01271773      -0.00385477      -0.00642512      -8.33630516
Si       2.88816062       1.67690468       3.52197197      -0.09373487      -0.13200226      -0.78851754      -0.00076000      -0.00145414       0.00087238      -8.75372384
Si       4.82055795       2.79257446       6.67756419       1.23047370       0.26636908       1.53630034      -0.00067251      -0.00140363       0.00101524      -8.75372384
Si       2.83184572       3.90824266       0.40625511       0.01651850      -0.43796413       0.82757214      -0.00316773      -0.00038231       0.00059895      -8.65619499
Si       4.78669594       5.00640657       3.54889914       0.41070989       0.23297617       0.96983138       0.00205768      -0.00043162      -0.00110745      -8.74844024
Si       6.69224115       6.13704233       6.71025567      -0.47223374      -0.19368619      -0.89780237      -0.00196254       0.00031351       0.00256703      -8.65619499
Si       4.78873772       7.22899562       0.41375509      -0.31017891       1.13760606      -0.19262334      -0.00062079       0.00047025       0.00175321      -8.74001269
Si       6.70594532       8.33589562       3.54454261       0.23668829      -1.20108049      -0.31330343      -0.00187763      -0.00025538      -0.00029920      -8.74001269
Si       8.65623508       9.44600585       6.68124050       0.16094993       0.02388094      -0.85874817      -0.00279796       0.00257992       0.00080126      -8.75272464
Si       4.90887972       0.50792089       0.39419396       0.21270923      -0.39989461      -0.63208209       0.00361036      -0.00048040       0.00130392      -8.57159304
Si       6.72025717       1.65965129       3.54809586      -0.93308795       0.13069411      -0.62090998      -0.00120949      -0.00171366       0.00134654      -8.73623983
Si       8.72219410       2.70953830       6.62131147      -0.14754877       0.17662937      -1.04351327       0.00087923      -0.00205723      -0.00315601      -8.57159304
Si       6.66974884       3.86234409       0.41868696      -0.18308143      -0.15416752      -0.15034767      -0.00308921      -0.00114557      -0.00044955      -8.71399403
Si       8.61429232       4.98502645       3.59411378      -0.90582194       0.90899961      -1.56076400      -0.00084685       0.00014907       0.00321222      -8.71399403
Si      10.57722796       6.10719639       6.68532446      -0.64796150       0.37414326      -0.56348022      -0.00089342       0.00114596       0.00014196      -8.70607045
Si       8.60010704       7.01849094       0.50229286       0.96997030      -0.37505199       0.56785618       0.00144316       0.00403663      -0.00231091      -8.58270034
Si      10.58034431       8.32372912       3.54728963      -1.38916499      -1.17572322      -0.63562936      -0.00191922       0.00042551       0.00089260      -8.74911619
Si      12.50112325       9.43269102       6.68390911      -0.25294343       0.94471706      -1.83972111      -0.00181124       0.00048785       0.00106893      -8.74911619
Si       8.65286278       0.56852317       0.41145193      -0.38721310       0.38933925       0.82519926       0.00193456       0.00241893      -0.00067246      -8.73340154
Si      10.56260058       1.67111047       3.53004130       0.43189132      -0.98837097       0.66038095       0.00081807       0.00177433      -0.00249569      -8.73340154
Si      12.54327460       2.77470480       6.65958503      -0.80220047       0.50740033      -0.65700661       0.00142104       0.00129442      -0.00132784      -8.74925847
Si      10.46568573       3.94996751       0.44475043       1.41997196       0.11764644       0.54458434       0.00370476      -0.00436342      -0.00072598      -8.68457270
Si      12.48779435       5.00600343       3.54619756      -1.49771685       0.79125657       0.84472300       0.00063419       0.00139916       0.00056516      -8.74609615
Si      14.41348455       6.11780086       6.69083711       0.61677816      -0.04285946      -0.64966017      -0.00054826       0.00071648      -0.00136576      -8.74609615
Si      12.49746410       7.22200558       0.40029982       0.12711441      -0.91295523      -0.14403533      -0.00295086       0.00228642       0.00115907      -8.71345856
Si      14.41714828       8.33424131       3.54648466       1.25037090       1.53028582      -0.38513281       0.00105665      -0.00046494      -0.00048267      -8.75638492
Si      16.34722975       9.44466814       6.68694203      -1.43121765       0.57011692       2.04540001      -0.00308183       0.00221081       0.00094519      -8.71345856
Si       8.32265415       4.25949521       8.71922373      -0.02550878       0.21725094      -0.16987397       0.01243543      -0.00223065      -0.00682647      -7.61747332
55
Lattice="11.5478352 0.0 0.0 5.773917198490155 10.000722372470358 0.0 5.773916394327279 3.333571176804646 9.428767828939895" Properties=species:S:1:pos:R:3:momenta:R:3:forces:R:3:energies:R:1 spacegroup="_JSON {\"number\": 1, \"setting\": 1}" unit_cell=conventional occupancy="_JSON {\"0\": {\"Si\": 1.0}, \"1\": {\"Si\": 1.0}, \"2\": {\"Si\": 1.0}, \"3\": {\"Si\": 1.0}, \"4\": {\"Si\": 1.0}, \"5\": {\"Si\": 1.0}, \"6\": {\"Si\": 1.0}, \"7\": {\"Si\": 1.0}, \"8\": {\"Si\": 1.0}, \"9\": {\"Si\": 1.0}, \"10\": {\"Si\": 1.0}, \"11\": {\"Si\": 1.0}, \"12\": {\"Si\": 1.0}, \"13\": {\"Si\": 1.0}, \"14\": {\"Si\": 1.0}, \"15\": {\"Si\": 1.0}, \"16\": {\"Si\": 1.0}, \"17\": {\"Si\": 1.0}, \"18\": {\"Si\": 1.0}, \"19\": {\"Si\": 1.0}, \"20\": {\"Si\": 1.0}, \"21\": {\"Si\": 1.0}, \"22\": {\"Si\": 1.0}, \"23\": {\"Si\": 1.0}, \"24\": {\"Si\": 1.0}, \"25\": {\"Si\": 1.0}, \"26\": {\"Si\": 1.0}, \"27\": {\"Si\": 1.0}, \"28\": {\"Si\": 1.0}, \"29\": {\"Si\": 1.0}, \"30\": {\"Si\": 1.0}, \"31\": {\"Si\": 1.0}, \"32\": {\"Si\": 1.0}, \"33\": {\"Si\": 1.0}, \"34\": {\"Si\": 1.0}, \"35\": {\"Si\": 1.0}, \"36\": {\"Si\": 1.0}, \"37\": {\"Si\": 1.0}, \"38\": {\"Si\": 1.0}, \"39\": {\"Si\": 1.0}, \"40\": {\"Si\": 1.0}, \"41\": {\"Si\": 1.0}, \"42\": {\"Si\": 1.0}, \"43\": {\"Si\": 1.0}, \"44\": {\"Si\": 1.0}, \"45\": {\"Si\": 1.0}, \"46\": {\"Si\": 1.0}, \"47\": {\"Si\": 1.0}, \"48\": {\"Si\": 1.0}, \"49\": {\"Si\": 1.0}, \"50\": {\"Si\": 1.0}, \"51\": {\"Si\": 1.0}, \"52\": {\"Si\": 1.0}, \"53\": {\"Si\": 1.0}, \"54\": {\"Si\": 1.0}}" energy=-476.0224020720401 stress="-0.013019855360885743 0.0016076371662357807 0.0010368896629092594 0.0016076371662357807 -0.013816798438649962 0.0004382433798728872 0.0010368896629092594 0.0004382433798728872 -0.0060417309832624" free_energy=-476.0224020720401 pbc="T T T"
Si       6.68101990       3.93985007       2.71639495      -0.40432235       0.77847564      -0.81993783      -0.02649496      -0.56307806       0.49119890      -8.73964179
Si       8.61910845       4.98088258       5.98630633      -0.34721164      -0.25770147      -0.10133021      -0.09718901       0.19946683      -0.65941598      -8.65638813
Si      10.50508119       6.07386650       9.04701154      -0.08379980      -0.15686969       0.07890826      -0.06434873       0.00131000      -0.36983297      -8.65008767
Si       8.59727193       7.19279289       2.84447895      -0.65107792      -0.24546549       0.04995360       0.26268128       0.07319478      -0.37314346      -8.73585523
Si      10.53378405       8.35295015       5.87657786      -0.56784226       0.32110206      -0.61526021       0.41425004      -0.27266931      -0.26047951      -8.75428499
Si      12.47390433       9.41297864       9.01948122       0.48205296       0.30065877      -0.44270748      -0.37856664       0.09763513      -0.25782532      -8.65669074
Si      10.60961803      10.54581311       2.73021927       0.33616954      -0.19356836      -0.45918743      -0.67240595      -0.59970791      -0.13039901      -8.70359283
Si      12.54256746      11.62559798       5.91173926       0.38684656      -0.04173314      -0.26959311      -0.47219983       0.98953668      -0.43516582      -8.72436894
Si      15.01919524      12.18206466       8.95280797      -0.24638684      -0.23811541       1.03837230      -0.06345421       1.20387539      -1.11257090      -7.84444808
Si      10.55714400       3.90348347       2.86683421      -0.05653128      -0.14449305       1.18464317      -0.52830755      -0.17252499      -0.58042256      -8.71761665
Si      12.50937037       5.03243497       5.87171229       0.01047797       0.59615788      -0.20816137      -0.24802324       0.03726276       0.53412584      -8.74996868
Si      14.34625625       6.09639888       9.05556956      -0.17497272      -0.20927405       0.06692747       0.75987166       0.41269335      -0.11103320      -8.70665131
Si      12.51048626       7.19391073       2.74047392       0.23349588      -0.12245117      -0.18938589       0.01139085       0.69736528       0.22164652      -8.71205998
Si      14.38909463       8.38555011       5.94335182      -0.44804078       0.68065280       0.43129306       0.39274774      -0.62351939      -0.67898579      -8.73063187
Si      16.36138840       9.47184993       9.03394537       0.35144909       0.20459832       0.31252062       0.03361391      -0.56906918       0.97747698      -8.70706870
Si      14.43163126      10.60819188       2.85592947       0.07684839       1.04865172       1.22853419      -0.37271821      -0.04751675      -0.98004897      -8.73811207
Si      16.45985125      11.55572693       5.90710507       0.38942300      -1.11932080       0.75402445      -0.47782884       0.96443740      -0.33263172      -8.68559848
Si      18.38192266      12.75332854       9.00178173       0.46820452      -0.15131485      -0.12673869      -0.16506625      -0.20992316      -0.06153821      -8.67245224
Si      14.40078948       3.84068305       2.75029043      -0.28318139      -0.51631972       0.19717973      -0.18417096       1.09094490       0.64312252      -8.69289090
Si      16.36553933       5.07308323       5.92163739       0.41525557       0.62312170       0.31563017      -0.29910292      -0.97453054      -0.00675222      -8.76148134
Si      18.18711167       6.22991782       9.07942082       0.64168951      -0.79693482       0.09576913      -0.25938140      -0.23225781      -0.26172712      -8.65227037
Si      16.29081350       7.23154106       2.75383012      -0.54781440       0.02515150      -0.17993532       0.53181255      -0.19369550       0.03873935      -8.75047469
Si      18.30151673       8.34782949       5.86330477       0.10176285       0.10168669      -0.37966805      -0.79483020       0.09890836       0.45076566      -8.67946699
Si      20.21235080       9.47942578       8.98902877       0.28251358       0.13495076      -0.76768046      -0.04975930      -0.54679110       0.33505751      -8.71183867
Si      18.30185088      10.57292657       2.72820234       0.58923719      -0.31271919      -0.75864712      -0.23368341      -0.60174180       1.24035734      -8.67806372
Si      20.21073411      11.70827510       5.87863264      -0.19111514       0.84319373      -0.06393578       0.50801493      -0.10639894      -0.11497126      -8.70439413
Si      22.06277655      12.71344286       9.05219858      -0.41129271      -0.45956197       0.52678066      -0.32105542       1.14316219       0.04024611      -8.72196190
Si       0.63297774       0.66622615       0.53522643      -0.15606498      -1.32901745      -0.28029317       0.30640549       0.58633719      -1.16515374      -8.26903024
Si       2.88864898       1.66578444       3.48632775       0.19977334      -0.35979279      -0.47162443       0.33877758      -0.25653041       0.38764658      -8.75933219
Si       4.87845742       2.80709238       6.74507560       0.86151503       0.29662754       0.82078070      -0.46332950       0.03621424      -0.84702620      -8.68322387
Si       2.83608987       3.89205324       0.44064302       0.19730260      -0.07732243       0.33742283       0.19601303       0.39940165      -0.56521818      -8.64786960
Si       4.79868058       5.01714843       3.59032951      -0.10379521       0.15389857       0.45723748      -0.58704524      -0.09127585      -0.59580037      -8.71494625
Si       6.67746352       6.13453338       6.67376427       0.08605552       0.22600938      -0.31826992       0.67457983       0.48967820       0.68652053      -8.64627004
Si       4.77728637       7.27005679       0.40609218      -0.05136231       0.10291979      -0.05252814       0.29571806      -1.24500572       0.17224434      -8.72289130
Si       6.70952635       8.28602626       3.52518346      -0.25008650      -0.49007390      -0.45588074      -0.57862601       0.82374331      -0.11767161      -8.70165850
Si       8.66096712       9.45460209       6.63865296      -0.04679139       0.42482506      -0.72049443      -0.25867482       0.46973005       0.17407751      -8.77529458
Si       4.92049302       0.48727074       0.36475895       0.23981162      -0.37502783      -0.42945836       0.04459137       0.05144317       0.23847123      -8.58559207
Si       6.67970816       1.67576779       3.52272746      -0.47163157       0.62926889      -0.23306048       0.53620621       0.55941069       0.43667916      -8.70334680
Si       8.72340529       2.71063330       6.57886563       0.32383437      -0.25408562      -0.39579897       0.51036507      -0.46319482       0.71475837      -8.53490308
Si       6.65845870       3.85779331       0.40537203      -0.26562802       0.03985963      -0.45113848      -0.06981284       0.23028151      -0.36326458      -8.73922029
Si       8.57283432       5.02208888       3.52637518      -0.57071114       0.30840296      -0.79151884       0.40370592      -0.75808214       0.91435308      -8.65539744
Si      10.54805155       6.12690986       6.66208388      -0.39137220       0.37382444      -0.22605115       0.28157187      -0.01674815       0.37687756      -8.68049753
Si       8.64166377       6.98985018       0.53628560       0.46651516      -0.84919799       0.76996824      -0.56885513      -0.47984121       0.13428531      -8.53402083
Si      10.51920592       8.27140168       3.51522635      -0.73531749      -0.66141317      -0.56274939       0.80520918       0.61806081       0.09169477      -8.69995705
Si      12.48189429       9.47207469       6.60386020      -0.57605634       0.37954449      -0.94854380      -0.36447992      -0.67368937       1.03182645      -8.73469243
Si       8.63862635       0.58386204       0.45785140      -0.06983975       0.11935405       0.98085887       0.33432335      -0.29125359       0.13626355      -8.69408106
Si      10.59225719       1.62587289       3.56740889       0.80906978      -0.62538293       0.80069769       0.41735077       0.43607465       0.13172593      -8.71464957
Si      12.50652370       2.80178771       6.63139740      -0.50619333       0.52852581      -0.31324405       0.36963780       0.01099352       0.40890364      -8.74578037
Si      10.53050792       3.95329999       0.47335070       0.89730077      -0.03847062       0.54951009      -0.60601247      -0.19965632       0.00980564      -8.62663752
Si      12.42703043       5.03849768       3.58237728      -0.54560346       0.31484263       0.39987260       1.07705768      -0.52293864      -0.52953637      -8.73307103
Si      14.43889714       6.12108180       6.66363366       0.23561945       0.25443402      -0.27055668      -0.45032619       0.33318306       0.45668948      -8.72978660
Si      12.50709805       7.18218516       0.39015969       0.29916353      -0.47058023      -0.27472142       0.22764131       0.53372848      -0.12045534      -8.71006099
Si      14.46873564       8.40603260       3.53598698       0.48895060       1.06433072       0.13606443      -0.89067862      -0.56343175       0.58432124      -8.70571515
Si      16.28601688       9.46148077       6.77833410      -0.69716585      -0.14036705       1.16317079       0.82198296      -0.82303438      -1.06831791      -8.65444909
Si       8.32163379       4.26221482       8.71134281      -0.01912963      -0.23849436      -0.11801912      -0.00909262      -0.48996676       0.03950722      -7.68166549
55
Lattice="11.5478352 0.0 0.0 5.773917198490155 10.000722372470358 0.0 5.773916394327279 3.333571176804646 9.428767828939895" Properties=species:S:1:pos:R:3:momenta:R:3:forces:R:3:energies:R:1 spacegroup="_JSON {\"number\": 1, \"setting\": 1}" unit_cell=conventional occupancy="_JSON {\"0\": {\"Si\": 1.0}, \"1\": {\"Si\": 1.0}, \"2\": {\"Si\": 1.0}, \"3\": {\"Si\": 1.0}, \"4\": {\"Si\": 1.0}, \"5\": {\"Si\": 1.0}, \"6\": {\"Si\": 1.0}, \"7\": {\"Si\": 1.0}, \"8\": {\"Si\": 1.0}, \"9\": {\"Si\": 1.0}, \"10\": {\"Si\": 1.0}, \"11\": {\"Si\": 1.0}, \"12\": {\"Si\": 1.0}, \"13\": {\"Si\": 1.0}, \"14\": {\"Si\": 1.0}, \"15\": {\"Si\": 1.0}, \"16\": {\"Si\": 1.0}, \"17\": {\"Si\": 1.0}, \"18\": {\"Si\": 1.0}, \"19\": {\"Si\": 1.0}, \"20\": {\"Si\": 1.0}, \"21\": {\"Si\": 1.0}, \"22\": {\"Si\": 1.0}, \"23\": {\"Si\": 1.0}, \"24\": {\"Si\": 1.0}, \"25\": {\"Si\": 1.0}, \"26\": {\"Si\": 1.0}, \"27\": {\"Si\": 1.0}, \"28\": {\"Si\": 1.0}, \"29\": {\"Si\": 1.0}, \"30\": {\"Si\": 1.0}, \"31\": {\"Si\": 1.0}, \"32\": {\"Si\": 1.0}, \"33\": {\"Si\": 1.0}, \"34\": {\"Si\": 1.0}, \"35\": {\"Si\": 1.0}, \"36\": {\"Si\": 1.0}, \"37\": {\"Si\": 1.0}, \"38\": {\"Si\": 1.0}, \"39\": {\"Si\": 1.0}, \"40\": {\"Si\": 1.0}, \"41\": {\"Si\": 1.0}, \"42\": {\"Si\": 1.0}, \"43\": {\"Si\": 1.0}, \"44\": {\"Si\": 1.0}, \"45\": {\"Si\": 1.0}, \"46\": {\"Si\": 1.0}, \"47\": {\"Si\": 1.0}, \"48\": {\"Si\": 1.0}, \"49\": {\"Si\": 1.0}, \"50\": {\"Si\": 1.0}, \"51\": {\"Si\": 1.0}, \"52\": {\"Si\": 1.0}, \"53\": {\"Si\": 1.0}, \"54\": {\"Si\": 1.0}}" energy=-476.3023364326823 stress="-0.01281431016700821 0.002908575072022333 0.0017781637981179232 0.002908575072022333 -0.011880406425738668 -0.00040306782365895935 0.0017781637981179232 -0.00040306782365895935 -0.00494804964405456" free_energy=-476.3023364326823 pbc="T T T"
Si       6.65781347       3.95824025       2.69278194      -0.49687465      -0.04794473      -0.11605118      -0.08746614      -0.44549144       0.35293149      -8.74148802
Si       8.60052043       4.97475363       5.95608575      -0.27021826      -0.00187354      -0.97932364       0.25553294       0.10149875      -0.36808965      -8.64689672
Si      10.49830531       6.06555181       9.03632441      -0.16497366      -0.16185328      -0.46681586      -0.02621197      -0.00390173      -0.28978885      -8.66778649
Si       8.57421902       7.18374134       2.83580625      -0.22732695      -0.09024766      -0.26715839       0.26835542       0.10780580       0.06226695      -8.72223378
Si      10.51909656       8.35844344       5.83565248      -0.05655613      -0.10287351      -0.87804104       0.16756269      -0.23714754       0.00530153      -8.76257872
Si      12.48269188       9.43042399       8.98741525      -0.15977671       0.30567096      -0.72943374      -0.42407487      -0.13115508      -0.05672076      -8.67072176
Si      10.60375224      10.51437299       2.70295386      -0.43686602      -0.89839689      -0.51878266      -0.20165101      -0.18104359       0.10635900      -8.70362073
Si      12.54406317      11.66031855       5.88362276      -0.30276503       1.22994783      -0.68590005      -0.36457725       0.47041622       0.02030279      -8.74283345
Si      15.00214285      12.20667697       8.96642568      -0.42701512       0.86142027      -0.40104737      -0.13500185      -0.00478877      -0.65976173      -7.87935099
Si      10.53618162       3.88870275       2.90372755      -0.62589936      -0.41427351       0.19811248      -0.07158096      -0.15377386      -0.67555799      -8.71167025
Si      12.49992396       5.06472643       5.88258837      -0.36035574       0.61753433       0.59218672      -0.20412786      -0.03629486       0.41126458      -8.75388685
Si      14.36716244       6.10183151       9.05609366       0.92673250       0.39766957      -0.00098547       0.57707549       0.33862493       0.06614854      -8.69703182
Si      12.52312050       7.21420284       2.73891886       0.25023895       0.82926121       0.11048304       0.01881144       0.43175757       0.14294356      -8.70534750
Si      14.38011590       8.39547011       5.93980712       0.04878677      -0.28476532      -0.50380913       0.17647752      -0.55287883      -0.42747003      -8.74872250
Si      16.38051200       9.45778785       9.08703682       0.36198421      -0.76059968       1.57169205      -0.02298749      -0.64015733       0.43597026      -8.71862056
Si      14.42358260      10.65954566       2.88229021      -0.28797078       0.85743537      -0.14816657      -0.00672968      -0.25550728      -0.68540265      -8.73691353
Si      16.46346998      11.53612363       5.93358931      -0.17253739       0.32174004       0.28533140      -0.16514002       0.76608898      -0.22167634      -8.69626359
Si      18.40053213      12.73875731       8.99368866       0.26397625      -0.34731996      -0.15171873      -0.07947684       0.01447678       0.05588048      -8.66850988
Si      14.37998530       3.85538672       2.78271405      -0.46371125       0.96543721       0.91251837       0.00509799       0.64792403       0.14416706      -8.72064152
Si      16.37503817       5.06871283       5.93746449      -0.03525098      -0.68107601       0.27867792      -0.23578977      -0.54689877      -0.04823452      -8.76194481
Si      18.20962327       6.18277961       9.07521038       0.21224802      -0.88871967      -0.20898108      -0.27689998       0.20768816      -0.07496271      -8.66542279
Si      16.28067148       7.22580137       2.74722244       0.06548874      -0.21352681      -0.04329380       0.16280104      -0.07629464       0.14700168      -8.75566998
Si      18.27629153       8.35801690       5.86028425      -0.99784855       0.31011009       0.21886014      -0.52756830       0.18341776       0.27125492      -8.69083288
Si      20.22484942       9.46398517       8.96249591       0.18772953      -0.71189014      -0.25234513      -0.07497426      -0.49347387       0.30232488      -8.72281447
Si      18.32178735      10.53501100       2.73289595       0.14320730      -1.03269900       0.74168569      -0.33436381      -0.19657179       0.49899715      -8.71503670
Si      20.22147247      11.74766837       5.87034317       0.58529265       0.65063346      -0.25305945       0.44463639      -0.14169496      -0.11737294      -8.69906547
Si      22.02785448      12.72945576       9.07888609      -0.90269087       0.85201188       0.43168378      -0.23651816       0.31079803      -0.19561063      -8.72445824
Si       0.63879383       0.62199269       0.48272563       0.39886926      -0.33420370      -1.44027055       0.36971542       0.67177417      -0.09169488      -8.26138646
Si       2.91177611       1.63897034       3.47764868       0.63432638      -0.58202327       0.13173848       0.14705627       0.05634374       0.35238961      -8.75731859
Si       4.90200551       2.82419318       6.75448041      -0.02443327       0.35201425      -0.41066322      -0.69908604       0.01831582      -0.64448079      -8.69181655
Si       2.85257306       3.90247804       0.43744042       0.37548395       0.41539208      -0.38624134      -0.02213795       0.16270871      -0.28111548      -8.64392426
Si       4.77058337       5.02144667       3.59148442      -0.91510573       0.01145244      -0.35383001      -0.37553868      -0.08374843      -0.36189556      -8.72583784
Si       6.70673389       6.16365912       6.68424175       0.92191640       0.78778170       0.66801748       0.25927171       0.11268021       0.48819260      -8.66515759
Si       4.78611583       7.22920056       0.40836169       0.36200568      -1.48149105       0.07699226       0.18777878      -0.55706826      -0.05903567      -8.73006995
Si       6.67469015       8.29212582       3.49979394      -0.99850176       0.64263690      -0.42570196      -0.26672827       0.50165319       0.22340615      -8.71904430
Si       8.64796890       9.49459397       6.60805059      -0.43366264       1.03715806      -0.44906594      -0.19950747       0.21923747       0.16746707      -8.76825293
Si       4.93609162       0.47113748       0.35156300       0.37815827      -0.20893861      -0.09176833       0.12832935       0.16992305       0.16776454      -8.58398643
Si       6.67351693       1.72831151       3.52557730       0.13526365       1.26568076       0.25712116       0.15804063       0.13143069       0.10967224      -8.71338608
Si       8.75816315       2.68190431       6.58630825       0.90224157      -0.73856794       0.64898323       0.11239505      -0.06067259       0.59114784      -8.53073315
Si       6.64380040       3.86908691       0.36741449      -0.23667624       0.37557638      -0.96001363       0.15121486       0.16778528      -0.21719509      -8.73043191
Si       8.55875266       5.00695335       3.52303220       0.00031676      -0.84869527       0.65518961       0.27238305      -0.61057344       0.86928610      -8.67756190
Si      10.53698578       6.14460097       6.66386217      -0.08820599       0.27031962       0.23732355       0.05854790      -0.13449550       0.15335241      -8.68098504
Si       8.64545287       6.93424778       0.57311222      -0.25611978      -1.05895413       0.41863804      -0.32274662       0.32534192      -0.68697560      -8.55493017
Si      10.51409934       8.26173592       3.48896600       0.52118772       0.26410092      -0.45422575       0.72634441       0.50317911       0.03511987      -8.71046074
Si      12.43998507       9.46820637       6.59380701      -0.91789907      -0.40072492       0.47270556       0.04093835      -0.19351736       0.66947333      -8.74051941
Si       8.64568729       0.58081839       0.51117619       0.25686484      -0.16057620       0.95152134       0.01300779       0.00090530      -0.26028560      -8.70026384
Si      10.64777083       1.61095960       3.61165707       1.18503908       0.04932006       0.79899401      -0.06019449       0.41066103      -0.21059575      -8.70856337
Si      12.49680753       2.82894879       6.63162962       0.17247332       0.48020149       0.30837654       0.51300713      -0.09476858       0.35329212      -8.73699952
Si      10.55329931       3.94097810       0.50246484      -0.00596384      -0.48212586       0.55401882      -0.51907270      -0.39488743      -0.01689344      -8.62672561
Si      12.43952675       5.03567089       3.58209304       0.91671460      -0.35934073      -0.37575405       0.65458675      -0.26796297      -0.38549460      -8.75381229
Si      14.43426244       6.14588552       6.66821912      -0.35804435       0.62066387       0.43352751      -0.23944234       0.05461955       0.40943030      -8.73678065
Si      12.53310237       7.18004739       0.37334236       0.70087500       0.38795427      -0.30118680       0.25418637       0.52248843       0.13420934      -8.71433612
Si      14.45898808       8.43809655       3.56371692      -0.81212938       0.15495574       0.81404251      -0.70042201      -0.57480746       0.16057693      -8.70902291
Si      16.28301438       9.42270453       6.79779909       0.57429797      -1.24707619      -0.32240781       0.77584354      -0.45976157      -0.69180617      -8.66929916
Si       8.31999183       4.23298249       8.70466593      -0.04633986      -0.77330320      -0.19237901      -0.01898148      -0.08020676      -0.17977795      -7.63036569
55
Lattice="11.5478352 0.0 0.0 5.773917198490155 10.000722372470358 0.0 5.773916394327279 3.333571176804646 9.428767828939895" Properties=species:S:1:pos:R:3:momenta:R:3:forces:R:3:energies:R:1 spacegroup="_JSON {\"number\": 1, \"setting\": 1}" unit_cell=conventional occupancy="_JSON {\"0\": {\"Si\": 1.0}, \"1\": {\"Si\": 1.0}, \"2\": {\"Si\": 1.0}, \"3\": {\"Si\": 1.0}, \"4\": {\"Si\": 1.0}, \"5\": {\"Si\": 1.0}, \"6\": {\"Si\": 1.0}, \"7\": {\"Si\": 1.0}, \"8\": {\"Si\": 1.0}, \"9\": {\"Si\": 1.0}, \"10\": {\"Si\": 1.0}, \"11\": {\"Si\": 1.0}, \"12\": {\"Si\": 1.0}, \"13\": {\"Si\": 1.0}, \"14\": {\"Si\": 1.0}, \"15\": {\"Si\": 1.0}, \"16\": {\"Si\": 1.0}, \"17\": {\"Si\": 1.0}, \"18\": {\"Si\": 1.0}, \"19\": {\"Si\": 1.0}, \"20\": {\"Si\": 1.0}, \"21\": {\"Si\": 1.0}, \"22\": {\"Si\": 1.0}, \"23\": {\"Si\": 1.0}, \"24\": {\"Si\": 1.0}, \"25\": {\"Si\": 1.0}, \"26\": {\"Si\": 1.0}, \"27\": {\"Si\": 1.0}, \"28\": {\"Si\": 1.0}, \"29\": {\"Si\": 1.0}, \"30\": {\"Si\": 1.0}, \"31\": {\"Si\": 1.0}, \"32\": {\"Si\": 1.0}, \"33\": {\"Si\": 1.0}, \"34\": {\"Si\": 1.0}, \"35\": {\"Si\": 1.0}, \"36\": {\"Si\": 1.0}, \"37\": {\"Si\": 1.0}, \"38\": {\"Si\": 1.0}, \"39\": {\"Si\": 1.0}, \"40\": {\"Si\": 1.0}, \"41\": {\"Si\": 1.0}, \"42\": {\"Si\": 1.0}, \"43\": {\"Si\": 1.0}, \"44\": {\"Si\": 1.0}, \"45\": {\"Si\": 1.0}, \"46\": {\"Si\": 1.0}, \"47\": {\"Si\": 1.0}, \"48\": {\"Si\": 1.0}, \"49\": {\"Si\": 1.0}, \"50\": {\"Si\": 1.0}, \"51\": {\"Si\": 1.0}, \"52\": {\"Si\": 1.0}, \"53\": {\"Si\": 1.0}, \"54\": {\"Si\": 1.0}}" energy=-476.19681568070166 stress="-0.012358372056287854 0.00628854363782181 0.0043214493377752615 0.00628854363782181 -0.011311245531094727 -0.0001998611138253257 0.0043214493377752615 -0.0001998611138253257 -0.006370181406334431" free_energy=-476.19681568070166 pbc="T T T"
Si       6.62826749       3.94558960       2.69403207      -0.61967406      -0.27960529       0.03984884      -0.04411214       0.15736253      -0.12901195      -8.72716996
Si       8.60054196       4.97619077       5.90252556       0.32561140       0.01772387      -0.78262626       0.45971219      -0.05111305       0.72658604      -8.61425920
Si      10.48977733       6.05709270       9.00529876      -0.13706329      -0.15371030      -0.61155773       0.06415557       0.02371863       0.11908145      -8.68770986
Si       8.57109135       7.18171575       2.83092022       0.08003907      -0.02364724       0.16238454       0.15665766      -0.03558935       0.37006044      -8.69645840
Si      10.51636069       8.34743446       5.79620059      -0.15028702      -0.23642390      -0.50395605      -0.22809124       0.07978341       0.47710290      -8.75137257
Si      12.46148556       9.43806255       8.95201717      -0.55619694      -0.06756734      -0.51834052      -0.05975287      -0.33447817       0.33721711      -8.72774893
Si      10.58315845      10.47154899       2.68309591      -0.17517478      -0.50890435      -0.19206162       0.47300487       0.69748333       0.28626051      -8.68870494
Si      12.51957698      11.72959876       5.85823280      -0.51847128       1.16776170      -0.11194292       0.07195025      -0.48716641       0.67245393      -8.70880407
Si      14.97846957      12.23202147       8.93158431      -0.36699368      -0.19300934      -0.69493111       0.27780179      -1.14159179       0.25462878      -7.90062033
Si      10.51141031       3.86275746       2.89143745      -0.12864805      -0.52870430      -0.57408784       0.65756450       0.03588584      -0.29993000      -8.71206662
Si      12.47633827       5.09354095       5.92240386      -0.46121379       0.42794106       0.77761525       0.10090914      -0.24357131      -0.16822411      -8.74631239
Si      14.42868278       6.13167516       9.06166312       1.20133208       0.64272657       0.25524783      -0.28370652      -0.05047519       0.22230055      -8.69944794
Si      12.53735713       7.26438338       2.74702151       0.29074149       0.86822286       0.12422203       0.00408032      -0.41515096      -0.14862980      -8.72940930
Si      14.38427270       8.36602544       5.90744926       0.02887583      -0.68798266      -0.50617059      -0.13754503       0.03570254       0.43851649      -8.75403233
Si      16.39928412       9.39782316       9.17126604       0.37619290      -1.39547701       1.35913598       0.05787698      -0.12091556      -0.66390512      -8.68969204
Si      14.41468794      10.69130370       2.86015736       0.04429069       0.29300996      -0.45253383       0.36184909      -0.48645643       0.25906909      -8.71254491
Si      16.45709676      11.57074612       5.94400005       0.10631399       0.76039299       0.17816547       0.51098966      -0.15715440       0.03860648      -8.68887050
Si      18.41341745      12.72634681       8.98992807       0.26088222      -0.02487387       0.04182794       0.04931793       0.40331975       0.18415153      -8.68373983
Si      14.36161775       3.91413751       2.82335157      -0.11493634       0.92236082       0.38612263       0.46587683      -0.72059892      -0.82505490      -8.73531150
Si      16.36675578       5.02696284       5.94887119      -0.23764649      -0.60598636       0.12141995      -0.06387295       0.63883103      -0.17981601      -8.71788155
Si      18.21215503       6.15221629       9.06675556      -0.07225102      -0.13210029      -0.00565957      -0.10724457       0.76006439       0.34129728      -8.66363807
Si      16.28165348       7.21466409       2.75072810      -0.18206556      -0.15470181       0.16249449      -0.43345878       0.14518129       0.08896836      -8.73684707
Si      18.21568333       8.38040234       5.87604241      -1.02231348       0.48397018       0.24859913       0.61642399      -0.05852973      -0.25018791      -8.73313447
Si      20.23183092       9.41407910       8.95732317       0.07790762      -1.02760685      -0.02252082      -0.07799984       0.15030665      -0.00033545      -8.74449031
Si      18.31866034      10.48647102       2.77523681      -0.19768030      -0.54113640       0.60303115      -0.08413492       0.86600120      -0.55697242      -8.71619185
Si      20.26369057      11.77661491       5.85354503       0.88516460       0.44787418      -0.36232211      -0.10949933      -0.16793947      -0.01821659      -8.73663654
Si      21.97905026      12.76867944       9.09042634      -0.77300167       0.35781678      -0.05349175       0.47556862      -0.80186637      -0.42777565      -8.67951347
Si       0.66798734       0.62510504       0.42221295       0.55382243       0.31907318      -0.56482205      -0.24315953       0.15060146       1.08645039      -8.24918022
Si       2.94422835       1.61676709       3.49411174       0.47090613      -0.15989246       0.40210214      -0.36402129       0.46158849      -0.02087517      -8.72108197
Si       4.87443383       2.84177982       6.71812920      -0.97137708       0.27767660      -0.76165214      -0.46385420      -0.13681751       0.19376911      -8.74691951
Si       2.86683557       3.92291050       0.41437133       0.08751109       0.20175204      -0.33954395      -0.33231140      -0.46650823       0.31844305      -8.62683681
Si       4.71683919       5.02023178       3.56757772      -0.93808689      -0.02100151      -0.38373784       0.39112634       0.06079084       0.31476573      -8.74691350
Si       6.75490632       6.20017211       6.72859927       0.73509276       0.44113183       0.81523003      -0.44488867      -0.51975696      -0.32577072      -8.64996636
Si       4.80689564       7.14804376       0.40750067       0.30412521      -1.28104124      -0.12983269      -0.30432719       0.74430152      -0.13719260      -8.70615718
Si       6.62119922       8.33149773       3.49216570      -0.86505931       0.57067717       0.24179234       0.42086394      -0.60860538       0.62681353      -8.72959075
Si       8.62051203       9.54912362       6.58989975      -0.55032996       0.86900944      -0.25720757       0.04992333      -0.45504735       0.11152928      -8.72355773
Si       4.95981642       0.46659561       0.35001842       0.47604107       0.01570428      -0.03188026      -0.07369334       0.09002177      -0.08371128      -8.57246459
Si       6.67997768       1.78847512       3.53612591       0.01247104       0.79803724       0.02714287      -0.22722940      -0.76474426      -0.34217421      -8.71453153
Si       8.79824404       2.64980051       6.63635949       0.39603123      -0.32112546       1.09654789      -0.76850141       0.57243316      -0.05581552      -8.52646849
Si       6.64071144       3.89175504       0.31472346       0.17450988       0.40611496      -0.91635577       0.36218918      -0.15740692       0.30339213      -8.68961227
Si       8.56369389       4.94849921       3.58016996       0.08242752      -1.18309125       1.24831893      -0.13443147       0.15817178      -0.21736203      -8.72630545
Si      10.52963586       6.15266463       6.67543404      -0.27727945       0.02980864       0.06913214      -0.26778356      -0.16012167      -0.36663935      -8.69526933
Si       8.62427036       6.90023279       0.56218997      -0.46764128      -0.11691628      -0.86980318       0.01425176       0.79487621      -0.80721993      -8.59195939
Si      10.56069984       8.28751800       3.46570527       1.05738813       0.55721223      -0.42796980      -0.05516968      -0.12816241       0.05840404      -8.74505066
Si      12.40165826       9.44980855       6.63068598      -0.40435792      -0.13650410       0.64923599       0.57770962       0.44813643      -0.44043127      -8.71636175
Si       8.65288547       0.57890198       0.54443342      -0.09630337       0.20308073       0.20035900      -0.41801886       0.44432589      -0.70534075      -8.70252047
Si      10.69815369       1.62636875       3.64000993       0.56789291       0.46992810       0.19487458      -0.71239200       0.13555635      -0.54201157      -8.69876497
Si      12.52511031       2.84917395       6.65699645       0.87608659       0.26820963       0.55683559       0.38427549      -0.18311567      -0.04834246      -8.73079065
Si      10.53893503       3.89938806       0.53049795      -0.40273486      -1.09278539       0.50385858       0.03308243      -0.33732017      -0.06235470      -8.68080707
Si      12.49607211       5.01584179       3.55593410       0.88014117      -0.19614177      -0.43952167      -0.73563517       0.50473395       0.31941283      -8.72892043
Si      14.41268683       6.17346236       6.70249611      -0.34295728       0.29591424       0.77791806       0.23433373      -0.46618329       0.03202706      -8.74302516
Si      12.57666038       7.21421477       0.36686097       0.87925848       0.75491829       0.12358361      -0.06266339      -0.10623997       0.39961559      -8.70982825
Si      14.39888389       8.42905624       3.60100898      -1.26521468      -0.38080718       0.38582050       0.14962032      -0.10516740      -0.69125904      -8.72984561
Si      16.33336466       9.35292871       6.76772759       1.07805634      -1.12647640      -0.55566322      -0.28055445       0.66288645       0.36616651      -8.68025394
Si       8.31764686       4.20002374       8.68349940      -0.01415404      -0.29082920      -0.68267462       0.09693769       0.64572941      -0.43252962      -7.53122268
55
Lattice="11.5478352 0.0 0.0 5.773917198490155 10.000722372470358 0.0 5.773916394327279 3.333571176804646 9.428767828939895" Properties=species:S:1:pos:R:3:momenta:R:3:forces:R:3:energies:R:1 spacegroup="_JSON {\"number\": 1, \"setting\": 1}" unit_cell=conventional occupancy="_JSON {\"0\": {\"Si\": 1.0}, \"1\": {\"Si\": 1.0}, \"2\": {\"Si\": 1.0}, \"3\": {\"Si\": 1.0}, \"4\": {\"Si\": 1.0}, \"5\": {\"Si\": 1.0}, \"6\": {\"Si\": 1.0}, \"7\": {\"Si\": 1.0}, \"8\": {\"Si\": 1.0}, \"9\": {\"Si\": 1.0}, \"10\": {\"Si\": 1.0}, \"11\": {\"Si\": 1.0}, \"12\": {\"Si\": 1.0}, \"13\": {\"Si\": 1.0}, \"14\": {\"Si\": 1.0}, \"15\": {\"Si\": 1.0}, \"16\": {\"Si\": 1.0}, \"17\": {\"Si\": 1.0}, \"18\": {\"Si\": 1.0}, \"19\": {\"Si\": 1.0}, \"20\": {\"Si\": 1.0}, \"21\": {\"Si\": 1.0}, \"22\": {\"Si\": 1.0}, \"23\": {\"Si\": 1.0}, \"24\": {\"Si\": 1.0}, \"25\": {\"Si\": 1.0}, \"26\": {\"Si\": 1.0}, \"27\": {\"Si\": 1.0}, \"28\": {\"Si\": 1.0}, \"29\": {\"Si\": 1.0}, \"30\": {\"Si\": 1.0}, \"31\": {\"Si\": 1.0}, \"32\": {\"Si\": 1.0}, \"33\": {\"Si\": 1.0}, \"34\": {\"Si\": 1.0}, \"35\": {\"Si\": 1.0}, \"36\": {\"Si\": 1.0}, \"37\": {\"Si\": 1.0}, \"38\": {\"Si\": 1.0}, \"39\": {\"Si\": 1.0}, \"40\": {\"Si\": 1.0}, \"41\": {\"Si\": 1.0}, \"42\": {\"Si\": 1.0}, \"43\": {\"Si\": 1.0}, \"44\": {\"Si\": 1.0}, \"45\": {\"Si\": 1.0}, \"46\": {\"Si\": 1.0}, \"47\": {\"Si\": 1.0}, \"48\": {\"Si\": 1.0}, \"49\": {\"Si\": 1.0}, \"50\": {\"Si\": 1.0}, \"51\": {\"Si\": 1.0}, \"52\": {\"Si\": 1.0}, \"53\": {\"Si\": 1.0}, \"54\": {\"Si\": 1.0}}" energy=-475.9327629588096 stress="-0.011605029592749335 0.005289968400166129 0.0035676626042535913 0.005289968400166129 -0.011396955730348216 0.00035956331394082844 0.0035676626042535913 0.00035956331394082844 -0.007575602615514438" free_energy=-475.9327629588096 pbc="T T T"
Si       6.59605690       3.94174702       2.68818230      -0.55139508       0.16981345      -0.28211793       0.18347089       0.29126257      -0.19994774      -8.70677132
Si       8.63192641       4.97446982       5.90001933       0.75728454      -0.09744381       0.78187101       0.00122709      -0.11140229       1.05547020      -8.60037860
Si      10.48576984       6.05043382       8.98132267      -0.00408174      -0.09038751      -0.25924822       0.10974883       0.06098608       0.28636180      -8.67630731
Si       8.58053225       7.17696504       2.84896298       0.26468980      -0.19256873       0.39929723       0.09088205      -0.17030909      -0.11801098      -8.65968481
Si      10.49969982       8.34203735       5.78960388      -0.44731374       0.09672304       0.24208541      -0.07789229       0.33437951       0.42956246      -8.73296684
Si      12.43464508       9.42231401       8.93925593      -0.39646174      -0.49045648       0.02246049       0.21456601      -0.16004173       0.29545055      -8.75080301
Si      10.59383143      10.47732808       2.68330714       0.56123526       0.76584692       0.17441552       0.38054342       0.81723547       0.18162664      -8.69897942
Si      12.49752152      11.76733960       5.87800333      -0.30675793       0.22087272       0.79194433       0.13540542      -0.68166139       0.37601471      -8.67518211
Si      14.97417624      12.18555742       8.91106201       0.26145521      -1.27693179      -0.04335164       0.50917710       0.03680552       0.41367162      -7.88898095
Si      10.53046511       3.84066148       2.85750547       0.79635386      -0.21683646      -0.55641489       0.42127670       0.41106797       0.34011382      -8.71765588
Si      12.45953218       5.10444436       5.95220467      -0.12629936      -0.04290520       0.29435403       0.30602927      -0.35721944      -0.42082031      -8.72653907
Si      14.46993713       6.15790134       9.08159186       0.19027968       0.25825754       0.43947791      -0.97315419      -0.42835477      -0.03048611      -8.69714392
Si      12.55018781       7.28575328       2.74453948       0.13049500      -0.16746361      -0.25632747      -0.25558048      -0.84359966      -0.28084210      -8.75099569
Si      14.38060767       8.33710818       5.90311332      -0.14833204      -0.32433034       0.36760969      -0.05996528       0.38987827       0.53635505      -8.73575106
Si      16.42173339       9.32835601       9.21098242       0.46416531      -1.08653812       0.08780087      -0.00768711       0.53463612      -0.92102288      -8.63250458
Si      14.42947322      10.68769645       2.85155267       0.45396628      -0.41642837       0.14429156       0.10151811      -0.42194501       0.33219138      -8.69717814
Si      16.48393853      11.59954509       5.95610773       0.86618397       0.29969439       0.29719400       0.30495890      -0.31313906       0.09129540      -8.66393935
Si      18.42880127      12.74175883       8.99908200       0.30289930       0.58759522       0.29052342      -0.04187021       0.29341025       0.11538898      -8.70433571
Si      14.37358456       3.92606354       2.80790468       0.49543506      -0.51849686      -0.94963552       0.17009683      -0.90108343      -0.70270070      -8.73714283
Si      16.35276098       5.02736154       5.94770077      -0.27467384       0.67490281      -0.15566917       0.02475085       0.83212047      -0.13341442      -8.69468650
Si      18.20562800       6.17429372       9.08160669      -0.15550205       0.89385274       0.56159583      -0.01892794       0.42800965       0.28562501      -8.64780671
Si      16.25381541       7.21369251       2.76043809      -0.85283694       0.13873253       0.16361389      -0.31753665       0.22472830      -0.08279312      -8.72672021
Si      18.19857417       8.39686201       5.87577679       0.50686990       0.03411118      -0.26221777       1.10343690      -0.46710719      -0.24126558      -8.74448593
Si      20.23256931       9.37396989       8.95364233      -0.05954198      -0.38118337      -0.13752713      -0.11444827       0.61021988      -0.07317984      -8.73439804
Si      18.30811235      10.49556966       2.78312696      -0.16331764       0.84607546      -0.26626162       0.07852451       0.69006346      -0.40974529      -8.71965319
Si      20.29756582      11.79109406       5.83480695       0.25289499       0.03591140      -0.33537875      -0.69735026      -0.42757201       0.04936766      -8.74915904
Si      21.96239056      12.75581364       9.07222354       0.18414221      -0.77530017      -0.57882441       0.65059074      -0.50668629      -0.17767337      -8.66497386
Si       0.68274366       0.64184969       0.43451872      -0.01810865       0.24430080       0.92999053      -0.34607293      -0.14499081       0.66070880      -8.28459863
Si       2.95204016       1.62683687       3.50901404      -0.19279816       0.52628780       0.06445183      -0.43602812       0.38487482      -0.41499061      -8.70711615
Si       4.81444421       2.85077701       6.69318573      -1.11059460       0.08924718      -0.08710294       0.33998371      -0.04125240       0.58572245      -8.76401413
Si       2.85861427       3.91088665       0.41184170      -0.36495180      -0.68887693       0.25231270      -0.18315226      -0.55942806       0.34338491      -8.63514953
Si       4.68961132       5.02357027       3.56385080      -0.01958353       0.17752879       0.27209185       0.68972787       0.16885487       0.42325956      -8.75126891
Si       6.77337631       6.20162445       6.75165936      -0.05784556      -0.37508191      -0.02121987      -0.54731205      -0.47256802      -0.64719304      -8.60962733
Si       4.80605078       7.11632732       0.39789039      -0.39756361       0.13707268      -0.18454181      -0.52978862       0.98894369       0.06282458      -8.68989029
Si       6.59621191       8.33233945       3.52735275      -0.03381570      -0.53947709       0.98924315       0.62793107      -0.60846799       0.17655243      -8.73870333
Si       8.59620284       9.57232464       6.58067526      -0.32273986      -0.04118170      -0.09010885       0.26302678      -0.66919086       0.12713414      -8.69497350
Si       4.97659443       0.46820556       0.34341914       0.05627274      -0.00389417      -0.23159946      -0.48568384      -0.10084512      -0.12694799      -8.56554492
Si       6.67287366       1.79526974       3.52534678      -0.23101370      -0.57301750      -0.37331157      -0.01896344      -0.87422295      -0.08874039      -8.72247824
Si       8.78684471       2.65605258       6.68331161      -0.78835200       0.51813771       0.55077504      -0.59306662       0.40207359      -0.60637734      -8.54560798
Si       6.66291589       3.90294765       0.28346471       0.62046146      -0.04620326      -0.19009525       0.14926029      -0.41182937       0.63315141      -8.66453994
Si       8.56159856       4.89790107       3.62254373      -0.15162868      -0.66608780       0.14828749      -0.09326133       0.48095704      -1.04558267      -8.69677468
Si      10.50523220       6.14980418       6.66270525      -0.59191357      -0.09111096      -0.54082709      -0.01606661       0.03153665      -0.30184675      -8.70905070
Si       8.60278550       6.92010407       0.49657201      -0.31208016       0.70577236      -1.35394008       0.16698075       0.11546875       0.28855309      -8.62555020
Si      10.60514808       8.30677539       3.44825502       0.48500626       0.12390834      -0.17778336      -0.65039303      -0.33135517       0.28380722      -8.73914493
Si      12.40283902       9.46097675       6.63949868       0.41131912       0.54022708      -0.39196390       0.42239071       0.35562861      -0.73325129      -8.70250586
Si       8.63388802       0.60720568       0.52797996      -0.51821143       0.83276453      -0.76837262       0.01498179       0.26297287      -0.45639381      -8.70347993
Si      10.69881204       1.65220073       3.63109136      -0.52829382       0.43268839      -0.45721058      -0.64376488      -0.18845587      -0.22970035      -8.71935383
Si      12.58215850       2.85615633       6.67997044       1.20412843       0.00175536       0.25182860      -0.00063385      -0.16604690      -0.30795269      -8.73146680
Si      10.52658480       3.83481315       0.55370934       0.05151011      -1.21525054       0.35474355       0.48353642       0.27116790      -0.16781208      -8.69319023
Si      12.50590613       5.02901952       3.54994688      -0.51953409       0.68465134       0.24403958      -0.77903966       0.43704546       0.44356947      -8.69189835
Si      14.40601680       6.16919077       6.74057530       0.10168359      -0.44755259       0.60277119       0.28086434      -0.41198464      -0.25062462      -8.74287720
Si      12.61624447       7.24162996       0.38801609       0.55179347       0.16406469       0.62417151      -0.37170871      -0.59238066       0.15548667      -8.68222017
Si      14.34859227       8.41114570       3.59306895      -0.47349613      -0.20186760      -0.62694381       0.83658589       0.28212760      -0.44439649      -8.73259928
Si      16.36422787       9.32889179       6.76120710      -0.09029635       0.31550817       0.40001743      -0.97632311       1.05106996       0.70824191      -8.64141505
Si       8.32292344       4.20746128       8.63266295       0.23880991       0.45056825      -1.16526392       0.17419848       0.17561481      -0.06717938      -7.61259877
55
Lattice="11.5478352 0.0 0.0 5.773917198490155 10.000722372470358 0.0 5.773916394327279 3.333571176804646 9.428767828939895" Properties=species:S:1:pos:R:3:momenta:R:3:forces:R:3:energies:R:1 spacegroup="_JSON {\"number\": 1, \"setting\": 1}" unit_cell=conventional occupancy="_JSON {\"0\": {\"Si\": 1.0}, \"1\": {\"Si\": 1.0}, \"2\": {\"Si\": 1.0}, \"3\": {\"Si\": 1.0}, \"4\": {\"Si\": 1.0}, \"5\": {\"Si\": 1.0}, \"6\": {\"Si\": 1.0}, \"7\": {\"Si\": 1.0}, \"8\": {\"Si\": 1.0}, \"9\": {\"Si\": 1.0}, \"10\": {\"Si\": 1.0}, \"11\": {\"Si\": 1.0}, \"12\": {\"Si\": 1.0}, \"13\": {\"Si\": 1.0}, \"14\": {\"Si\": 1.0}, \"15\": {\"Si\": 1.0}, \"16\": {\"Si\": 1.0}, \"17\": {\"Si\": 1.0}, \"18\": {\"Si\": 1.0}, \"19\": {\"Si\": 1.0}, \"20\": {\"Si\": 1.0}, \"21\": {\"Si\": 1.0}, \"22\": {\"Si\": 1.0}, \"23\": {\"Si\": 1.0}, \"24\": {\"Si\": 1.0}, \"25\": {\"Si\": 1.0}, \"26\": {\"Si\": 1.0}, \"27\": {\"Si\": 1.0}, \"28\": {\"Si\": 1.0}, \"29\": {\"Si\": 1.0}, \"30\": {\"Si\": 1.0}, \"31\": {\"Si\": 1.0}, \"32\": {\"Si\": 1.0}, \"33\": {\"Si\": 1.0}, \"34\": {\"Si\": 1.0}, \"35\": {\"Si\": 1.0}, \"36\": {\"Si\": 1.0}, \"37\": {\"Si\": 1.0}, \"38\": {\"Si\": 1.0}, \"39\": {\"Si\": 1.0}, \"40\": {\"Si\": 1.0}, \"41\": {\"Si\": 1.0}, \"42\": {\"Si\": 1.0}, \"43\": {\"Si\": 1.0}, \"44\": {\"Si\": 1.0}, \"45\": {\"Si\": 1.0}, \"46\": {\"Si\": 1.0}, \"47\": {\"Si\": 1.0}, \"48\": {\"Si\": 1.0}, \"49\": {\"Si\": 1.0}, \"50\": {\"Si\": 1.0}, \"51\": {\"Si\": 1.0}, \"52\": {\"Si\": 1.0}, \"53\": {\"Si\": 1.0}, \"54\": {\"Si\": 1.0}}" energy=-476.1601710890713 stress="-0.010793149163546597 0.001966250888538357 0.0010665152707752448 0.001966250888538357 -0.011017760621014512 1.3671309592571884e-05 0.0010665152707752448 1.3671309592571884e-05 -0.0057650000985962745" free_energy=-476.1601710890713 pbc="T T T"
Si       6.57797811       3.95525902       2.67002180      -0.06280414       0.19098862      -0.29942693       0.46858860      -0.30219050       0.23483826      -8.71289119
Si       8.66160786       4.96364799       5.96714557       0.17591890      -0.32973517       1.42644252      -0.75065280      -0.14970012      -0.29897752      -8.62225726
Si      10.49002384       6.04797138       8.97653154       0.16940035      -0.00885556       0.02314226       0.12004553       0.03902985       0.07881194      -8.64313484
Si       8.59695895       7.16000287       2.85930622       0.33476255      -0.44467012      -0.10150734      -0.01714909      -0.12737174      -0.49013472      -8.67505037
Si      10.47880536       8.36017423       5.81360669      -0.22373465       0.56917096       0.55446557       0.41194732       0.22513467      -0.03831629      -8.72817098
Si      12.42077839       9.39542373       8.94697483      -0.17540043      -0.43035001       0.17741458       0.04923095       0.24383770      -0.06868790      -8.73751540
Si      10.62950453      10.53901135       2.69660288       0.58886033       1.32716481       0.26124825      -0.44094870      -0.19671446      -0.10118691      -8.71863470
Si      12.48348680      11.75699747       5.92436041      -0.28927846      -0.49640282       0.77342500      -0.09533865      -0.20431394      -0.41352964      -8.68430921
Si      15.00798433      12.14186244       8.91568447       1.00651598      -0.05319240       0.03485419       0.39565718       1.29139451      -0.28072941      -7.83333131
Si      10.57944888       3.84821812       2.84638161       0.87553901       0.52751162       0.18705018      -0.34747530       0.48012238       0.54112440      -8.72810085
Si      12.46404289       5.08960609       5.95245017       0.27162120      -0.48252060      -0.24713828       0.19949446      -0.19283002      -0.26522264      -8.71960496
Si      14.44525635       6.15571097       9.09998657      -0.98194815      -0.28199069       0.20318824      -0.37711597      -0.19085058      -0.25996969      -8.72360903
Si      12.54492084       7.24966405       2.72479469      -0.34604777      -1.03034509      -0.36771437      -0.30614931      -0.13606894       0.21605977      -8.77783105
Si      14.37308912       8.33483634       5.93526538      -0.07815201       0.21010074       0.68417500       0.17726390       0.27744690      -0.14312428      -8.72241856
Si      16.44249949       9.29607660       9.18507897       0.25290237      -0.08845055      -0.93079651      -0.29685518       0.74059272      -0.33550439      -8.63349911
Si      14.45099943      10.65284945       2.86281727       0.24249940      -0.82734082       0.08580200      -0.37746016      -0.07993331      -0.43599254      -8.71087541
Si      16.53117825      11.60808807       5.97426116       0.72686426       0.12912620       0.35729866      -0.50475181       0.08841965      -0.05850776      -8.62993422
Si      18.44030470      12.77683727       9.01670072       0.07879687       0.59446509       0.33685607      -0.25753298      -0.30810666      -0.05702957      -8.69902522
Si      14.39796720       3.87800054       2.74541197       0.30113012      -0.98564375      -1.10567253      -0.34847762       0.38269638       0.56794842      -8.72763221
Si      16.34062675       5.08433128       5.93767177      -0.16105561       1.23750742      -0.16044459       0.12556481      -0.18536866       0.11963091      -8.73929539
Si      18.19749138       6.22514378       9.11409935      -0.13484389       0.77291330       0.48569795       0.05866002      -0.62787333      -0.45606432      -8.60863620
Si      16.20541825       7.22878626       2.76481993      -0.78100718       0.40051880      -0.01042617       0.51064425       0.07590831      -0.13800208      -8.73903249
Si      18.25305086       8.38206759       5.86315206       1.21390777      -0.54651295      -0.00660528      -0.27111515      -0.26842120       0.55662811      -8.75938040
Si      20.22451318       9.37459733       8.94689978      -0.25133193       0.31030751      -0.04206237      -0.12303937       0.23881149       0.22180566      -8.71481216
Si      18.30163616      10.55248358       2.76440133      -0.11136470       1.03728451      -0.21656610      -0.02979997      -0.42858746       0.48015019      -8.71658029
Si      20.28412491      11.77378328       5.81923358      -0.68588776      -0.71808889      -0.25260141      -0.37202650      -0.49837554       0.07146400      -8.74612129
Si      21.99172161      12.70842842       9.04164472       0.81142417      -0.74842864      -0.45280794       0.16648367       0.59989431       0.34241625      -8.68795262
Si       0.67482177       0.65116722       0.49219386      -0.15860957       0.16400399       0.92051053       0.13867368       0.05504617      -0.68946284      -8.31035843
Si       2.92906515       1.66463969       3.49483514      -0.58427787       0.79626858      -0.59377159      -0.04398794      -0.08911917      -0.35549908      -8.74213447
Si       4.77612348       2.85756449       6.70690813      -0.26986210       0.22123918       0.47090703       0.64280572       0.15113015       0.03595340      -8.75389846
Si       2.83857751       3.86118547       0.43093025      -0.26396629      -1.00784202       0.29586851       0.33909022       0.21318987      -0.35279108      -8.65745258
Si       4.70875783       5.03818505       3.58758311       0.58377227       0.33958818       0.46096112       0.04542353       0.01228664      -0.24438087      -8.74741825
Si       6.75247837       6.16921266       6.73122064      -0.64855096      -0.73154532      -0.60360792      -0.18193277       0.03882033      -0.04062610      -8.60884685
Si       4.76883044       7.15399292       0.39185435      -0.90147507       1.09166261      -0.02784638      -0.05718287       0.16415758       0.13465560      -8.72339477
Si       6.61651117       8.29113034       3.57292041       0.73866092      -0.81779432       0.48794026       0.34613788       0.22813387      -0.81725661      -8.71611385
Si       8.59125415       9.54808140       6.58161574       0.16038561      -0.77754526       0.14832922       0.35532670      -0.24694285       0.21305403      -8.72603399
Si       4.95895839       0.46375732       0.32870359      -0.71913865      -0.14966380      -0.26838979      -0.42923791      -0.03220988       0.11254849      -8.57754784
Si       6.66647527       1.74203741       3.50907062       0.12927521      -1.19341913      -0.11164995       0.52804485       0.15601937       0.43706449      -8.71531120
Si       8.73397994       2.68991828       6.68915185      -0.98662650       0.57880922      -0.28869047       0.34687346      -0.35819945      -0.45051032      -8.56536355
Si       6.69450729       3.88542323       0.29790501       0.42673640      -0.56982589       0.70893951      -0.46532139      -0.19789000       0.49238452      -8.68812318
Si       8.55411811       4.88176134       3.59574692      -0.04819650       0.04748926      -0.98475125       0.23516211       0.45714799      -0.32474868      -8.65719314
Si      10.48272254       6.15006736       6.63038135      -0.07748995       0.17045052      -0.52486002       0.69793044       0.28867396       0.33883364      -8.69290209
Si       8.59227216       6.94677611       0.45023684      -0.09682822       0.06599375      -0.20268317       0.14836428      -0.79566864       1.07687834      -8.58682144
Si      10.60445695       8.30499654       3.45079708      -0.49024391      -0.08409959       0.27315040      -0.55540053       0.08405203       0.27184122      -8.72032517
Si      12.43453715       9.49696007       6.59959039       0.65930494       0.68340217      -0.90194151      -0.12225232      -0.22992176       0.15527583      -8.73375698
Si       8.61761357       0.65260629       0.47937816       0.08524369       0.69806863      -0.88195526       0.73155585      -0.52113541       0.33358636      -8.67832114
Si      10.65303071       1.66564420       3.60601936      -1.05592452       0.06321213      -0.34326714      -0.00520646      -0.24672332       0.37447954      -8.73851216
Si      12.63949694       2.85076612       6.68269030       0.85057421      -0.18562921      -0.09480762      -0.51483648      -0.07806881      -0.09668864      -8.74463000
Si      10.54411741       3.78977823       0.56411313       0.46717594      -0.34741944       0.01246521      -0.09863135       0.86653451      -0.27302806      -8.66688280
Si      12.46387868       5.07053087       3.57450933      -0.76378118       0.65570608       0.57547852       0.46247295      -0.50270367      -0.01377746      -8.69176693
Si      14.41796683       6.13659272       6.76147832       0.24675788      -0.63467265       0.18159281      -0.13963058       0.21840285      -0.29636342      -8.74177001
Si      12.62873765       7.22868515       0.41835910      -0.11398298      -0.59140970       0.35054009      -0.51576986      -0.32645732      -0.54491296      -8.66847693
Si      14.35464850       8.41031031       3.55439983       0.59606364       0.10610468      -0.61935226       0.39966969       0.03227835       0.44600672      -8.74496736
Si      16.33341304       9.37743412       6.80110150      -0.79765590       1.31847776       0.89986632       0.12206230       0.20085650      -0.15516669      -8.68452348
Si       8.33854940       4.22936163       8.57796029       0.26537283       0.25585804      -0.73626585      -0.17789531      -0.32827230       0.64275240      -7.73768731
55
Lattice="11.5478352 0.0 0.0 5.773917198490155 10.000722372470358 0.0 5.773916394327279 3.333571176804646 9.428767828939895" Properties=species:S:1:pos:R:3:momenta:R:3:forces:R:3:energies:R:1 spacegroup="_JSON {\"number\": 1, \"setting\": 1}" unit_cell=conventional occupancy="_JSON {\"0\": {\"Si\": 1.0}, \"1\": {\"Si\": 1.0}, \"2\": {\"Si\": 1.0}, \"3\": {\"Si\": 1.0}, \"4\": {\"Si\": 1.0}, \"5\": {\"Si\": 1.0}, \"6\": {\"Si\": 1.0}, \"7\": {\"Si\": 1.0}, \"8\": {\"Si\": 1.0}, \"9\": {\"Si\": 1.0}, \"10\": {\"Si\": 1.0}, \"11\": {\"Si\": 1.0}, \"12\": {\"Si\": 1.0}, \"13\": {\"Si\": 1.0}, \"14\": {\"Si\": 1.0}, \"15\": {\"Si\": 1.0}, \"16\": {\"Si\": 1.0}, \"17\": {\"Si\": 1.0}, \"18\": {\"Si\": 1.0}, \"19\": {\"Si\": 1.0}, \"20\": {\"Si\": 1.0}, \"21\": {\"Si\": 1.0}, \"22\": {\"Si\": 1.0}, \"23\": {\"Si\": 1.0}, \"24\": {\"Si\": 1.0}, \"25\": {\"Si\": 1.0}, \"26\": {\"Si\": 1.0}, \"27\": {\"Si\": 1.0}, \"28\": {\"Si\": 1.0}, \"29\": {\"Si\": 1.0}, \"30\": {\"Si\": 1.0}, \"31\": {\"Si\": 1.0}, \"32\": {\"Si\": 1.0}, \"33\": {\"Si\": 1.0}, \"34\": {\"Si\": 1.0}, \"35\": {\"Si\": 1.0}, \"36\": {\"Si\": 1.0}, \"37\": {\"Si\": 1.0}, \"38\": {\"Si\": 1.0}, \"39\": {\"Si\": 1.0}, \"40\": {\"Si\": 1.0}, \"41\": {\"Si\": 1.0}, \"42\": {\"Si\": 1.0}, \"43\": {\"Si\": 1.0}, \"44\": {\"Si\": 1.0}, \"45\": {\"Si\": 1.0}, \"46\": {\"Si\": 1.0}, \"47\": {\"Si\": 1.0}, \"48\": {\"Si\": 1.0}, \"49\": {\"Si\": 1.0}, \"50\": {\"Si\": 1.0}, \"51\": {\"Si\": 1.0}, \"52\": {\"Si\": 1.0}, \"53\": {\"Si\": 1.0}, \"54\": {\"Si\": 1.0}}" energy=-475.9374317983631 stress="-0.011881524351332273 0.002612439750270259 0.0009018757597542269 0.002612439750270259 -0.012266809612145796 -0.0006013341084665356 0.0009018757597542269 -0.0006013341084665356 -0.004622378899409287" free_energy=-475.9374317983631 pbc="T T T"
Si       6.59399841       3.94833451       2.66983341       0.67269177      -0.51690635       0.40979277       0.45132590      -0.53347880       0.68035207      -8.71501896
Si       8.64135979       4.94488251       6.01887927      -0.86706810      -0.26594766       0.38420097      -0.42337515       0.30528136      -0.93115880      -8.61732304
Si      10.50377548       6.04830800       8.97862663       0.35657228       0.00873311       0.02708042       0.12165776      -0.01127443      -0.03949367      -8.63285602
Si       8.61250974       7.13416222       2.83535794       0.23399478      -0.47037910      -0.76338788      -0.10797481       0.15307152      -0.28511279      -8.73906800
Si      10.48812369       8.39439375       5.83666944       0.64840285       0.63216377       0.25393858       0.66018469      -0.18213967      -0.31077135      -8.73898288
Si      12.41075679       9.38434667       8.95269176      -0.24286182       0.02515911       0.05692698      -0.08952994       0.30684227      -0.00278623      -8.69051728
Si      10.63462910      10.58980536       2.70319990      -0.48893248       0.44374882      -0.04421172      -0.78160866      -0.82912193      -0.22320235      -8.69555055
Si      12.46402295      11.73080429       5.94333762      -0.43064715      -0.36822113      -0.11849307      -0.00516902       0.30890998      -0.66609760      -8.69525543
Si      15.06814502      12.17778342       8.90501507       1.07881407       1.05948318      -0.42291231      -0.41005470      -0.10429321      -0.22091569      -7.87535865
Si      10.60522375       3.88876591       2.87235474       0.00845468       0.86776064       0.67490004      -0.71475454      -0.11106222       0.03463392      -8.73684150
Si      12.48414246       5.05982185       5.93296450       0.45666634      -0.58948258      -0.41516235       0.04455357       0.05890782       0.05501797      -8.72336949
Si      14.39249350       6.13945328       9.10029297      -0.79303226      -0.23947453      -0.17779909       0.53651853       0.18722168      -0.19398885      -8.72736846
Si      12.51756747       7.20303097       2.71951847      -0.63578522      -0.52156240       0.23541896      -0.06446777       0.73244196       0.47483980      -8.75622950
Si      14.37888798       8.35342826       5.95970573       0.34388301       0.43729471       0.15967010       0.33961036       0.03398128      -0.48186948      -8.70887941
Si      16.44129884       9.31741476       9.13367806      -0.35024418       0.82512993      -0.83006499      -0.49003717       0.42535817       0.43142789      -8.66991255
Si      14.44738256      10.61079483       2.84448772      -0.36596479      -0.69362563      -0.83705692      -0.30832025       0.23636351      -0.61891838      -8.73419555
Si      16.54381167      11.62231901       5.98771618      -0.32634763       0.46980938       0.09456506      -0.80617253       0.30340692      -0.29292170      -8.61679592
Si      18.43389656      12.79191080       9.03157178      -0.31152022      -0.06913927       0.22892426      -0.20585284      -0.49499415      -0.06171936      -8.66357060
Si      14.39951722       3.85513681       2.71909810      -0.23544045       0.32650600       0.20086770      -0.31608545       1.18361024       0.92920057      -8.68249945
Si      16.33639046       5.13064051       5.93427862      -0.03314983       0.33899339       0.01210074      -0.00621632      -0.91177704       0.04400910      -8.74920238
Si      18.19284173       6.23398982       9.11508836      -0.05932410      -0.49990091      -0.52293476      -0.01334342      -0.84935319      -0.72544437      -8.60078239
Si      16.19409557       7.24941692       2.75894167       0.50222451       0.32396299      -0.20635005       1.07750815      -0.15946032      -0.10121019      -8.74214715
Si      18.29335014       8.34596554       5.88537294       0.13800446      -0.75615158       0.78627735      -0.98192383       0.03731442       0.29079258      -8.71265332
Si      20.20769878       9.39392929       8.95562490      -0.35522150       0.31840726       0.39650830       0.01273996      -0.18648146       0.30104416      -8.70423084
Si      18.29219891      10.58264403       2.77604416      -0.29445787       0.00796768       0.65783682      -0.20404296      -0.82581465       0.45696256      -8.70505012
Si      20.24454485      11.72034754       5.80868607      -0.61790818      -1.21620159      -0.14774985       0.41929113      -0.08402942       0.08030289      -8.72515570
Si      22.03650760      12.70237756       9.03355815       0.82349169       0.63990389       0.15312579      -0.12355086       1.04076873       0.36401878      -8.70509657
Si       0.67502353       0.66398742       0.50643906       0.20976843       0.34651600      -0.40798113       0.30758383       0.13635911      -0.78493005      -8.31109875
Si       2.90138455       1.69653975       3.45624632      -0.39302273       0.30747286      -0.72883306       0.25597435      -0.51213413       0.22254325      -8.75871211
Si       4.78129964       2.87328050       6.72350282       0.33244971       0.32231449       0.00419335       0.11196150      -0.06427891      -0.56619000      -8.71972511
Si       2.84142302       3.82453424       0.42613064       0.39552262      -0.26193130      -0.54526764       0.41309579       0.70393977      -0.59102686      -8.64577893
Si       4.73438936       5.05412520       3.59515319       0.30040082       0.22159439      -0.26773163      -0.31516141      -0.17026091      -0.60222122      -8.71763582
Si       6.71733740       6.13777853       6.70656442      -0.58009280      -0.37921466      -0.18836340       0.24689264       0.37367871       0.53088017      -8.62459904
Si       4.72590605       7.20604702       0.39562919      -0.61176146       0.70069508       0.16095431       0.42569505      -0.57296992       0.08283539      -8.72460994
Si       6.66374909       8.26305402       3.56455002       0.96103003      -0.16183340      -0.76101786      -0.05748405       0.57848725      -0.62391329      -8.68563678
Si       8.61164369       9.50365765       6.59950573       0.55775065      -0.81390764       0.56220859       0.11707711       0.15098776       0.31185399      -8.75605279
Si       4.91218741       0.45921018       0.32241690      -0.87254926       0.08659827       0.09332696       0.31962915       0.39179033       0.35867692      -8.58031012
Si       6.69692012       1.69613801       3.52307699       1.00872942      -0.40797156       0.65001388       0.40948325       0.72242367       0.43347536      -8.69567813
Si       8.70250837       2.69948213       6.66062657      -0.12296193      -0.30652502      -0.71814990       0.68772446      -0.69815415      -0.12297801      -8.53820371
Si       6.69245256       3.85371652       0.34857536      -0.58798323      -0.52106692       1.08854027      -0.76119113       0.25871133      -0.04042314      -8.71402035
Si       8.56268923       4.89950357       3.54261907       0.38443385       0.56893318      -0.83126042       0.26286657       0.21261822       0.50579689      -8.61733560
Si      10.50726008       6.16869539       6.61942633       0.96396547       0.46237023       0.13043109       0.49680593      -0.01439886       0.42409772      -8.67595168
Si       8.59557562       6.92576675       0.47495536       0.28244093      -0.65068625       0.92837178       0.35531147       0.02522248       0.22233154      -8.60074914
Si      10.56304420       8.30802657       3.47310345      -0.95914121       0.25459489       0.51311599      -0.04060786       0.29480606       0.01441175      -8.69946877
Si      12.45933214       9.51693302       6.56866431       0.21408607      -0.03020883      -0.10962022      -0.39223218      -0.63228292       0.80050961      -8.73886855
Si       8.65170777       0.66050170       0.45137872       1.16984580      -0.51605198      -0.13183668       0.53561349      -0.95182017       0.52910434      -8.67506273
Si      10.60380937       1.66242064       3.60593712      -0.72113891      -0.12101729       0.36453116       0.37843741       0.00455746       0.45583035      -8.72492723
Si      12.65985698       2.83883672       6.67851232      -0.13598642      -0.25937135       0.01459198      -0.73459582      -0.04066963       0.20746837      -8.75201267
Si      10.55504111       3.80734835       0.55503375      -0.18526848       1.01727292      -0.33608350      -0.60359085       0.83656549      -0.18485483      -8.64585431
Si      12.45147698       5.07841130       3.60020016       0.42521186      -0.43762202       0.33172714       0.96959985      -0.80507354      -0.30171947      -8.69848350
Si      14.42024119       6.11863622       6.76055036      -0.23334209       0.05863235      -0.19806699      -0.41080116       0.63103370      -0.21767390      -8.73135006
Si      12.60219690       7.19148788       0.41188335      -0.89468642      -0.68899011      -0.60019444      -0.48444360       0.21845201      -0.53499399      -8.68548173
Si      14.38923550       8.41102548       3.54532258       0.50148646      -0.18505428       0.34703392      -0.45134927      -0.37484439       0.71512283      -8.72783484
Si      16.30639007       9.44477094       6.83092240      -0.08724332       1.07435995       0.03753522       0.69381769      -0.48886835      -0.92084240      -8.67092125
Si       8.34206588       4.23030195       8.56743937      -0.17723853      -0.19793310       0.35181940      -0.34702206      -0.24407686       0.68983722      -7.75715644
55
Lattice="11.5478352 0.0 0.0 5.773917198490155 10.000722372470358 0.0 5.773916394327279 3.333571176804646 9.428767828939895" Properties=species:S:1:pos:R:3:momenta:R:3:forces:R:3:energies:R:1 spacegroup="_JSON {\"number\": 1, \"setting\": 1}" unit_cell=conventional occupancy="_JSON {\"0\": {\"Si\": 1.0}, \"1\": {\"Si\": 1.0}, \"2\": {\"Si\": 1.0}, \"3\": {\"Si\": 1.0}, \"4\": {\"Si\": 1.0}, \"5\": {\"Si\": 1.0}, \"6\": {\"Si\": 1.0}, \"7\": {\"Si\": 1.0}, \"8\": {\"Si\": 1.0}, \"9\": {\"Si\": 1.0}, \"10\": {\"Si\": 1.0}, \"11\": {\"Si\": 1.0}, \"12\": {\"Si\": 1.0}, \"13\": {\"Si\": 1.0}, \"14\": {\"Si\": 1.0}, \"15\": {\"Si\": 1.0}, \"16\": {\"Si\": 1.0}, \"17\": {\"Si\": 1.0}, \"18\": {\"Si\": 1.0}, \"19\": {\"Si\": 1.0}, \"20\": {\"Si\": 1.0}, \"21\": {\"Si\": 1.0}, \"22\": {\"Si\": 1.0}, \"23\": {\"Si\": 1.0}, \"24\": {\"Si\": 1.0}, \"25\": {\"Si\": 1.0}, \"26\": {\"Si\": 1.0}, \"27\": {\"Si\": 1.0}, \"28\": {\"Si\": 1.0}, \"29\": {\"Si\": 1.0}, \"30\": {\"Si\": 1.0}, \"31\": {\"Si\": 1.0}, \"32\": {\"Si\": 1.0}, \"33\": {\"Si\": 1.0}, \"34\": {\"Si\": 1.0}, \"35\": {\"Si\": 1.0}, \"36\": {\"Si\": 1.0}, \"37\": {\"Si\": 1.0}, \"38\": {\"Si\": 1.0}, \"39\": {\"Si\": 1.0}, \"40\": {\"Si\": 1.0}, \"41\": {\"Si\": 1.0}, \"42\": {\"Si\": 1.0}, \"43\": {\"Si\": 1.0}, \"44\": {\"Si\": 1.0}, \"45\": {\"Si\": 1.0}, \"46\": {\"Si\": 1.0}, \"47\": {\"Si\": 1.0}, \"48\": {\"Si\": 1.0}, \"49\": {\"Si\": 1.0}, \"50\": {\"Si\": 1.0}, \"51\": {\"Si\": 1.0}, \"52\": {\"Si\": 1.0}, \"53\": {\"Si\": 1.0}, \"54\": {\"Si\": 1.0}}" energy=-476.518743007323 stress="-0.012384717292800274 0.004794544771576121 0.002577919799450261 0.004794544771576121 -0.012015336220029935 -0.000929862560913907 0.002577919799450261 -0.000929862560913907 -0.004747626976520006" free_energy=-476.518743007323 pbc="T T T"
Si       6.64328639       3.90409049       2.71841978       1.10763065      -1.05406554       1.39146655       0.05559277      -0.06874512       0.45823051      -8.73835647
Si       8.59140658       4.94673708       6.00551547      -0.79246781       0.37086404      -0.80630015       0.53019270       0.43337086      -0.57045064      -8.59630843
Si      10.52663579       6.04828715       8.97877584       0.48397097      -0.00266636      -0.01084117      -0.00725704       0.01808249       0.00001695      -8.66979957
Si       8.62125305       7.12052314       2.79188458       0.11818615       0.05190461      -0.72014732      -0.03404479       0.53526048       0.38400482      -8.74976323
Si      10.54333005       8.41572449       5.83941046       1.30437472       0.08841124      -0.09603097       0.05803241      -0.53805997      -0.09837956      -8.76694089
Si      12.39549015       9.39497442       8.96081942      -0.30152775       0.31712559       0.36182923       0.05696968       0.05563165       0.41288590      -8.67472738
Si      10.58775929      10.58480219       2.69618749      -1.07227278      -0.51669788      -0.12822155       0.09194915      -0.35985041       0.14196488      -8.69681811
Si      12.44560105      11.72212151       5.91658401      -0.17693491      -0.03622394      -0.74751781       0.35481467       0.02592208      -0.05418169      -8.72093719
Si      15.10150675      12.21074929       8.87760152       0.10680004      -0.05231074      -0.54938558      -0.72838251      -1.05374365       0.07084714      -7.89456053
Si      10.58258012       3.92272026       2.90192806      -0.71807298       0.30171214       0.31825324      -0.10573292      -0.59095543      -0.48876136      -8.72515792
Si      12.50848903       5.03275116       5.91630681       0.44127406      -0.41819754      -0.17330804      -0.07368392       0.15067766       0.23177661      -8.74575162
Si      14.37236719       6.13369222       9.08782444      -0.01450847      -0.00781984      -0.20110028       0.37886982       0.08566980       0.17497680      -8.72694024
Si      12.48374886       7.20439072       2.74701009      -0.61152268       0.51143387       0.72294536       0.10216679       0.48054797       0.11982303      -8.72077631
Si      14.40831135       8.37658691       5.95133873       0.71010036       0.43209303      -0.40521892       0.07098812      -0.02091933      -0.18502121      -8.73956126
Si      16.40363871       9.37193921       9.10709956      -1.05751822       1.14108684      -0.25463194      -0.35858322      -0.02386131       0.14338816      -8.71183208
Si      14.42310698      10.58265789       2.78510314      -0.41473625      -0.41694266      -1.18560489       0.24844568       0.08944588       0.32590488      -8.75226940
Si      16.49934956      11.65739360       5.97993486      -1.22866726       0.79610309      -0.40535266      -0.23433009       0.01301076      -0.34159357      -8.66929039
Si      18.41258642      12.77182164       9.04269473      -0.43669127      -0.62208134       0.21981598       0.04372681      -0.19333226       0.03217085      -8.65119928
Si      14.37925033       3.91174890       2.75490384      -0.40764272       1.58122429       0.88944202       0.21009386       0.18508150      -0.15344647      -8.73443044
Si      16.33062219       5.11441499       5.93280237      -0.25334762      -0.86464964      -0.14407427      -0.25912665      -0.52958374      -0.24798287      -8.74827046
Si      18.18581097       6.18649812       9.06682760      -0.26501686      -1.00942840      -1.11341399      -0.22321752       0.32670170       0.07771122      -8.65734949
Si      16.25805195       7.26064038       2.74634257       1.77066308       0.12350340      -0.21997511       0.41511535      -0.08958171       0.10638325      -8.76719773
Si      18.26704436       8.31326033       5.92775242      -0.97963404      -0.37325922       0.62521730      -0.33370988       0.47895960      -0.50354581      -8.69689395
Si      20.19105660       9.40251483       8.98625777      -0.25717026       0.02467158       0.72164833       0.09544067      -0.11688610       0.10434860      -8.74527041
Si      18.26835767      10.55569239       2.81819487      -0.59507078      -0.88097083       0.73564532      -0.12336264      -0.20167731      -0.36817411      -8.72816777
Si      20.23056821      11.65959828       5.80497704       0.07858286      -0.96775444       0.03710230       0.39034874       0.42430460       0.19784372      -8.70767229
Si      22.07515204      12.76611833       9.04931111       0.66831936       1.49378853       0.28613315      -0.04501198      -0.12016153      -0.26991397      -8.72316483
Si       0.69680618       0.68572654       0.46967282       0.56272945       0.42568402      -0.64584764       0.06898979      -0.08386074       0.56869578      -8.31720616
Si       2.88927891       1.69500658       3.43172231      -0.12542669      -0.27455009      -0.12935754       0.03141878      -0.15364297       0.51812843      -8.76763497
Si       4.79615120       2.88417608       6.70259101       0.11556621       0.02104979      -0.73279368      -0.34735778      -0.34507181      -0.29399726      -8.71203163
Si       2.87153652       3.83689368       0.38184491       0.58732444       0.66699986      -0.95920639      -0.22833268       0.42781674       0.12387046      -8.63651098
Si       4.74121196       5.05801710       3.56191705       0.05926546      -0.08684829      -0.86942334       0.07566412      -0.21690437      -0.08980861      -8.72229291
Si       6.69630640       6.13031873       6.71710864      -0.26106535       0.02212230       0.52479731       0.09228383       0.08744522       0.25628259      -8.66813922
Si       4.71262856       7.22304106       0.40432298       0.13484914       0.05029187       0.10411788       0.52775771      -0.17233784      -0.16919668      -8.72337728
Si       6.70919782       8.27528508       3.51222539       0.72128130       0.55674259      -0.98113152      -0.25100924       0.28571164       0.36685397      -8.70471010
Si       8.64145051       9.46595087       6.64001613       0.50461741      -0.65669318       0.92767613      -0.16969068       0.02821102       0.09139209      -8.76084063
Si       4.88666890       0.48234411       0.34143061       0.00361992       0.79496888       0.59511881       0.70514769       0.36567528       0.20214401      -8.57675994
Si       6.75358542       1.69726681       3.56595593       0.89431538       0.29184383       0.78878221      -0.57498569       0.09063707      -0.32915223      -8.71597449
Si       8.71741271       2.66202306       6.62114714       0.52587030      -0.94127733      -0.72133311       0.02279685       0.01651725       0.14061529      -8.52223990
Si       6.63833504       3.83862530       0.39914977      -1.28117613      -0.02854210       0.76666580       0.00623793       0.35807025      -0.31343949      -8.72498754
Si       8.58911282       4.93458081       3.52475960       0.52320314       0.71342956       0.25152363      -0.12407368      -0.00333032       0.88326784      -8.65151208
Si      10.56798757       6.18592866       6.63774266       1.16130410       0.07860521       0.44803122      -0.24795771      -0.46099595      -0.04943058      -8.65414353
Si       8.62209659       6.90385007       0.51615026       0.62484509      -0.00802015       0.34777007      -0.06122244       0.71773510      -0.90725109      -8.56697370
Si      10.51612682       8.33117003       3.49707880      -0.73482375       0.56841569       0.33380530       0.33162613       0.05921256      -0.24196123      -8.71566331
Si      12.45921740       9.49466640       6.59335748      -0.10220869      -0.68725255       0.98966748       0.06459442      -0.11589615       0.54770856      -8.75271075
Si       8.72287858       0.60341539       0.45799627       1.27434457      -1.44515079       0.21616489      -0.51896446      -0.10600600      -0.12344315      -8.72694949
Si      10.57832906       1.65784270       3.63652511      -0.31457157      -0.03995450       0.63511982       0.12807511       0.05924817      -0.20131683      -8.70702206
Si      12.62796625       2.82234951       6.68766194      -0.96876105      -0.39399537       0.31490930      -0.28921008      -0.13085006       0.13042282      -8.75286244
Si      10.52661289       3.88533980       0.53088601      -0.76565350       1.74688771      -0.56462100      -0.09107201       0.00644367      -0.09676049      -8.65088846
Si      12.50530309       5.03101895       3.60435050       1.39831685      -1.16445450      -0.18173247       0.04402134       0.01139034      -0.31293675      -8.76223611
Si      14.39563318       6.14470216       6.74242550      -0.59093912       0.86238325      -0.47186775       0.03458748       0.33439967      -0.12409660      -8.74273717
Si      12.53966164       7.16888514       0.36958596      -1.38495125      -0.08856221      -0.78226578      -0.06488985       0.53554477       0.36101938      -8.70355044
Si      14.39706428       8.38607999       3.58487943      -0.15998952      -0.74052288       0.96895897      -0.28347257      -0.26866648      -0.04561937      -8.74444082
Si      16.32768021       9.47955313       6.79673178       0.83675233       0.22732908      -1.27453408       0.43170028      -0.56536414      -0.64171366      -8.68741531
Si       8.32271670       4.21191836       8.60591544      -0.44573802      -0.48178355       0.95263134       0.11103334      -0.15644112       0.04889675      -7.68752393
55
Lattice="11.5478352 0.0 0.0 5.773917198490155 10.000722372470358 0.0 5.773916394327279 3.333571176804646 9.428767828939895" Properties=species:S:1:pos:R:3:momenta:R:3:forces:R:3:energies:R:1 spacegroup="_JSON {\"number\": 1, \"setting\": 1}" unit_cell=conventional occupancy="_JSON {\"0\": {\"Si\": 1.0}, \"1\": {\"Si\": 1.0}, \"2\": {\"Si\": 1.0}, \"3\": {\"Si\": 1.0}, \"4\": {\"Si\": 1.0}, \"5\": {\"Si\": 1.0}, \"6\": {\"Si\": 1.0}, \"7\": {\"Si\": 1.0}, \"8\": {\"Si\": 1.0}, \"9\": {\"Si\": 1.0}, \"10\": {\"Si\": 1.0}, \"11\": {\"Si\": 1.0}, \"12\": {\"Si\": 1.0}, \"13\": {\"Si\": 1.0}, \"14\": {\"Si\": 1.0}, \"15\": {\"Si\": 1.0}, \"16\": {\"Si\": 1.0}, \"17\": {\"Si\": 1.0}, \"18\": {\"Si\": 1.0}, \"19\": {\"Si\": 1.0}, \"20\": {\"Si\": 1.0}, \"21\": {\"Si\": 1.0}, \"22\": {\"Si\": 1.0}, \"23\": {\"Si\": 1.0}, \"24\": {\"Si\": 1.0}, \"25\": {\"Si\": 1.0}, \"26\": {\"Si\": 1.0}, \"27\": {\"Si\": 1.0}, \"28\": {\"Si\": 1.0}, \"29\": {\"Si\": 1.0}, \"30\": {\"Si\": 1.0}, \"31\": {\"Si\": 1.0}, \"32\": {\"Si\": 1.0}, \"33\": {\"Si\": 1.0}, \"34\": {\"Si\": 1.0}, \"35\": {\"Si\": 1.0}, \"36\": {\"Si\": 1.0}, \"37\": {\"Si\": 1.0}, \"38\": {\"Si\": 1.0}, \"39\": {\"Si\": 1.0}, \"40\": {\"Si\": 1.0}, \"41\": {\"Si\": 1.0}, \"42\": {\"Si\": 1.0}, \"43\": {\"Si\": 1.0}, \"44\": {\"Si\": 1.0}, \"45\": {\"Si\": 1.0}, \"46\": {\"Si\": 1.0}, \"47\": {\"Si\": 1.0}, \"48\": {\"Si\": 1.0}, \"49\": {\"Si\": 1.0}, \"50\": {\"Si\": 1.0}, \"51\": {\"Si\": 1.0}, \"52\": {\"Si\": 1.0}, \"53\": {\"Si\": 1.0}, \"54\": {\"Si\": 1.0}}" energy=-476.0259825239843 stress="-0.013568371389983751 0.005919449028206925 0.004710173950012949 0.005919449028206925 -0.01262089637166935 -0.0003980644947899556 0.004710173950012949 -0.0003980644947899556 -0.007012356844892955" free_energy=-476.0259825239843 pbc="T T T"
Si       6.69762749       3.85544126       2.79927628       0.84691457      -0.60872617       1.46770449      -0.39262828       0.66490482      -0.40382072      -8.72895109
Si       8.57708963       4.97977251       5.95027709       0.32887662       0.81569469      -1.08178457       0.83616385       0.14524503       0.29793416      -8.57714300
Si      10.54778691       6.05076699       8.97879866       0.23309936       0.14465741       0.02005875      -0.34659947       0.20207125       0.03349791      -8.69834412
Si       8.62758048       7.14462183       2.77277577       0.14585750       0.83288248       0.00704299       0.05475090       0.39163811       0.43625109      -8.72382768
Si      10.60376090       8.39778984       5.83537553       0.81852237      -0.77614360       0.03414358      -0.63274929      -0.53690741       0.26080556      -8.76276582
Si      12.38477323       9.41013459       8.99859020      -0.04990071       0.19161739       1.08592462       0.27443372      -0.21390348       0.43054146      -8.70087000
Si      10.54372373      10.55290670       2.69864271      -0.47802526      -0.51604429       0.27075018       0.58811566       0.35893687       0.32788318      -8.68575200
Si      12.45159766      11.71464394       5.88544033       0.39701898      -0.35675030      -0.26580541       0.30948008      -0.39030078       0.60697677      -8.71075671
Si      15.08526592      12.17632678       8.85393891      -0.56965393      -0.99532132      -0.33031995      -0.11222685      -0.02553994       0.14473131      -7.88981685
Si      10.55128975       3.91583502       2.89675846      -0.31108842      -0.51813076      -0.54708682       0.51627516      -0.39613912      -0.60065089      -8.69861642
Si      12.52829631       5.01532641       5.91516013       0.30644626      -0.27563522       0.09810715      -0.10057169       0.03505756       0.10933160      -8.75803467
Si      14.37923783       6.13487871       9.08598413       0.14273441       0.02934553       0.13572619      -0.14542207      -0.01026801       0.19146580      -8.69500213
Si      12.45642490       7.24008083       2.78432330      -0.41453008       0.65457558       0.59397390       0.16001270      -0.27828627      -0.29222719      -8.68406899
Si      14.44342613       8.39932900       5.92963406       0.53401068       0.44518595      -0.30118357      -0.29538400       0.01498066       0.27523610      -8.75701197
Si      16.34144532       9.42672093       9.08700724      -1.12883352       0.86297599      -0.73389045       0.35288165      -0.34905345      -0.70206634      -8.69588642
Si      14.41408345      10.56061316       2.74836241       0.09642010      -0.47881755      -0.02368193       0.34583061      -0.12871577       1.03870878      -8.72336029
Si      16.43893459      11.69165812       5.94651497      -0.81969801       0.34886889      -0.83184147       0.72763494      -0.59364685      -0.18863678      -8.67831825
Si      18.39266358      12.73709278       9.05531194      -0.30987204      -0.58618407       0.23929943       0.09365593       0.25905909      -0.05472945      -8.67839687
Si      14.37759320       3.98076554       2.78011152       0.53980065       0.67160043      -0.18490480       0.91300285      -1.25098023      -1.11979459      -8.70884858
Si      16.30672214       5.05991797       5.91351043      -0.64486376      -0.98509383      -0.60864257      -0.20515581       0.35202468      -0.30652201      -8.72915615
Si      18.16360327       6.16059626       9.02415045      -0.55442802       0.23412471      -0.27673328      -0.11716902       1.13074066       0.98280996      -8.65265820
Si      16.35342079       7.26402718       2.74057491       1.58853433      -0.00585707       0.01499781      -0.66034632      -0.12932357       0.16168263      -8.74544873
Si      18.21761942       8.31224705       5.93549629      -0.59632064       0.27670317      -0.40276481       0.86343793       0.24466290      -0.77315721      -8.69024788
Si      20.18017559       9.40541026       9.02610268      -0.18059096       0.22018100       0.75419647       0.00838008       0.39948547      -0.06570284      -8.77251487
Si      18.23571304      10.51525284       2.83706492      -0.57507517      -0.39797430      -0.07456441       0.16599782       0.80383373      -0.58143444      -8.72136297
Si      20.24353474      11.62691529       5.81681454       0.27726834      -0.27670096       0.45136752      -0.15607387       0.41929543       0.33537007      -8.71539568
Si      22.11225652      12.82336640       9.04521424       0.79102063       0.42793792      -0.56928510       0.11138784      -1.11095887      -0.74094063      -8.68600962
Si       0.72267316       0.70225448       0.47146267       0.30764790       0.18186825       0.88236868      -0.36407969      -0.15816011       1.18465171      -8.30740365
Si       2.87885234       1.68179123       3.44428665      -0.34843626      -0.11175942       0.57575620      -0.25727304       0.30262989       0.38131912      -8.73844211
Si       4.78829282       2.86918469       6.65964733      -0.38186607      -0.62890159      -0.77206170      -0.20888011      -0.47135874       0.21960200      -8.73303830
Si       2.88658401       3.87973518       0.34436743      -0.11533019       0.77573792      -0.33723724      -0.61694020      -0.31288233       0.63265980      -8.59689602
Si       4.75467464       5.04646020       3.52111906       0.57770920      -0.31613212      -0.53700727       0.54505353      -0.06872889       0.48397495      -8.72716634
Si       6.68100357       6.12926481       6.74306459      -0.40238957      -0.15113381       0.22465253      -0.21373480      -0.25510055      -0.65937414      -8.67905667
Si       4.73744829       7.22761782       0.40206754       0.73200979       0.26731073      -0.18631412       0.20788043       0.38248034      -0.15099404      -8.72242609
Si       6.73796901       8.30826860       3.48430941       0.39194080       0.56150400       0.06755914      -0.18585155      -0.24636534       0.94089098      -8.71583826
Si       8.66070904       9.43015408       6.68720630       0.22541917      -0.72632354       0.76130610      -0.18518048      -0.04211356      -0.33313488      -8.72791258
Si       4.90911578       0.52859299       0.37411352       0.72010602       0.75674632       0.52397172       0.18828100      -0.44221791      -0.28251583      -8.58015403
Si       6.77274240       1.70365523       3.58649815      -0.22240128      -0.28339129      -0.12017339      -0.79892080      -0.81247387      -0.75700581      -8.69855000
Si       8.73190346       2.62654609       6.59191448      -0.22001690      -0.16458404      -0.32537878      -0.89938701       0.96162363       0.39306645      -8.48197117
Si       6.58459912       3.84980244       0.43109319      -0.51858272       0.42070703       0.54109706       0.96229175       0.21398587       0.03086396      -8.69159308
Si       8.60846086       4.97169652       3.56988432       0.18566218       0.69365688       1.34937890      -0.22577668      -0.04073070       0.38606058      -8.72721895
Si      10.61357794       6.17061845       6.65325457       0.48231096      -0.66797989       0.04354722      -0.60980881      -0.47656325      -0.42908552      -8.64872764
Si       8.64074735       6.93215350       0.49868941      -0.15439272       1.05187896      -0.90333233      -0.97621984       0.55573874      -0.46533620      -8.53319387
Si      10.49251840       8.35879606       3.50532322      -0.12478331       0.39585437       0.00810154       0.48450500      -0.28308408      -0.12836908      -8.74704328
Si      12.46400711       9.46283785       6.65916805       0.39753551      -0.38290828       1.36289871       0.48826215       0.43376977      -0.06664282      -8.73905308
Si       8.75776817       0.53632222       0.45760525      -0.11532719      -0.89434572      -0.32134028      -1.14914909       0.73404800      -0.46958478      -8.71910087
Si      10.56275747       1.65669278       3.65180219      -0.33368468      -0.03196517      -0.23432749      -0.08539119      -0.04737402      -0.89231647      -8.69540823
Si      12.57354789       2.79647966       6.70612749      -0.95162416      -0.57482847       0.32484322       0.31611327      -0.06132234      -0.11919905      -8.72894672
Si      10.48897631       3.96583567       0.49949419      -0.56841287       1.10901073      -0.58443112       0.30381834      -0.81109122       0.08486240      -8.64552073
Si      12.55851384       4.98497330       3.58814012       0.23262786      -0.33571200      -0.31846680      -1.43739924       0.96921465       0.12298445      -8.73287187
Si      14.37315507       6.19526440       6.71558874      -0.14269518       0.90070477      -0.47977121       0.50727251      -0.30842314       0.15455928      -8.73580710
Si      12.47135281       7.18338394       0.35186982      -1.08443166       0.56880664       0.25430364       0.45103410       0.24254178       0.92481158      -8.68602752
Si      14.38545103       8.34151259       3.62107087      -0.13222837      -0.85613028       0.18655087       0.30332061       0.12908275      -0.89871512      -8.72800612
Si      16.37933472       9.47582093       6.71578118       0.92263717      -0.21575133      -1.57941091      -0.38498673       0.03643525       0.26356898      -8.69183321
Si       8.31293567       4.18027214       8.65079813       0.22735232      -0.72091132       0.65211315       0.68403149      -0.13147317      -0.35514580      -7.59820911
55
Lattice="11.5478352 0.0 0.0 5.773917198490155 10.000722372470358 0.0 5.773916394327279 3.333571176804646 9.428767828939895" Properties=species:S:1:pos:R:3:momenta:R:3:forces:R:3:energies:R:1 spacegroup="_JSON {\"number\": 1, \"setting\": 1}" unit_cell=conventional occupancy="_JSON {\"0\": {\"Si\": 1.0}, \"1\": {\"Si\": 1.0}, \"2\": {\"Si\": 1.0}, \"3\": {\"Si\": 1.0}, \"4\": {\"Si\": 1.0}, \"5\": {\"Si\": 1.0}, \"6\": {\"Si\": 1.0}, \"7\": {\"Si\": 1.0}, \"8\": {\"Si\": 1.0}, \"9\": {\"Si\": 1.0}, \"10\": {\"Si\": 1.0}, \"11\": {\"Si\": 1.0}, \"12\": {\"Si\": 1.0}, \"13\": {\"Si\": 1.0}, \"14\": {\"Si\": 1.0}, \"15\": {\"Si\": 1.0}, \"16\": {\"Si\": 1.0}, \"17\": {\"Si\": 1.0}, \"18\": {\"Si\": 1.0}, \"19\": {\"Si\": 1.0}, \"20\": {\"Si\": 1.0}, \"21\": {\"Si\": 1.0}, \"22\": {\"Si\": 1.0}, \"23\": {\"Si\": 1.0}, \"24\": {\"Si\": 1.0}, \"25\": {\"Si\": 1.0}, \"26\": {\"Si\": 1.0}, \"27\": {\"Si\": 1.0}, \"28\": {\"Si\": 1.0}, \"29\": {\"Si\": 1.0}, \"30\": {\"Si\": 1.0}, \"31\": {\"Si\": 1.0}, \"32\": {\"Si\": 1.0}, \"33\": {\"Si\": 1.0}, \"34\": {\"Si\": 1.0}, \"35\": {\"Si\": 1.0}, \"36\": {\"Si\": 1.0}, \"37\": {\"Si\": 1.0}, \"38\": {\"Si\": 1.0}, \"39\": {\"Si\": 1.0}, \"40\": {\"Si\": 1.0}, \"41\": {\"Si\": 1.0}, \"42\": {\"Si\": 1.0}, \"43\": {\"Si\": 1.0}, \"44\": {\"Si\": 1.0}, \"45\": {\"Si\": 1.0}, \"46\": {\"Si\": 1.0}, \"47\": {\"Si\": 1.0}, \"48\": {\"Si\": 1.0}, \"49\": {\"Si\": 1.0}, \"50\": {\"Si\": 1.0}, \"51\": {\"Si\": 1.0}, \"52\": {\"Si\": 1.0}, \"53\": {\"Si\": 1.0}, \"54\": {\"Si\": 1.0}}" energy=-476.4928808917588 stress="-0.010693780425401079 0.003592111203707749 0.0027473555795085635 0.003592111203707749 -0.0130011403474292 0.0008124326523764985 0.0027473555795085635 0.0008124326523764985 -0.007130351992517086" free_energy=-476.4928808917588 pbc="T T T"
Si       6.72650302       3.85102236       2.85491414       0.28427389       0.39037625       0.58544886      -0.26503784       0.45431134      -0.66458647      -8.72348852
Si       8.62127183       5.02509439       5.91754171       1.18855027       0.83937704       0.05138460       0.16477880      -0.14852689       1.10957106      -8.60357144
Si      10.54480833       6.06861642       8.98145505      -0.34907351       0.56370823       0.09016710      -0.34857854       0.29987387       0.06870686      -8.68713750
Si       8.63740128       7.19696077       2.78352785       0.21800051       1.02086610       0.27490437       0.01326839      -0.15984246      -0.05889558      -8.70891562
Si      10.62272069       8.34116877       5.84989259      -0.04114349      -1.25315406       0.54728760      -0.41762535      -0.02659433       0.36310378      -8.74533879
Si      12.39297524       9.41045115       9.06640413       0.33037978      -0.19320022       1.34441373       0.13404402      -0.26432267      -0.17724909      -8.73459179
Si      10.53860372      10.54471887       2.72378907       0.17976001       0.24848407       0.62535042       0.17260948       0.51498968       0.07759083      -8.71704702
Si      12.47809873      11.68017071       5.89321988       0.46651748      -0.93223273       0.46053915      -0.25750626      -0.28438944       0.20976020      -8.71269455
Si      15.06009224      12.13783337       8.83736530      -0.21532204      -0.24912141      -0.40135613       0.57013608       0.81399865      -0.22603699      -7.78678987
Si      10.55184682       3.88133940       2.84778726       0.22155944      -0.62069718      -1.23142209       0.08998429       0.29179375      -0.24695706      -8.70895717
Si      12.54117573       5.00066329       5.92258750       0.19683074      -0.30185274       0.14786646      -0.05132810      -0.03740928      -0.04145542      -8.75715340
Si      14.37767040       6.13583406       9.09685594      -0.23636243       0.00388084       0.19872710      -0.27237519      -0.02478586      -0.12008904      -8.69348292
Si      12.44057355       7.25875175       2.80183946      -0.18773611       0.00179668       0.05278568       0.17065349      -0.48920443      -0.36330653      -8.72076436
Si      14.45837760       8.42210548       5.92355978       0.02021571       0.37386496       0.00332808      -0.35081400      -0.18017242       0.02027377      -8.75883553
Si      16.30143186       9.45807518       9.02092814      -0.35017071       0.34701280      -1.67823990       0.52670800      -0.28593303      -0.27204020      -8.69002827
Si      14.42855881      10.52946476       2.77989171       0.34964214      -0.71097248       0.98549364      -0.07422714      -0.13449546       0.09946152      -8.73476022
Si      16.42290953      11.68707751       5.89863239       0.08718761      -0.44939975      -0.92627146       0.26567771      -0.29883100       0.06875658      -8.68866621
Si      18.37837337      12.71964394       9.06289604      -0.26994249      -0.04776180      -0.00851797      -0.04175067       0.36866512      -0.27575595      -8.71841232
Si      14.43285940       3.96868843       2.73177225       1.29969202      -0.99092450      -1.44344661      -0.09352343      -0.70655051      -0.27878192      -8.74529930
Si      16.26787202       5.02554507       5.87294704      -0.76051573      -0.31423965      -0.84074740       0.09485249       0.39228043       0.07609950      -8.73466670
Si      18.13245514       6.21135745       9.04827542      -0.57495633       1.50800374       1.10467195       0.11297586       0.36618623       0.60645157      -8.68278825
Si      16.40517046       7.25739450       2.74592998       0.32278859      -0.25858774       0.15335644      -0.88465121      -0.16737410       0.02322351      -8.72087318
Si      18.22746091       8.32817063       5.88921401       1.01508706       0.19167426      -1.19196379       1.00343136      -0.28868336      -0.08463662      -8.72417475
Si      20.17045610       9.43617079       9.06248667      -0.19008472       0.96624315       0.62067918       0.00613132       0.44005136      -0.11289319      -8.75236229
Si      18.21468149      10.52764644       2.81822301      -0.17212546       0.81351230      -0.42595224       0.37847595       0.57401711       0.27487425      -8.72456797
Si      20.24536143      11.62302004       5.85323252      -0.31831555       0.00647121       0.90552935      -0.57662380      -0.05679360       0.20484173      -8.73439958
Si      22.15393427      12.80759676       8.99157261       0.68351644      -0.83842460      -1.30345905      -0.31847074      -0.36072755      -0.06699103      -8.71102133
Si       0.72569217       0.71062562       0.54959338      -0.14394026       0.24729554       1.67490704      -0.18419164       0.26177192      -0.46070239      -8.37419347
Si       2.85217814       1.68829691       3.48570749      -0.60167149       0.34684449       0.92484442       0.00206814       0.25153347       0.07150351      -8.72343463
Si       4.76705481       2.82092995       6.62931537      -0.28008345      -1.10900256      -0.38184250       0.36010980      -0.07117916       0.22622966      -8.75774454
Si       2.85851058       3.90323529       0.34995904      -0.87873805       0.08026135       0.47305442      -0.30956315      -0.45592141       0.31615475      -8.64956961
Si       4.80493726       5.02905840       3.51218981       1.23921340      -0.31474419       0.16031019       0.14385259       0.05999048       0.33375890      -8.75620709
Si       6.65228414       6.11180131       6.72607227      -0.64364405      -0.47387082      -0.83601858      -0.02148246      -0.09195087      -0.50978485      -8.66305471
Si       4.77814644       7.25706423       0.38980342       0.70484458       0.81055797      -0.20730583      -0.23945830       0.19918893       0.13741733      -8.73357387
Si       6.75235232       8.32815650       3.52187749       0.15897763       0.24298879       1.23104966      -0.17271135      -0.07338571       0.39031271      -8.74684313
Si       8.66663669       9.39247763       6.71178617       0.02804256      -0.64926628       0.15344481      -0.07286077       0.19224484      -0.40978785      -8.71764504
Si       4.94700352       0.54672987       0.38915991       0.58549409      -0.09144904       0.04957138      -0.36144301      -0.53658433      -0.28260152      -8.54755550
Si       6.73447107       1.65495318       3.55564255      -1.10616684      -1.50880944      -0.90528555      -0.26373184      -0.54091822      -0.16121616      -8.72677130
Si       8.68973185       2.65776047       6.58962597      -1.18284456       1.33141226       0.19546948      -0.11562168       0.86008745       0.22125963      -8.51653799
Si       6.59733943       3.87623070       0.46414010       0.98043063       0.49006114       0.74788595       0.85131287      -0.16630999       0.14429593      -8.68392144
Si       8.61451328       5.00550152       3.63991213       0.15586927       0.56021895       0.98529126       0.19924423      -0.17253364      -0.89527033      -8.72591922
Si      10.61663942       6.11990145       6.64055320      -0.29863104      -1.18383163      -0.44363621      -0.32901598      -0.14374998      -0.09054486      -8.70190905
Si       8.59224590       6.99839433       0.44970186      -1.61855702       1.23104393      -0.65579045      -0.64956704      -0.36643568       0.72125437      -8.50138070
Si      10.50522418       8.36761835       3.50551131       0.60590136      -0.04871505       0.09513108       0.45731864      -0.23372309       0.24454316      -8.76296012
Si      12.50056051       9.45825013       6.72376335       0.87977550       0.13613244       1.03512823       0.03584417       0.15033789      -0.31666843      -8.73128419
Si       8.71548340       0.51766968       0.42577933      -1.24930580       0.13636388      -0.78741164      -0.18553084       0.55003499      -0.05912023      -8.72632326
Si      10.54282369       1.65299098       3.60483554      -0.38515542      -0.09432139      -1.47884059       0.07223650       0.01415884      -0.57443414      -8.72732834
Si      12.54019030       2.76610555       6.71684703      -0.25854353      -0.53402903       0.05908834       0.54489534       0.12878111      -0.21557125      -8.72093471
Si      10.47092703       3.99180144       0.47262347      -0.14891084      -0.07207645      -0.44168189       0.17919544      -0.61258557       0.07710815      -8.68735171
Si      12.52081712       5.00107644       3.57540263      -1.39521609       0.77535739      -0.22581058      -0.39439303       0.29678203      -0.08350989      -8.74608036
Si      14.38524736       6.22530664       6.69976958       0.55967137       0.16914294      -0.06802732       0.32652330      -0.59383095       0.36388479      -8.72170585
Si      12.43279747       7.21540030       0.39955475      -0.39257044       0.51414425       1.46416172       0.41940344      -0.28869291       0.51134959      -8.68770425
Si      14.39420806       8.30401480       3.59700467       0.50504801      -0.54449581      -1.00309335       0.44521860       0.23737857      -0.49862090      -8.72229478
Si      16.40621647       9.47235452       6.64918095       0.04750469       0.14895805      -0.88897403      -0.57917688       0.28057740       0.52965046      -8.69618677
Si       8.34744223       4.14013755       8.67490582       0.93495271      -0.71087447       0.37382343       0.09030991       0.26340245       0.05606979      -7.61567640
55
Lattice="11.5478352 0.0 0.0 5.773917198490155 10.000722372470358 0.0 5.773916394327279 3.333571176804646 9.428767828939895" Properties=species:S:1:pos:R:3:momenta:R:3:forces:R:3:energies:R:1 spacegroup="_JSON {\"number\": 1, \"setting\": 1}" unit_cell=conventional occupancy="_JSON {\"0\": {\"Si\": 1.0}, \"1\": {\"Si\": 1.0}, \"2\": {\"Si\": 1.0}, \"3\": {\"Si\": 1.0}, \"4\": {\"Si\": 1.0}, \"5\": {\"Si\": 1.0}, \"6\": {\"Si\": 1.0}, \"7\": {\"Si\": 1.0}, \"8\": {\"Si\": 1.0}, \"9\": {\"Si\": 1.0}, \"10\": {\"Si\": 1.0}, \"11\": {\"Si\": 1.0}, \"12\": {\"Si\": 1.0}, \"13\": {\"Si\": 1.0}, \"14\": {\"Si\": 1.0}, \"15\": {\"Si\": 1.0}, \"16\": {\"Si\": 1.0}, \"17\": {\"Si\": 1.0}, \"18\": {\"Si\": 1.0}, \"19\": {\"Si\": 1.0}, \"20\": {\"Si\": 1.0}, \"21\": {\"Si\": 1.0}, \"22\": {\"Si\": 1.0}, \"23\": {\"Si\": 1.0}, \"24\": {\"Si\": 1.0}, \"25\": {\"Si\": 1.0}, \"26\": {\"Si\": 1.0}, \"27\": {\"Si\": 1.0}, \"28\": {\"Si\": 1.0}, \"29\": {\"Si\": 1.0}, \"30\": {\"Si\": 1.0}, \"31\": {\"Si\": 1.0}, \"32\": {\"Si\": 1.0}, \"33\": {\"Si\": 1.0}, \"34\": {\"Si\": 1.0}, \"35\": {\"Si\": 1.0}, \"36\": {\"Si\": 1.0}, \"37\": {\"Si\": 1.0}, \"38\": {\"Si\": 1.0}, \"39\": {\"Si\": 1.0}, \"40\": {\"Si\": 1.0}, \"41\": {\"Si\": 1.0}, \"42\": {\"Si\": 1.0}, \"43\": {\"Si\": 1.0}, \"44\": {\"Si\": 1.0}, \"45\": {\"Si\": 1.0}, \"46\": {\"Si\": 1.0}, \"47\": {\"Si\": 1.0}, \"48\": {\"Si\": 1.0}, \"49\": {\"Si\": 1.0}, \"50\": {\"Si\": 1.0}, \"51\": {\"Si\": 1.0}, \"52\": {\"Si\": 1.0}, \"53\": {\"Si\": 1.0}, \"54\": {\"Si\": 1.0}}" energy=-476.08575100746543 stress="-0.011134194708357609 0.002444533247140817 0.00083024697045916 0.002444533247140817 -0.012495820917560553 0.0008496399512211585 0.00083024697045916 0.0008496399512211585 -0.007348323826678617" free_energy=-476.08575100746543 pbc="T T T"
Si       6.73827571       3.87661623       2.86403742       0.30555434       0.33938799      -0.13855992       0.27709524      -0.49295414      -0.26835734      -8.72300009
Si       8.67533801       5.05905536       5.95801329       0.56709045       0.37013304       1.26525094      -1.00923741      -0.46289983       0.23207688      -8.64202731
Si      10.51731301       6.10703672       8.98968782      -0.59753547       0.81664984       0.23969513       0.05136516      -0.02958649       0.13113331      -8.62307926
Si       8.64819998       7.24036137       2.79318194       0.17620026       0.57934141       0.07852985      -0.05008240      -0.37057717      -0.11645333      -8.71495896
Si      10.61130854       8.28128791       5.89046926      -0.25859778      -0.89832998       0.93555511       0.11587483       0.48553723       0.11198944      -8.71240154
Si      12.40801693       9.39129680       9.12206807       0.08512960      -0.50513535       0.63573361      -0.46045828      -0.13303129      -0.71784730      -8.72440260
Si      10.54339136      10.56972714       2.75400518      -0.22519942       0.50741624       0.41037205      -0.69856234      -0.24405439      -0.36878449      -8.72036172
Si      12.48840171      11.62585627       5.91609296      -0.10011868      -1.00068300       0.24624247      -0.35050582       0.25170379      -0.42978890      -8.71315675
Si      15.07497174      12.14821773       8.80745753       0.81078401       0.39549509      -0.69333791       0.66634551      -0.12236598      -0.06204867      -7.77005354
Si      10.55949785       3.86655571       2.77934676      -0.05114298       0.15100099      -1.25757895      -0.37946978       0.65100016       0.22477074      -8.71916552
Si      12.55025374       4.98377439       5.92675752       0.16208746      -0.32568566      -0.03031197       0.00103488       0.02448468      -0.20180413      -8.73822080
Si      14.35857486       6.13457100       9.09961703      -0.38789839      -0.06585425      -0.13877423       0.13013517      -0.07875058      -0.29505429      -8.72661020
Si      12.43904694       7.24388300       2.79522149       0.17444950      -0.46564598      -0.18350419       0.33793864      -0.08735236       0.11123571      -8.77053288
Si      14.44846007       8.42993188       5.91813415      -0.33033005      -0.17158189      -0.31386922      -0.08162152      -0.54552217      -0.37650815      -8.74016412
Si      16.29719855       9.46914223       8.93856343       0.06306260       0.14616406      -1.12519446       0.03711757      -0.00552906       1.02176451      -8.65684937
Si      14.43723228      10.48901961       2.81896197      -0.13004689      -0.76570260       0.21516497      -0.49222953       0.12260628      -1.01997738      -8.71943396
Si      16.42663343      11.66250494       5.85308093      -0.12007497      -0.27889782      -0.81159067      -0.41757142       0.50907352       0.06984479      -8.65061535
Si      18.36147346      12.72651355       9.05110895      -0.37659647       0.19757818      -0.42748397      -0.04821711      -0.05962173      -0.21754288      -8.72190822
Si      14.48628883       3.90440366       2.66431421       0.57635009      -1.16940766      -0.76729767      -0.73498960       0.43626830       1.11326012      -8.68052247
Si      16.23605789       5.01689317       5.83794962      -0.36105167      -0.16530677      -0.38052166       0.44914525      -0.18672396       0.50944071      -8.74390729
Si      18.10936410       6.28879971       9.11391711      -0.25804237       1.13743416       1.06601163       0.28718481      -0.82094248      -0.68612947      -8.64333922
Si      16.39566992       7.23920431       2.75385314      -0.49286552      -0.39099676       0.13153880      -0.12904057       0.00092640      -0.04782419      -8.72681999
Si      18.30558664       8.32591623       5.84023023       1.63864435      -0.27935750      -0.34762601      -0.25799260      -0.30012255       1.15602740      -8.73961772
Si      20.16138751       9.49683893       9.09095318      -0.14135780       1.17808891       0.45967442       0.06100681      -0.21426484      -0.13292426      -8.70085999
Si      18.22176587      10.58049264       2.81858870       0.45239626       0.96768395       0.56720771       0.40365156      -0.33057146       0.72521054      -8.70329019
Si      20.20802670      11.61650660       5.90455852      -1.00079465      -0.31316611       0.95296793      -0.15741744      -0.28252672      -0.18058439      -8.74899403
Si      22.17363412      12.76601870       8.93241761       0.01285971      -0.44391061      -0.74164425      -0.53113662       0.81241592       0.74476418      -8.69095156
Si       0.71382555       0.73709699       0.59558076      -0.26423391       0.78835402      -0.25045115      -0.00540117       0.35837909      -1.68528982      -8.38992426
Si       2.82585190       1.71317000       3.53486143      -0.30328780       0.53101509       0.91912507       0.38457551      -0.02819765      -0.04594291      -8.72165615
Si       4.76959971       2.76627410       6.61371353       0.38497519      -0.86499581      -0.29631283       0.38066877       0.35391202      -0.09148399      -8.74620592
Si       2.80794410       3.89764074       0.37684997      -0.88728578      -0.11348766       0.35177163       0.32325217       0.24111645      -0.45037642      -8.70290996
Si       4.86316945       5.01537085       3.52604603       0.73170419      -0.20059247       0.21673881      -0.80922689       0.08105305      -0.25148025      -8.76060683
Si       6.62287533       6.08868518       6.67432789      -0.37150222      -0.29864711      -0.89202149       0.38468373       0.32584308       0.44336172      -8.59906176
Si       4.80323095       7.29883334       0.38727702       0.21680529       0.60128362       0.15944115      -0.37406731      -0.49248658       0.32216248      -8.73597437
Si       6.75284509       8.34293579       3.58392825      -0.16096046       0.38704377       0.76997513      -0.24557926       0.18295372      -0.99888304      -8.72802003
Si       8.66747888       9.36892966       6.70853961       0.05110239      -0.19141507      -0.16170689       0.11302976       0.40901781       0.04566698      -8.73381406
Si       4.95897172       0.52838407       0.38426762      -0.20781392      -0.44530568      -0.16258278      -0.66011703       0.09650906       0.00684213      -8.52392708
Si       6.67915208       1.57037565       3.51309041      -0.72502205      -1.38580121      -0.50476352       0.80181643       0.73032825       0.65879439      -8.70001834
Si       8.63695659       2.75140700       6.60303492      -0.62249528       2.00225145       0.21421198       0.68634194      -0.08303631      -0.17033600      -8.53673389
Si       6.67052787       3.89083659       0.50621274       1.54871255      -0.00695125       0.77762742      -0.17478542      -0.44716657      -0.16158557      -8.69248961
Si       8.63401268       5.02698540       3.65169417       0.62474326       0.24113326      -0.52173099       0.33877512      -0.23646710      -0.83787558      -8.69049685
Si      10.59853198       6.05910531       6.62374116      -0.16599993      -0.97735077       0.00372964       0.53824519       0.46172018       0.68124921      -8.72116347
Si       8.50183449       7.04570846       0.44678617      -1.40365735       0.60160240       0.53111951       0.98155531      -0.27329803       0.66713125      -8.45605663
Si      10.55127583       8.36069246       3.52306111       1.05100882      -0.12109360       0.61071285       0.06402721       0.12865711       0.38423391      -8.75127234
Si      12.53991683       9.46323174       6.76765732       0.46924670      -0.10081415       0.67287370      -0.55048530      -0.44806810      -0.18851666      -8.71419992
Si       8.65706539       0.53970082       0.38910279      -0.74037347       0.57028815      -0.48836728       0.73714018       0.01752077       0.41266615      -8.67169352
Si      10.52796941       1.65173333       3.51663358      -0.14841413       0.10973187      -1.63929978       0.19014472       0.25377009       0.37500131      -8.73853712
Si      12.54392096       2.74442717       6.71178400       0.28279185      -0.26895657      -0.24376408       0.07540890       0.22028959      -0.17967385      -8.74189143
Si      10.46331283       3.97517926       0.45023234      -0.28397658      -0.33665247      -0.45565697      -0.36564999       0.26281080      -0.09585983      -8.69620446
Si      12.45141276       5.03903308       3.55768821      -0.92598547       0.40941900      -0.46550342       0.88267745      -0.72793987      -0.14810390      -8.68056547
Si      14.42011740       6.21380409       6.70946376       0.61461900      -0.52967703       0.39657881      -0.27741180      -0.28790116       0.19579460      -8.71485205
Si      12.42451566       7.22948201       0.48178317      -0.00115412       0.02320918       1.33985751       0.10899531      -0.28749477      -0.77566191      -8.68466504
Si      14.43300171       8.28182513       3.53674813       0.83292034      -0.36228372      -1.06241469      -0.10786090       0.00480081       0.40678191      -8.72591745
Si      16.39539313       9.48482190       6.61706102      -0.26904803       0.18493279      -0.46559944       0.15242948      -0.25629204       0.03163251      -8.71826180
Si       8.38923874       4.12233010       8.70320489       0.47962545       0.20704805       0.79976259      -0.59254511       0.91304721       0.41986201      -7.64338654
55
Lattice="11.5478352 0.0 0.0 5.773917198490155 10.000722372470358 0.0 5.773916394327279 3.333571176804646 9.428767828939895" Properties=species:S:1:pos:R:3:momenta:R:3:forces:R:3:energies:R:1 spacegroup="_JSON {\"number\": 1, \"setting\": 1}" unit_cell=conventional occupancy="_JSON {\"0\": {\"Si\": 1.0}, \"1\": {\"Si\": 1.0}, \"2\": {\"Si\": 1.0}, \"3\": {\"Si\": 1.0}, \"4\": {\"Si\": 1.0}, \"5\": {\"Si\": 1.0}, \"6\": {\"Si\": 1.0}, \"7\": {\"Si\": 1.0}, \"8\": {\"Si\": 1.0}, \"9\": {\"Si\": 1.0}, \"10\": {\"Si\": 1.0}, \"11\": {\"Si\": 1.0}, \"12\": {\"Si\": 1.0}, \"13\": {\"Si\": 1.0}, \"14\": {\"Si\": 1.0}, \"15\": {\"Si\": 1.0}, \"16\": {\"Si\": 1.0}, \"17\": {\"Si\": 1.0}, \"18\": {\"Si\": 1.0}, \"19\": {\"Si\": 1.0}, \"20\": {\"Si\": 1.0}, \"21\": {\"Si\": 1.0}, \"22\": {\"Si\": 1.0}, \"23\": {\"Si\": 1.0}, \"24\": {\"Si\": 1.0}, \"25\": {\"Si\": 1.0}, \"26\": {\"Si\": 1.0}, \"27\": {\"Si\": 1.0}, \"28\": {\"Si\": 1.0}, \"29\": {\"Si\": 1.0}, \"30\": {\"Si\": 1.0}, \"31\": {\"Si\": 1.0}, \"32\": {\"Si\": 1.0}, \"33\": {\"Si\": 1.0}, \"34\": {\"Si\": 1.0}, \"35\": {\"Si\": 1.0}, \"36\": {\"Si\": 1.0}, \"37\": {\"Si\": 1.0}, \"38\": {\"Si\": 1.0}, \"39\": {\"Si\": 1.0}, \"40\": {\"Si\": 1.0}, \"41\": {\"Si\": 1.0}, \"42\": {\"Si\": 1.0}, \"43\": {\"Si\": 1.0}, \"44\": {\"Si\": 1.0}, \"45\": {\"Si\": 1.0}, \"46\": {\"Si\": 1.0}, \"47\": {\"Si\": 1.0}, \"48\": {\"Si\": 1.0}, \"49\": {\"Si\": 1.0}, \"50\": {\"Si\": 1.0}, \"51\": {\"Si\": 1.0}, \"52\": {\"Si\": 1.0}, \"53\": {\"Si\": 1.0}, \"54\": {\"Si\": 1.0}}" energy=-475.9076875799625 stress="-0.011437964890530648 0.004272817900965406 0.0023207356148036576 0.004272817900965406 -0.012000621464109369 0.0009305238174534269 0.0023207356148036576 0.0009305238174534269 -0.005238067562247206" free_energy=-475.9076875799625 pbc="T T T"
Si       6.76748003       3.87081354       2.85303277       0.79653248      -0.57787814      -0.15671217       0.22807195      -0.55635582       0.21488026      -8.71747468
Si       8.66186586       5.06334561       6.01682899      -1.01722320      -0.08809429       0.70726663      -0.74202296      -0.00664448      -0.82024507      -8.65382868
Si      10.49305867       6.14380052       9.00846487      -0.23229825       0.49630299       0.50075179       0.42115309      -0.37310813       0.22678228      -8.57349795
Si       8.65675518       7.25834714       2.79673506       0.18242226       0.15598763       0.14880541       0.07218621      -0.17437382       0.23833281      -8.72578467
Si      10.60664598       8.25541436       5.94074615       0.13948177      -0.06231767       0.92314048       0.33917766       0.57739862      -0.11816702      -8.71382428
Si      12.39442718       9.36278613       9.12904466      -0.52162668      -0.50169606      -0.28216094      -0.14287467       0.17997824      -0.36932345      -8.72903082
Si      10.50293605      10.58028112       2.75982385      -1.21941678      -0.16737104      -0.16715045      -0.30679724      -0.48644786      -0.27965367      -8.70027738
Si      12.47672878      11.58807617       5.91122602      -0.18260214      -0.38012970      -0.39978264       0.27661379       0.47576545      -0.29574500      -8.71270924
Si      15.13643048      12.15595899       8.77151893       1.35332241      -0.15201536      -0.63914555      -0.03643616      -0.33549405       0.09049862      -7.86430860
Si      10.54252184       3.89732095       2.72522398      -0.53712421       0.92992100      -0.76304394      -0.13918715       0.28010040       0.38621959      -8.74390384
Si      12.55949185       4.96837078       5.91601916       0.19767146      -0.24882664      -0.39314888       0.02635421       0.07406040      -0.25173570      -8.72720433
Si      14.34814897       6.12707211       9.08140688       0.05349630      -0.23590590      -0.52518837       0.36613557      -0.13710856      -0.17041861      -8.74141803
Si      12.46242062       7.22082158       2.79547421       0.70868332      -0.34773818       0.24976756       0.29295981       0.16641386       0.31671042      -8.77637982
Si      14.43190394       8.39823720       5.88784456      -0.23421013      -1.02941533      -0.77715536       0.17854856      -0.50449105      -0.11970412      -8.72455694
Si      16.29786433       9.47875727       8.92537598      -0.09640770       0.25097834       0.63583430      -0.19664930       0.11628132       1.05494006      -8.63511970
Si      14.41367523      10.45771572       2.78783267      -0.66848531      -0.35553451      -1.37194348      -0.10400189       0.39633966      -0.88131029      -8.72447360
Si      16.40321513      11.67206033       5.81258896      -0.75261324       0.66672457      -0.72579539      -0.33798774       0.58913417       0.09458295      -8.62360722
Si      18.34172721      12.73197484       9.02421291      -0.33892805       0.00197613      -0.50917788       0.09053916      -0.09438828       0.12800111      -8.69146478
Si      14.48737679       3.86836845       2.67127109      -0.53301229      -0.08556001       0.99342617      -0.71605909       0.88968432       0.94877928      -8.66848833
Si      16.23717090       4.99715076       5.83839220       0.43622286      -0.61028928       0.37672824       0.56588985      -0.26962727       0.42083295      -8.74112673
Si      18.10486870       6.31268749       9.13246966       0.01732776      -0.20142281      -0.50560383       0.02282836      -0.70559021      -1.24678443      -8.61902432
Si      16.37484742       7.21997911       2.75822586      -0.14323940      -0.32064560       0.02495251       0.48000886       0.08893165      -0.08228215      -8.73952634
Si      18.36874770       8.30165747       5.86653268       0.56759365      -0.57831418       1.19746959      -1.03989560      -0.01970026       0.56381905      -8.73875131
Si      20.15671696       9.54374631       9.10870475      -0.02924961       0.50345723       0.18398431       0.08979910      -0.62792261      -0.25786828      -8.67448050
Si      18.25696461      10.61452294       2.86156154       0.77525465       0.31098480       0.72652920      -0.04649890      -0.40165086      -0.58691152      -8.70088234
Si      20.16126416      11.59140952       5.94332409      -0.55484959      -0.56724167       0.45187327       0.71239136       0.02211113      -0.45821691      -8.73955266
Si      22.15432776      12.77817042       8.92388348      -0.71945914       0.88734071       0.39383708      -0.40231087       0.72016093       0.64980172      -8.69129031
Si       0.69987503       0.78790509       0.53256547      -0.28463213       1.02231723      -1.72677936      -0.07494440      -0.14185822      -0.04486011      -8.43637688
Si       2.82670183       1.73618201       3.58261806       0.34677256       0.27182387       0.91751473       0.41886462      -0.31793025       0.00473151      -8.73245784
Si       4.79712698       2.73515921       6.59428929       0.50046370      -0.32438496      -0.40196022      -0.25286835       0.34101436       0.07548473      -8.73652510
Si       2.77929773       3.90803767       0.37625003      -0.13354196       0.59803130      -0.32719719       0.58945757       0.57429176      -0.26651838      -8.69535001
Si       4.86691080       5.00625087       3.52422358      -0.57009821      -0.19466477      -0.30630226      -0.72343160      -0.10234323      -0.32244382      -8.75221545
Si       6.61960334       6.08749451       6.65257181       0.23051443       0.25150518       0.17963093       0.31155674       0.31162455       0.89453191      -8.58489027
Si       4.80121288       7.30809993       0.40732149      -0.26362649      -0.24743195       0.55944039      -0.25036723      -0.48319871       0.13801293      -8.73630497
Si       6.73599072       8.36861798       3.58235456      -0.43577347       0.52488398      -0.74365551      -0.05956135      -0.08135728      -0.66588243      -8.72122661
Si       8.67675171       9.37457068       6.70876968       0.33136368       0.37448126       0.28675532       0.21700071       0.27076306       0.49131538      -8.73874283
Si       4.92315187       0.51499300       0.37906625      -1.10655191       0.02415154       0.01292036      -0.44648904       0.44459585       0.19732167      -8.52607869
Si       6.67635299       1.53348958       3.51446985       0.57794046       0.03954636       0.52569379       0.63756674       0.95853572       0.52344976      -8.69446711
Si       8.62910464       2.83851319       6.60681262       0.24959157       1.02269119      -0.05325730       0.40145017      -1.22711096      -0.10823872      -8.51965063
Si       6.73318563       3.87393270       0.53615381       0.64007235      -0.60042904       0.27406292      -0.94996660      -0.30005283      -0.50690131      -8.67061939
Si       8.67610413       5.03194700       3.60421865       0.85990761      -0.00966565      -1.03514523      -0.13878055      -0.06481785       0.16062125      -8.67136754
Si      10.61473596       6.02963536       6.65384385       0.74990406      -0.11808812       1.13492322       0.39854218       0.56636735       0.63243721      -8.71419484
Si       8.47554937       7.07274093       0.49042014       0.45713469       0.49242810       0.90560856       1.19452742      -0.02409566      -0.22159740      -8.43913331
Si      10.60246843       8.36103154       3.56836612       0.77798311       0.13726885       1.05901609      -0.41234092       0.14034120       0.15205048      -8.72733371
Si      12.54131207       9.43745239       6.79496566      -0.40853715      -0.88885673       0.31276311      -0.50834188      -0.46357671      -0.40190238      -8.71634846
Si       8.64710986       0.56408211       0.37959913       0.30504426       0.25142034       0.08799126       0.51328459      -0.39814854       0.25657475      -8.67958724
Si      10.52471137       1.66798820       3.45136640      -0.04465935       0.49560248      -0.77149734      -0.07229241       0.19419708       0.67539533      -8.72438341
Si      12.55224060       2.73898659       6.69297239      -0.13217294       0.05896758      -0.45268156      -0.56206456       0.20224064      -0.09646294      -8.74778252
Si      10.43214507       3.97413400       0.42016555      -0.86705009       0.36103419      -0.72467575      -0.21132392       0.50886534      -0.21955790      -8.68011491
Si      12.44199560       5.02708261       3.52995409       0.60361909      -0.89669173      -0.53651083       1.01029773      -0.83314635       0.06900444      -8.65863103
Si      14.43669825       6.17910916       6.73232258      -0.03906357      -0.72982719       0.34611813      -0.48951927      -0.03898881      -0.31129056      -8.71425340
Si      12.42531626       7.22325455       0.51039296      -0.02150560      -0.18469272      -0.37912495      -0.09914972       0.01156980      -1.25424485      -8.67344409
Si      14.46419329       8.26167892       3.50275948       0.22141670      -0.39690765      -0.16233630      -0.61878891       0.04098417       0.67528723      -8.73226559
Si      16.39143383       9.48124740       6.59076872       0.14772689      -0.33731014      -0.53609271       0.26805664      -0.31391574       0.03352842      -8.70521008
Si       8.39445625       4.16596204       8.75961183      -0.13950552       1.30952015       1.25642006      -0.04231036       0.34169335       0.04433891      -7.68674423
55
Lattice="11.5478352 0.0 0.0 5.773917198490155 10.000722372470358 0.0 5.773916394327279 3.333571176804646 9.428767828939895" Properties=species:S:1:pos:R:3:momenta:R:3:forces:R:3:energies:R:1 spacegroup="_JSON {\"number\": 1, \"setting\": 1}" unit_cell=conventional occupancy="_JSON {\"0\": {\"Si\": 1.0}, \"1\": {\"Si\": 1.0}, \"2\": {\"Si\": 1.0}, \"3\": {\"Si\": 1.0}, \"4\": {\"Si\": 1.0}, \"5\": {\"Si\": 1.0}, \"6\": {\"Si\": 1.0}, \"7\": {\"Si\": 1.0}, \"8\": {\"Si\": 1.0}, \"9\": {\"Si\": 1.0}, \"10\": {\"Si\": 1.0}, \"11\": {\"Si\": 1.0}, \"12\": {\"Si\": 1.0}, \"13\": {\"Si\": 1.0}, \"14\": {\"Si\": 1.0}, \"15\": {\"Si\": 1.0}, \"16\": {\"Si\": 1.0}, \"17\": {\"Si\": 1.0}, \"18\": {\"Si\": 1.0}, \"19\": {\"Si\": 1.0}, \"20\": {\"Si\": 1.0}, \"21\": {\"Si\": 1.0}, \"22\": {\"Si\": 1.0}, \"23\": {\"Si\": 1.0}, \"24\": {\"Si\": 1.0}, \"25\": {\"Si\": 1.0}, \"26\": {\"Si\": 1.0}, \"27\": {\"Si\": 1.0}, \"28\": {\"Si\": 1.0}, \"29\": {\"Si\": 1.0}, \"30\": {\"Si\": 1.0}, \"31\": {\"Si\": 1.0}, \"32\": {\"Si\": 1.0}, \"33\": {\"Si\": 1.0}, \"34\": {\"Si\": 1.0}, \"35\": {\"Si\": 1.0}, \"36\": {\"Si\": 1.0}, \"37\": {\"Si\": 1.0}, \"38\": {\"Si\": 1.0}, \"39\": {\"Si\": 1.0}, \"40\": {\"Si\": 1.0}, \"41\": {\"Si\": 1.0}, \"42\": {\"Si\": 1.0}, \"43\": {\"Si\": 1.0}, \"44\": {\"Si\": 1.0}, \"45\": {\"Si\": 1.0}, \"46\": {\"Si\": 1.0}, \"47\": {\"Si\": 1.0}, \"48\": {\"Si\": 1.0}, \"49\": {\"Si\": 1.0}, \"50\": {\"Si\": 1.0}, \"51\": {\"Si\": 1.0}, \"52\": {\"Si\": 1.0}, \"53\": {\"Si\": 1.0}, \"54\": {\"Si\": 1.0}}" energy=-476.21144708126326 stress="-0.009657290117437142 0.004901592873687444 0.004108336872239539 0.004901592873687444 -0.011708965933012606 0.0008917389760975473 0.004108336872239539 0.0008917389760975473 -0.004627778133128418" free_energy=-476.21144708126326 pbc="T T T"
Si       6.81115824       3.82677126       2.85441819       0.71023681      -0.91409482       0.18255888      -0.38932695       0.18074010       0.10469212      -8.71988715
Si       8.59850432       5.06520059       6.02111364      -1.02505973       0.21376527      -0.50492924       0.70379887       0.20103228      -0.65889825      -8.63786493
Si      10.49868091       6.15496582       9.04543707       0.44324097      -0.05594381       0.93444697       0.39242186      -0.31103820       0.31365456      -8.60720226
Si       8.67021625       7.26323516       2.81716960       0.33365351       0.09070214       0.65614471       0.08022747       0.06314954       0.32636978      -8.72143019
Si      10.62393510       8.27066933       5.98387627       0.41136167       0.53797572       0.70231178      -0.09158709       0.15243929      -0.19628672      -8.75279906
Si      12.37196918       9.34680817       9.10917340      -0.14762301      -0.05864668      -0.31665198       0.57952278       0.36721521       0.24321268      -8.72463271
Si      10.44334288      10.55768465       2.74684377      -0.74037508      -0.58069891      -0.19428977       0.90104809      -0.04280292       0.24054322      -8.66448802
Si      12.48337772      11.58231397       5.88759709       0.49245894       0.06026054      -0.30716069       0.48496148       0.08527967       0.45283809      -8.70981638
Si      15.19737533      12.14296592       8.74094306       0.82420336      -0.18301400      -0.52954997      -0.60535771       0.28547753       0.08236217      -7.90897857
Si      10.51806457       3.94822941       2.69711962      -0.20640554       0.83463092      -0.37554852       0.57993601      -0.40239980       0.12927671      -8.74063731
Si      12.56938090       4.95802996       5.88691355       0.12791637      -0.14879256      -0.67523073      -0.17776281       0.06012692      -0.08504987      -8.73481625
Si      14.36131140       6.10969241       9.05070756       0.34054235      -0.40724964      -0.57560655      -0.05189601      -0.05695991       0.09679202      -8.73124110
Si      12.50539752       7.20642678       2.81425666       0.78768428      -0.27362153       0.30650087      -0.26219234      -0.10895159      -0.29588940      -8.75436349
Si      14.42704620       8.32996013       5.85063916       0.04716648      -1.43985578      -0.46640561       0.17192788       0.02503010       0.55543277      -8.72617978
Si      16.28531558       9.49668180       8.98510908      -0.35647710       0.42570284       1.31137103      -0.08895924       0.08616964      -0.23864536      -8.67852273
Si      14.38215178      10.45387893       2.69581229      -0.40392561       0.18270843      -1.78689497       0.39697202       0.29305766       0.49070149      -8.71842898
Si      16.35530207      11.72164332       5.77919535      -0.95873113       1.01698882      -0.52604700       0.12154910      -0.22390345       0.17111138      -8.65723289
Si      18.32660107      12.73283389       9.00511875      -0.27325336       0.12258801      -0.18960293      -0.04896496       0.25823700       0.23738147      -8.65101385
Si      14.43628839       3.89289040       2.74492874      -1.25652706       0.82758531       1.48377259      -0.05920238       0.11525211      -0.35335356      -8.74083903
Si      16.27932604       4.96059384       5.86897273       1.08768698      -0.63943722       0.66486168       0.23118816       0.28564229      -0.06879411      -8.72985898
Si      18.10356027       6.28977222       9.06315361      -0.09307153      -0.36654227      -1.93009389      -0.07961888       0.46686402      -0.39589938      -8.66136438
Si      16.38404358       7.20715470       2.75774196       0.39915081      -0.15999675      -0.00243601       0.11242634       0.11526290       0.07589203      -8.76348943
Si      18.36056410       8.27833534       5.93386790      -0.76468726      -0.14861991       1.05807285      -0.58189332       0.59636729      -0.65403818      -8.72807045
Si      20.15875653       9.54693337       9.10749896       0.10519658      -0.32211313      -0.23040443       0.07947830      -0.38199024      -0.24880290      -8.72631458
Si      18.28931039      10.62220893       2.86681520       0.34269789       0.12286003      -0.63892600      -0.49277780       0.13771498      -1.02012399      -8.67150801
Si      20.16159770      11.56900396       5.95076750       0.52922428      -0.16160134      -0.10519876       0.55692342       0.49865776      -0.20543772      -8.73558617
Si      22.10600296      12.83893868       8.96210139      -0.98843011       1.11427789       0.89156178       0.13433427      -0.51276064      -0.02918868      -8.68786768
Si       0.67915544       0.82829518       0.46123423      -0.53152127       0.38785789      -0.66399008      -0.15340299      -0.62605210       1.22865155      -8.40203065
Si       2.85719880       1.73671945       3.62869138       0.71324346      -0.25498825       0.74985973       0.01239919      -0.32516210      -0.34584711      -8.74712643
Si       4.80911987       2.72879512       6.58274781      -0.07825184       0.02598209       0.09223749      -0.38014800       0.11825261       0.57387143      -8.73496283
Si       2.79068949       3.95676686       0.35794023       0.44602143       1.10118327      -0.19771350       0.11524484      -0.05228451       0.40617966      -8.65274061
Si       4.82047147       4.98978800       3.50183547      -0.94517556      -0.45192208      -0.39812988       0.27585386      -0.16989228       0.25529763      -8.72867274
Si       6.63726913       6.10739692       6.69417318       0.31077425       0.38929656       1.28247936      -0.19270113      -0.14428985       0.37211921      -8.66061992
Si       4.78030514       7.28420771       0.43686869      -0.47459524      -0.49902519       0.46085883      -0.01319374       0.15599906      -0.27383437      -8.72235247
Si       6.71554714       8.38777715       3.53390863      -0.24728620       0.11826499      -0.80198703       0.31321271      -0.40718247       0.50938847      -8.71276755
Si       8.70020984       9.39849003       6.74243763       0.48877508       0.40324426       0.93321267      -0.07302905      -0.24497854       0.23098116      -8.74340284
Si       4.85450135       0.53211161       0.38779936      -1.35603059       0.56993138       0.32023133       0.16642401       0.20913822       0.19897366      -8.54624246
Si       6.71805203       1.56362163       3.55133708       0.76901413       0.89460599       0.64785980      -0.30555066       0.10870052      -0.37500164      -8.72071630
Si       8.65136094       2.84030405       6.60280761       0.46873122      -0.92556061      -0.05474855      -0.11916768      -1.08508023       0.06545325      -8.53560263
Si       6.73002543       3.83390910       0.53002619      -0.69441639      -0.85595750      -0.48712803      -0.67220861      -0.01590173      -0.41221941      -8.68395888
Si       8.70667983       5.03295414       3.56575456       0.13732795       0.12296041      -0.27216271      -0.77488471       0.21810755       0.77388845      -8.66611084
Si      10.65718701       6.04060851       6.72791174       0.63842314       0.44074706       1.45587282      -0.49037206       0.18753445      -0.27984570      -8.68686149
Si       8.53366004       7.09520699       0.52127773       1.48607206       0.31230839       0.17827411       0.11598537      -0.21332663      -0.56885053      -8.45612664
Si      10.62580530       8.37006813       3.62525492       0.11031088       0.12411837       1.00887646      -0.41206024      -0.18366161      -0.24383727      -8.71573352
Si      12.50807685       9.37988522       6.79089087      -0.65899845      -1.13020931      -0.53464808       0.28138098       0.22679683      -0.63359311      -8.72653275
Si       8.67285993       0.56229449       0.38659708       0.45465454      -0.26616012       0.01528224      -0.36063704      -0.18495268      -0.37730805      -8.73300709
Si      10.51708621       1.69815932       3.43254904      -0.27407922       0.58107995      -0.05924369      -0.18070995      -0.09408934       0.22708642      -8.70686189
Si      12.52329894       2.74765757       6.66605343      -0.91106247       0.21463958      -0.55762214      -0.32340172      -0.01999050      -0.02772079      -8.74388932
Si      10.38832824       4.00702443       0.37522425      -0.60314315       0.74130047      -0.92492561       0.55986889      -0.08564028       0.02900623      -8.67243715
Si      12.50304597       4.95802242       3.50710969       1.43801604      -1.46066211      -0.27089350      -0.14035394       0.25804365       0.32319381      -8.71927460
Si      14.42034378       6.13789042       6.73216808      -0.45870256      -0.87977243      -0.44639511       0.00431377      -0.17953237      -0.66334692      -8.72987822
Si      12.42063775       7.21693043       0.45339127      -0.12684306      -0.01013429      -1.50388850       0.01941163       0.19238438      -0.12376957      -8.68692365
Si      14.45492282       8.24651744       3.51481750      -0.45214782      -0.09238994       0.47179820      -0.13956462       0.38040349       0.08669401      -8.75996529
Si      16.40364624       9.45732787       6.57001505       0.16873320      -0.43262168      -0.12716260      -0.31485078       0.24002602       0.52252685      -8.65805276
Si       8.39725288       4.23587291       8.81884525       0.41430166       1.14206527       0.84716987       0.58496512      -0.49627908      -0.54798968      -7.67416120
55
Lattice="11.5478352 0.0 0.0 5.773917198490155 10.000722372470358 0.0 5.773916394327279 3.333571176804646 9.428767828939895" Properties=species:S:1:pos:R:3:momenta:R:3:forces:R:3:energies:R:1 spacegroup="_JSON {\"number\": 1, \"setting\": 1}" unit_cell=conventional occupancy="_JSON {\"0\": {\"Si\": 1.0}, \"1\": {\"Si\": 1.0}, \"2\": {\"Si\": 1.0}, \"3\": {\"Si\": 1.0}, \"4\": {\"Si\": 1.0}, \"5\": {\"Si\": 1.0}, \"6\": {\"Si\": 1.0}, \"7\": {\"Si\": 1.0}, \"8\": {\"Si\": 1.0}, \"9\": {\"Si\": 1.0}, \"10\": {\"Si\": 1.0}, \"11\": {\"Si\": 1.0}, \"12\": {\"Si\": 1.0}, \"13\": {\"Si\": 1.0}, \"14\": {\"Si\": 1.0}, \"15\": {\"Si\": 1.0}, \"16\": {\"Si\": 1.0}, \"17\": {\"Si\": 1.0}, \"18\": {\"Si\": 1.0}, \"19\": {\"Si\": 1.0}, \"20\": {\"Si\": 1.0}, \"21\": {\"Si\": 1.0}, \"22\": {\"Si\": 1.0}, \"23\": {\"Si\": 1.0}, \"24\": {\"Si\": 1.0}, \"25\": {\"Si\": 1.0}, \"26\": {\"Si\": 1.0}, \"27\": {\"Si\": 1.0}, \"28\": {\"Si\": 1.0}, \"29\": {\"Si\": 1.0}, \"30\": {\"Si\": 1.0}, \"31\": {\"Si\": 1.0}, \"32\": {\"Si\": 1.0}, \"33\": {\"Si\": 1.0}, \"34\": {\"Si\": 1.0}, \"35\": {\"Si\": 1.0}, \"36\": {\"Si\": 1.0}, \"37\": {\"Si\": 1.0}, \"38\": {\"Si\": 1.0}, \"39\": {\"Si\": 1.0}, \"40\": {\"Si\": 1.0}, \"41\": {\"Si\": 1.0}, \"42\": {\"Si\": 1.0}, \"43\": {\"Si\": 1.0}, \"44\": {\"Si\": 1.0}, \"45\": {\"Si\": 1.0}, \"46\": {\"Si\": 1.0}, \"47\": {\"Si\": 1.0}, \"48\": {\"Si\": 1.0}, \"49\": {\"Si\": 1.0}, \"50\": {\"Si\": 1.0}, \"51\": {\"Si\": 1.0}, \"52\": {\"Si\": 1.0}, \"53\": {\"Si\": 1.0}, \"54\": {\"Si\": 1.0}}" energy=-475.63654624345827 stress="-0.011119396321444918 0.0033690558841949496 0.003352796692379368 0.0033690558841949496 -0.011256673103111129 -0.00033070285318062044 0.003352796692379368 -0.00033070285318062044 -0.007638992802671527" free_energy=-475.63654624345827 pbc="T T T"
Si       6.82696978       3.79526489       2.86085991      -0.20865549      -0.12491384      -0.07748866      -0.77314249       0.79969931      -0.43041519      -8.70303805
Si       8.58019982       5.07774509       5.97864624       0.40161964       0.13650188      -0.89413684       0.98864195      -0.28798708       0.21097685      -8.61093395
Si      10.53033460       6.14342876       9.10407031       0.58520622      -0.31819696       1.19607559      -0.30868511      -0.05379365      -0.10707515      -8.63182393
Si       8.68864641       7.27159798       2.85901596       0.31424886       0.23117013       0.80678634      -0.13373514       0.07198253      -0.18793755      -8.73144816
Si      10.63299291       8.29736392       6.01208649      -0.21509728       0.34991909       0.34631439      -0.64345989      -0.34369147      -0.29240814      -8.76269681
Si      12.38898419       9.35703127       9.10217878       0.79261508       0.41668514       0.01037459       0.55634465       0.23851262       0.09521605      -8.69573033
Si      10.44583626      10.53012914       2.75032456       0.89809999      -0.39400600       0.39056645       1.13154372       0.25342506       0.48531253      -8.64600550
Si      12.52197438      11.58396564       5.89417182       0.81247557      -0.07440168       0.58503260      -0.17006476      -0.21658766       0.54339747      -8.70717511
Si      15.21637173      12.14876053       8.71744581      -0.09658372       0.44960620      -0.32327449      -0.58932618       0.45479560       0.25221238      -7.89062766
Si      10.53136489       3.97340949       2.68067378       0.65574191       0.11101636      -0.25280963       0.34386227      -0.45801954       0.11672244      -8.71840241
Si      12.56433533       4.95211530       5.85162730      -0.41760695      -0.08216102      -0.58609748      -0.54854394       0.03986473       0.24985703      -8.73093612
Si      14.37143436       6.08861212       9.02441745      -0.04167223      -0.33653456      -0.44549941      -0.38526974       0.17742333       0.02551877      -8.71247008
Si      12.53009983       7.18503178       2.81300042       0.05997144      -0.55097073      -0.42776009      -0.61704181      -0.13016649      -0.57431455      -8.69264377
Si      14.43504924       8.26203364       5.85178747       0.23619224      -1.02279713       0.53011525       0.08492871       0.51918186       0.61600931      -8.73374761
Si      16.26810338       9.52032473       9.03059279      -0.18433873       0.41840105       0.19911423       0.35419228      -0.13866530      -1.09839416      -8.68808476
Si      14.37700179      10.47283555       2.63698853       0.19467796       0.50528419      -0.23160539       0.34433221       0.14911838       1.33128096      -8.68801398
Si      16.31618758      11.75497955       5.75708775      -0.41323425       0.05182255      -0.34333615       0.57408934      -1.00030388       0.07095096      -8.66660644
Si      18.30626379      12.75177735       9.00146563      -0.58148847       0.61834353      -0.02016439      -0.35477256       0.32277932      -0.03707516      -8.62512063
Si      14.38577273       3.92335719       2.79586851      -0.33326385       0.03071140       0.25891594       1.18057680      -1.02271491      -1.10105020      -8.69910228
Si      16.33933728       4.94281614       5.89593984       1.07630037       0.00659618       0.27769593      -0.25624648       0.44780774      -0.40051244      -8.71353167
Si      18.09815021       6.29404037       8.97114922      -0.05445533       0.54230443      -1.03925266       0.15210282       0.52161747       1.65836496      -8.63370850
Si      16.40130249       7.20186888       2.76273268       0.12377511      -0.07251934       0.22007809      -0.40623272      -0.00191324       0.17873397      -8.76519464
Si      18.30906092       8.29573833       5.95901340      -0.99213181       0.79365478      -0.13699941       0.22454363       0.52161423      -0.79333754      -8.70213547
Si      20.16648924       9.52287052       9.08956335       0.16912683      -0.44553049      -0.35535787      -0.00006079       0.19629583       0.13542770      -8.76661576
Si      18.28721467      10.63637305       2.80150916      -0.41279847       0.40762639      -1.61566966      -0.44493447       0.09940521      -0.07540363      -8.67895211
Si      20.20115598      11.58034932       5.94374819       0.77357980       0.55584863      -0.04868942      -0.24723982       0.34611594       0.22883018      -8.73921809
Si      22.06774633      12.86425853       9.00047761      -0.32539432      -0.34178861       0.46581063       0.67837067      -1.23754490      -0.42839325      -8.66803285
Si       0.65149028       0.82804462       0.47043762      -0.37453755      -0.27349133       0.82780995       0.40513659      -0.15146129       0.48127826      -8.41414320
Si       2.88923607       1.71370164       3.64733880       0.40191066      -0.56169414      -0.17212433      -0.39898904      -0.08812493      -0.84380372      -8.73650978
Si       4.79716075       2.73224047       6.61230371      -0.21113053       0.07519097       1.04073694       0.26662788       0.00030950       0.58227853      -8.73334729
Si       2.81225385       4.00086029       0.36716490       0.27682674       0.36453227       0.58701061      -0.27450475      -0.87660344       0.54473932      -8.57826602
Si       4.79146698       4.96216351       3.49684658      -0.01469972      -0.53393412       0.28786541       0.83521291       0.09169810       0.55813662      -8.69070344
Si       6.64526879       6.11916727       6.75620749       0.03483090       0.03641836       0.63309790      -0.03571302      -0.22843258      -1.33990229      -8.66728278
Si       4.75840340       7.26881069       0.44796141      -0.28301338      -0.03498594      -0.06046630       0.29196108       0.35729072      -0.35533006      -8.70379562
Si       6.71684296       8.38060401       3.51723386       0.30722441      -0.30105444       0.21634926       0.34245360      -0.05299466       0.69992558      -8.70440334
Si       8.71804725       9.40749602       6.79068317       0.09602542      -0.06662311       0.68954737      -0.44445065      -0.26854277      -0.60989855      -8.72687858
Si       4.79713945       0.56408398       0.41245584      -0.68662731       0.52018151       0.62576454       0.72620639      -0.29473290       0.21727613      -8.53334332
Si       6.74263315       1.60345516       3.56527555       0.13095518       0.43052597      -0.15127639      -0.45393430      -0.63595166      -0.50299088      -8.70537954
Si       8.66578045       2.76632030       6.60235765      -0.00036238      -1.53763436       0.02734850      -0.41849895       0.31161907       0.02354119      -8.54843048
Si       6.68019742       3.79344267       0.49522168      -0.91531514      -0.55726474      -0.68806185       0.46601809       0.49510562       0.17875635      -8.69990045
Si       8.68507667       5.04732264       3.57989645      -0.85984937       0.37269589       0.70957506      -0.37548884       0.01524204       0.36246945      -8.70879483
Si      10.66792275       6.06733960       6.78427167      -0.26044598       0.50937260       0.55344070      -0.61134175      -0.09049165      -0.81359869      -8.63419700
Si       8.60292315       7.10401967       0.51597466       0.91281121       0.05944738      -0.20123255      -0.82209473      -0.07368636       0.11894486      -8.45871860
Si      10.62003457       8.36574038       3.66551110      -0.23033708      -0.34552335       0.47008847      -0.01516453      -0.39716862      -0.45922294      -8.71687129
Si      12.49620628       9.33802611       6.74404161       0.39783330      -0.32391942      -1.08498703       0.99491434       0.76191161       0.01474066      -8.71488095
Si       8.67331605       0.54768263       0.36814245      -0.56617634      -0.17873637      -0.74052086      -0.83610540       0.24161521      -0.44413964      -8.73756032
Si      10.49724913       1.72252033       3.43115530      -0.43163954       0.30654328      -0.11144594       0.02196008      -0.25348020      -0.23066040      -8.70452369
Si      12.47137040       2.75562605       6.63724897      -0.89633740       0.05281666      -0.49786553       0.34982372      -0.16206981       0.13896828      -8.72017881
Si      10.38255924       4.03435020       0.33178075       0.41557307       0.16334429      -0.65788144       0.67470809      -0.60964746       0.31629556      -8.65476199
Si      12.55024105       4.90838285       3.50909747      -0.02990320      -0.14861377       0.38979544      -1.58350705       1.31736870       0.45441436      -8.70202645
Si      14.40395554       6.08262204       6.68595064      -0.03699712      -1.24123761      -1.20608277       0.50093630      -0.22307520      -0.22889036      -8.74241591
Si      12.41831582       7.22400833       0.38298694       0.10150858       0.27231909      -0.96237673       0.25806112       0.16166811       0.73134208      -8.66394982
Si      14.43494569       8.25858789       3.53500464      -0.16641917       0.56184998       0.18191903       0.40898602       0.40280357      -0.35995927      -8.75394780
Si      16.39229969       9.45039278       6.58665541      -0.72117853       0.26581997       0.78317930      -0.76139091       0.60817946       0.59066344      -8.61155198
Si       8.43460187       4.27333483       8.84131075       0.79256014       0.25198292       0.02205475      -0.24659543      -0.62659924      -0.49786845      -7.66778626
55
Lattice="11.5478352 0.0 0.0 5.773917198490155 10.000722372470358 0.0 5.773916394327279 3.333571176804646 9.428767828939895" Properties=species:S:1:pos:R:3:momenta:R:3:forces:R:3:energies:R:1 spacegroup="_JSON {\"number\": 1, \"setting\": 1}" unit_cell=conventional occupancy="_JSON {\"0\": {\"Si\": 1.0}, \"1\": {\"Si\": 1.0}, \"2\": {\"Si\": 1.0}, \"3\": {\"Si\": 1.0}, \"4\": {\"Si\": 1.0}, \"5\": {\"Si\": 1.0}, \"6\": {\"Si\": 1.0}, \"7\": {\"Si\": 1.0}, \"8\": {\"Si\": 1.0}, \"9\": {\"Si\": 1.0}, \"10\": {\"Si\": 1.0}, \"11\": {\"Si\": 1.0}, \"12\": {\"Si\": 1.0}, \"13\": {\"Si\": 1.0}, \"14\": {\"Si\": 1.0}, \"15\": {\"Si\": 1.0}, \"16\": {\"Si\": 1.0}, \"17\": {\"Si\": 1.0}, \"18\": {\"Si\": 1.0}, \"19\": {\"Si\": 1.0}, \"20\": {\"Si\": 1.0}, \"21\": {\"Si\": 1.0}, \"22\": {\"Si\": 1.0}, \"23\": {\"Si\": 1.0}, \"24\": {\"Si\": 1.0}, \"25\": {\"Si\": 1.0}, \"26\": {\"Si\": 1.0}, \"27\": {\"Si\": 1.0}, \"28\": {\"Si\": 1.0}, \"29\": {\"Si\": 1.0}, \"30\": {\"Si\": 1.0}, \"31\": {\"Si\": 1.0}, \"32\": {\"Si\": 1.0}, \"33\": {\"Si\": 1.0}, \"34\": {\"Si\": 1.0}, \"35\": {\"Si\": 1.0}, \"36\": {\"Si\": 1.0}, \"37\": {\"Si\": 1.0}, \"38\": {\"Si\": 1.0}, \"39\": {\"Si\": 1.0}, \"40\": {\"Si\": 1.0}, \"41\": {\"Si\": 1.0}, \"42\": {\"Si\": 1.0}, \"43\": {\"Si\": 1.0}, \"44\": {\"Si\": 1.0}, \"45\": {\"Si\": 1.0}, \"46\": {\"Si\": 1.0}, \"47\": {\"Si\": 1.0}, \"48\": {\"Si\": 1.0}, \"49\": {\"Si\": 1.0}, \"50\": {\"Si\": 1.0}, \"51\": {\"Si\": 1.0}, \"52\": {\"Si\": 1.0}, \"53\": {\"Si\": 1.0}, \"54\": {\"Si\": 1.0}}" energy=-476.2313223980385 stress="-0.010464112605456079 0.0017565348943976706 0.0008739367759555844 0.0017565348943976706 -0.010313627632644113 -0.0007794180697605984 0.0008739367759555844 -0.0007794180697605984 -0.008071669185578372" free_energy=-476.2313223980385 pbc="T T T"
Si       6.78791810       3.81832282       2.83856606      -1.18302300       0.90431988      -0.74893674      -0.36927731       0.39761134      -0.33246531      -8.72826713
Si       8.63171851       5.07081251       5.95007270       1.36351155      -0.43936937      -0.03975145       0.19325328      -0.43755071       0.79566739      -8.63140331
Si      10.53993613       6.12610677       9.15374497      -0.33853319      -0.31666636       0.53015563      -0.74423607       0.05388061      -0.74405634      -8.61152815
Si       8.69725519       7.28395723       2.88855577      -0.03401548       0.17746894       0.23374060      -0.31626577      -0.16910058      -0.51503386      -8.74223940
Si      10.60140186       8.30332016       6.01924616      -0.81739013      -0.06304787      -0.06428434       0.01814005      -0.11637902      -0.25708938      -8.77241627
Si      12.44607916       9.38566377       9.10138990       1.23590992       0.62342555      -0.13078682      -0.03141628       0.03181648      -0.25540947      -8.68027604
Si      10.52978961      10.51864791       2.78898692       2.09089724      -0.08795810       1.03899261       0.27154781       0.07168484       0.29771445      -8.70392620
Si      12.54802712      11.57171630       5.93684160       0.01015605      -0.35437753       0.83252118      -0.81552319      -0.05648592      -0.26845922      -8.70074840
Si      15.19070789      12.18546865       8.71418654      -0.83277288       0.82024569       0.27739135      -0.38183403      -0.05564871       0.54557549      -7.87519672
Si      10.56655017       3.96594500       2.67354671       0.42784648      -0.30427869       0.00344757      -0.65328995      -0.09422306       0.19761513      -8.69849415
Si      12.51917852       4.94988573       5.83559822      -1.29538184       0.01591649       0.07000874      -0.49427785       0.11072777       0.60264418      -8.74266626
Si      14.35617110       6.08032116       8.99867684      -0.46095892       0.05647481      -0.59001897      -0.06817658       0.30926820      -0.17923952      -8.70108402
Si      12.51244411       7.15810976       2.77159814      -0.63428790      -0.30301099      -1.04738499      -0.22393538       0.53212390      -0.16159210      -8.70598291
Si      14.45041693       8.22952799       5.89510843       0.34724810      -0.22729986       0.92179004       0.07138044       0.46496663      -0.16611115      -8.74776499
Si      16.27504121       9.53413161       9.00209345       0.45434626       0.06908832      -1.10035167       0.36737380      -0.28414728      -0.34458034      -8.72433322
Si      14.39666961      10.50384190       2.66681344       0.46038315       0.64089031       1.09273305      -0.03451351       0.00137706       0.25566948      -8.72754209
Si      16.31581280      11.71802720       5.74110941       0.33351028      -1.39943882      -0.25997648       0.31562670      -0.73463234       0.08978901      -8.67517055
Si      18.25957183      12.79298399       8.99543599      -1.20859846       0.84577439      -0.26342446      -0.37365011      -0.10068794      -0.24414945      -8.65046624
Si      14.40808792       3.88978843       2.77500427       0.94052397      -1.10498521      -0.79290472       0.27477158      -0.23832746      -0.08309975      -8.74467356
Si      16.38289445       4.95382558       5.89543129       0.54665011       0.24691574      -0.26048381      -0.39250811      -0.19754207      -0.24708164      -8.74670117
Si      18.10534699       6.33339730       8.98673767       0.41884093       0.73921085       1.48714047       0.49434286      -0.33806042       1.08098755      -8.65001947
Si      16.39268261       7.19742705       2.78003896      -0.39197069      -0.09222943       0.40324179      -0.16791529       0.01476922       0.03448580      -8.75151968
Si      18.26792780       8.35195255       5.92840729      -0.58217505       1.23231259      -0.84801361       0.20523472       0.05241150      -0.07122278      -8.71794081
Si      20.17488858       9.50884694       9.08086417       0.14772144      -0.10351973       0.08493293      -0.01362491       0.14236833       0.36090601      -8.76922266
Si      18.25301602      10.65518536       2.73278857      -0.78012382       0.16994804      -0.63885720      -0.00759346      -0.43943863       1.30998208      -8.65436567
Si      20.22589470      11.61739935       5.94954645       0.09482141       0.75356260       0.21377111      -0.52810231      -0.05805690       0.01305542      -8.73494240
Si      22.07435585      12.80574669       9.01320269       0.47021902      -1.63462020       0.15867399       0.26181469      -0.22902445       0.10531992      -8.72683020
Si       0.65024678       0.81457129       0.51155079       0.32723918      -0.14773368       0.33672263       0.40355686       0.20933813      -1.05547447      -8.39710501
Si       2.89424399       1.68165915       3.60673929      -0.19048645      -0.65325424      -1.28424345      -0.31020568      -0.05522921      -0.46849648      -8.73568081
Si       4.80357345       2.73713924       6.68313235       0.54571472       0.12533327       1.48181581       0.60082792       0.04435087      -0.12475534      -8.74071841
Si       2.81609692       3.98529607       0.41478446      -0.10818295      -0.89153634       1.09996975      -0.18423271      -0.60202388       0.03147068      -8.60979529
Si       4.81930892       4.94052611       3.53020783       0.92901545      -0.23903718       0.87184611       0.24134653       0.29564619       0.11010359      -8.72614816
Si       6.65306127       6.11770489       6.73169444       0.39961084       0.04752420      -1.44801060       0.49121601       0.31272488      -0.87302582      -8.67240397
Si       4.75843927       7.27583903       0.43456629       0.34547449       0.15924570      -0.35742007       0.51988676      -0.21166615       0.01336169      -8.72505460
Si       6.74095672       8.36971835       3.54920302       0.47782288       0.00667003       0.83367663      -0.18287254       0.41266997       0.02935222      -8.71716639
Si       8.70310518       9.39897881       6.79649734      -0.70141207      -0.13882390      -0.53290286      -0.56913801       0.19748935      -0.84037491      -8.73154156
Si       4.79151612       0.57601553       0.45435403       0.47324579      -0.10969034       0.96678549       0.70776539      -0.45597969       0.18864003      -8.51370641
Si       6.73580444       1.60302021       3.54607373      -0.28433976      -0.32945532      -0.39532695      -0.02169233      -0.16641488       0.22125188      -8.72344763
Si       8.65459299       2.70949104       6.60256649      -0.27201502      -0.46112599      -0.07231359       0.17441451       0.95803569      -0.18021360      -8.52293052
Si       6.66159844       3.79043296       0.47044207       0.33895168       0.55059824      -0.22082829       0.95012260       0.88977097       0.30662778      -8.70233933
Si       8.63573900       5.06218043       3.61901649      -0.83061553       0.09706514       0.54380119       0.36845017      -0.35881868      -0.55630269      -8.70335553
Si      10.63447098       6.08836085       6.78516720      -0.91266766       0.25684478      -0.40450826      -0.19854059      -0.22157550      -0.35426062      -8.64980267
Si       8.61795491       7.10752873       0.51616367      -0.27093356       0.12306401       0.27018822      -0.53980248       0.11375253       0.35727390      -8.47639282
Si      10.61267882       8.33314672       3.67254353       0.04150958      -0.84801016      -0.18904935       0.33702567      -0.19639681      -0.39932698      -8.72482014
Si      12.55020171       9.34717046       6.69665313       1.44678766       0.54370081      -0.56028119       0.15769403       0.25461512       0.64775599      -8.73750170
Si       8.61854377       0.54670818       0.32094593      -1.29829764       0.08745734      -0.85275908       0.03116941       0.03897584       0.35307080      -8.74590310
Si      10.47991537       1.72925581       3.41594734      -0.13225794      -0.02811617      -0.43120805       0.39702175      -0.16423987      -0.08080296      -8.72972024
Si      12.44223097       2.75231681       6.61828235      -0.16602425      -0.17092523      -0.19803708       0.52884061      -0.12997447       0.23879407      -8.71285062
Si      10.42372863       4.02088274       0.31080586       0.96945799      -0.58872379      -0.11639873      -0.05926939      -0.25926046       0.41044631      -8.66873566
Si      12.49845297       4.94511485       3.53853475      -1.56048523       1.30735188       0.51585624      -0.13123800       0.38536191      -0.36346535      -8.76458100
Si      14.42101398       6.01200792       6.62189224       0.61830960      -1.34401259      -1.07902315       0.21681370       0.20156355       0.38707486      -8.74007608
Si      12.43338894       7.24365462       0.36132633       0.44113818       0.45867563       0.09599485       0.13003280       0.08794475       0.56002160      -8.67212634
Si      14.44012322       8.29849860       3.53307556       0.28164760       0.82866507      -0.17222391       0.09093405      -0.11005162      -0.03926662      -8.74521122
Si      16.32881453       9.48508432       6.64436567      -1.54760344       0.94387814       1.23128296      -0.16063025       0.15509257      -0.15170351      -8.66816371
Si       8.45573179       4.26576264       8.82683523      -0.14395867      -0.45038136      -0.49677110      -0.84684260      -0.25940153      -0.18759765      -7.65832179
55
Lattice="11.5478352 0.0 0.0 5.773917198490155 10.000722372470358 0.0 5.773916394327279 3.333571176804646 9.428767828939895" Properties=species:S:1:pos:R:3:momenta:R:3:forces:R:3:energies:R:1 spacegroup="_JSON {\"number\": 1, \"setting\": 1}" unit_cell=conventional occupancy="_JSON {\"0\": {\"Si\": 1.0}, \"1\": {\"Si\": 1.0}, \"2\": {\"Si\": 1.0}, \"3\": {\"Si\": 1.0}, \"4\": {\"Si\": 1.0}, \"5\": {\"Si\": 1.0}, \"6\": {\"Si\": 1.0}, \"7\": {\"Si\": 1.0}, \"8\": {\"Si\": 1.0}, \"9\": {\"Si\": 1.0}, \"10\": {\"Si\": 1.0}, \"11\": {\"Si\": 1.0}, \"12\": {\"Si\": 1.0}, \"13\": {\"Si\": 1.0}, \"14\": {\"Si\": 1.0}, \"15\": {\"Si\": 1.0}, \"16\": {\"Si\": 1.0}, \"17\": {\"Si\": 1.0}, \"18\": {\"Si\": 1.0}, \"19\": {\"Si\": 1.0}, \"20\": {\"Si\": 1.0}, \"21\": {\"Si\": 1.0}, \"22\": {\"Si\": 1.0}, \"23\": {\"Si\": 1.0}, \"24\": {\"Si\": 1.0}, \"25\": {\"Si\": 1.0}, \"26\": {\"Si\": 1.0}, \"27\": {\"Si\": 1.0}, \"28\": {\"Si\": 1.0}, \"29\": {\"Si\": 1.0}, \"30\": {\"Si\": 1.0}, \"31\": {\"Si\": 1.0}, \"32\": {\"Si\": 1.0}, \"33\": {\"Si\": 1.0}, \"34\": {\"Si\": 1.0}, \"35\": {\"Si\": 1.0}, \"36\": {\"Si\": 1.0}, \"37\": {\"Si\": 1.0}, \"38\": {\"Si\": 1.0}, \"39\": {\"Si\": 1.0}, \"40\": {\"Si\": 1.0}, \"41\": {\"Si\": 1.0}, \"42\": {\"Si\": 1.0}, \"43\": {\"Si\": 1.0}, \"44\": {\"Si\": 1.0}, \"45\": {\"Si\": 1.0}, \"46\": {\"Si\": 1.0}, \"47\": {\"Si\": 1.0}, \"48\": {\"Si\": 1.0}, \"49\": {\"Si\": 1.0}, \"50\": {\"Si\": 1.0}, \"51\": {\"Si\": 1.0}, \"52\": {\"Si\": 1.0}, \"53\": {\"Si\": 1.0}, \"54\": {\"Si\": 1.0}}" energy=-476.0739516527635 stress="-0.010897515996539018 0.003303527710635317 0.001843960148078204 0.003303527710635317 -0.01149728776831953 -0.00017265967266484348 0.001843960148078204 -0.00017265967266484348 -0.007415324116044436" free_energy=-476.0739516527635 pbc="T T T"
Si       6.72357820       3.86994115       2.79254356      -1.01249212       0.84481861      -0.87474055       0.62221355      -0.44931420       0.17763655      -8.73355922
Si       8.69859773       5.03143896       5.97366845       0.94565544      -1.01731632       0.76201379      -0.74041410      -0.24253978       0.10317805      -8.67857032
Si      10.50088938       6.11223988       9.15214705      -0.94598024      -0.20788217      -0.55786992       0.04524873       0.06433444      -0.60352508      -8.61810229
Si       8.68312727       7.28449868       2.88285583      -0.48681713      -0.18178913      -0.37497277      -0.24000636      -0.26127583      -0.20820413      -8.74805026
Si      10.56930156       8.30062841       6.00622661      -0.25690175       0.04602000      -0.42287444       0.59288229       0.21844833      -0.20914882      -8.73121883
Si      12.50289460       9.41798703       9.08305421       0.81099150       0.57713399      -0.56857978      -0.48809406      -0.09211173      -0.24730659      -8.70528425
Si      10.63300679      10.50996204       2.84950206       1.49578949      -0.37316129       1.14097956      -1.06350499      -0.41450144      -0.19451798      -8.71335159
Si      12.51937888      11.55780387       5.96287077      -0.96815982      -0.03565637       0.05994752      -0.27719222       0.47153951      -0.65034082      -8.70397614
Si      15.13537942      12.21924094       8.75074332      -1.19659944       0.35913254       1.09554476      -0.05850261      -0.45964599       0.44977572      -7.87675411
Si      10.55745559       3.95046239       2.68039200      -0.82178138      -0.20868724       0.23363489      -0.81800792       0.20798653       0.10273867      -8.70903368
Si      12.43912442       4.95592349       5.86112973      -1.57170426       0.21969775       0.81394754       0.23280103       0.12515471       0.24283220      -8.75280350
Si      14.33705066       6.09331748       8.96092251      -0.12113760       0.37843331      -0.80878119       0.49339713       0.07072217      -0.01367833      -8.70047161
Si      12.47819265       7.16896331       2.71783093      -0.51143303       0.77743032      -0.84696826       0.40744230       0.74589203       0.44435277      -8.73531522
Si      14.47122797       8.22947902       5.92821529       0.42011249       0.09806171       0.19395966      -0.04220851      -0.03252341      -0.73039723      -8.72196608
Si      16.30794020       9.52804040       8.95267664       0.69505269      -0.26927970      -0.36415078      -0.04289118      -0.15779164       1.25062691      -8.69498694
Si      14.41433385      10.53516364       2.71878108       0.13089399       0.50120474       0.63715375      -0.34342403      -0.19803704      -0.72358397      -8.73039441
Si      16.33926474      11.62958619       5.73174369       0.45409724      -1.65329972      -0.09198606      -0.10111892       0.51632472       0.10445698      -8.65436723
Si      18.18812274      12.82675740       8.97222373      -1.32270174       0.31245801      -0.60043131       0.38205677      -0.59724180      -0.15697252      -8.67879632
Si      14.45587863       3.83675219       2.74706289       0.69199782      -0.67260165       0.00985030      -0.48803463       0.71670557       1.00196047      -8.68659650
Si      16.40112345       4.95202074       5.87833444       0.26658184      -0.40101753      -0.25156094       0.06476157      -0.51405168       0.29744705      -8.76975099
Si      18.14773045       6.34991590       9.07869601       1.14347867      -0.23065180       1.50562221       0.25605420      -0.78938576      -0.92339590      -8.63750229
Si      16.37232506       7.19464406       2.80027577      -0.25989001       0.01515848       0.32265517       0.31018884       0.12619489      -0.14383484      -8.72004856
Si      18.23931765       8.41430833       5.89101870      -0.61813541       1.05283530      -0.41118940      -0.21721730      -0.30978201       0.56552441      -8.71806146
Si      20.18280541       9.50349396       9.09536500       0.16484547      -0.19973664       0.35939631       0.02638406      -0.23859514      -0.05977167      -8.73524792
Si      18.21643672      10.64268799       2.74861714      -0.52793116      -0.69285872       1.04541281       0.33685337      -0.60247728       0.54003283      -8.67836878
Si      20.21599801      11.65321728       5.95520142      -0.32573883       0.59223802      -0.11201841       0.04191757      -0.13971064      -0.42722869      -8.70914946
Si      22.10117495      12.73020688       9.03242525       0.40919756      -0.90038003       0.65454207      -0.30268010       1.09185599       0.41185443      -8.72486774
Si       0.67718804       0.81241861       0.48785790       0.55879555      -0.01713704      -1.06392350      -0.16151620      -0.11247432      -0.36964011      -8.39343120
Si       2.87777266       1.64439210       3.53251698      -0.31658740      -0.76864207      -1.30106276       0.16168440      -0.05365846       0.48618058      -8.71911858
Si       4.85002545       2.74398817       6.74581009       1.05800132       0.09811196       0.73252758      -0.05715187      -0.09666391      -0.78624969      -8.73952849
Si       2.80750538       3.92708565       0.46539459      -0.12150705      -1.07487585       0.68361677       0.20160769       0.38703426      -0.52035484      -8.66557368
Si       4.86299764       4.94078159       3.57164125       0.45506206       0.27025889       0.54452042      -0.83861837       0.36857791      -0.51861617      -8.74094920
Si       6.69505951       6.13844477       6.64483495       1.17903290       0.80571804      -1.45354084       0.38816451       0.53905405       0.73150979      -8.61061596
Si       4.79628966       7.26544867       0.42215139       1.05348272      -0.72896267      -0.01416918       0.33287770      -0.85552989       0.40025420      -8.73861026
Si       6.75233140       8.38664435       3.58405498      -0.14829960       0.60301853       0.31909687      -0.57990163       0.25910864      -0.64229995      -8.72553622
Si       8.64719764       9.40442216       6.74432683      -1.31816117       0.42362555      -1.24644934      -0.11485956       0.49199007      -0.02012991      -8.75910957
Si       4.83576069       0.55708281       0.51053547       1.01694683      -0.49280566       1.11906583      -0.06624360       0.01021998      -0.03407822      -8.49747475
Si       6.72898196       1.59358328       3.54176979       0.18947574       0.23842310       0.35035095       0.59696328       0.85929170       0.67006318      -8.69975659
Si       8.65482498       2.71696233       6.58985750       0.38020243       0.56466399      -0.42090884       0.55409314       0.23347091      -0.20222657      -8.53301240
Si       6.70528252       3.85017893       0.46349396       1.05625664       1.59558998      -0.20783386      -0.08942699       0.36197186      -0.32274813      -8.71303834
Si       8.60929248       5.05176600       3.62242149      -0.15797977      -0.50233338      -0.41456724       0.43882843      -0.38195393      -0.55259428      -8.67330661
Si      10.58546165       6.09526573       6.76024858      -0.82586823       0.07022712      -0.35514135       0.30395225       0.02927422       0.38421896      -8.69484584
Si       8.59567109       7.11786654       0.53965269      -0.33730603       0.23924008       0.51446313       0.39286688      -0.01633545      -0.07281966      -8.49168607
Si      10.62758993       8.28599365       3.64980536       0.47333640      -0.84116291      -0.61290810       0.11663260       0.22706579      -0.13481479      -8.73432966
Si      12.61678810       9.37555793       6.69483279       0.81835615       0.36626711       0.49473150      -0.90151362      -0.41116072       0.63616066      -8.72328144
Si       8.56284397       0.54919745       0.29680445      -0.65414143      -0.04247724       0.02527094       0.69406699      -0.15420393       0.70608824      -8.68093445
Si      10.49105216       1.72398027       3.39662155       0.57028559      -0.12667682      -0.17433039       0.43073974       0.01527175       0.42111728      -8.74082534
Si      12.44892911       2.73894464       6.61555491       0.29193254      -0.31900595       0.04824155       0.02126730      -0.04493556       0.05584527      -8.73559559
Si      10.46134071       3.98814460       0.31993854       0.29115245      -0.52091507       0.42870018      -0.71010352       0.27088121       0.25659854      -8.65942849
Si      12.43011106       5.01320507       3.54612336      -0.76801567       1.01885730      -0.26322541       0.96061485      -0.67239971      -0.50886273      -8.71388032
Si      14.45153821       5.95653500       6.58344566       0.33838241      -0.62839936      -0.34479466      -0.57325604       0.74116626       0.54178793      -8.70932169
Si      12.45807986       7.27089114       0.37882100       0.43383431       0.56920226       0.37252807      -0.12495830       0.04111769      -0.21573915      -8.68890665
Si      14.45189034       8.33213872       3.52759877       0.05051078       0.36758338       0.03938449      -0.35980931      -0.44046668       0.25166774      -8.70848826
Si      16.25277798       9.52996688       6.69025262      -1.13279674       0.54486329       0.30088504       0.68874376      -0.70973014      -0.95613733      -8.68304253
Si       8.41907764       4.23885735       8.79606850      -1.11567402      -0.44256098      -0.64906438      -0.29464895       0.25784290      -0.08469133      -7.63372776
55
Lattice="11.5478352 0.0 0.0 5.773917198490155 10.000722372470358 0.0 5.773916394327279 3.333571176804646 9.428767828939895" Properties=species:S:1:pos:R:3:momenta:R:3:forces:R:3:energies:R:1 spacegroup="_JSON {\"number\": 1, \"setting\": 1}" unit_cell=conventional occupancy="_JSON {\"0\": {\"Si\": 1.0}, \"1\": {\"Si\": 1.0}, \"2\": {\"Si\": 1.0}, \"3\": {\"Si\": 1.0}, \"4\": {\"Si\": 1.0}, \"5\": {\"Si\": 1.0}, \"6\": {\"Si\": 1.0}, \"7\": {\"Si\": 1.0}, \"8\": {\"Si\": 1.0}, \"9\": {\"Si\": 1.0}, \"10\": {\"Si\": 1.0}, \"11\": {\"Si\": 1.0}, \"12\": {\"Si\": 1.0}, \"13\": {\"Si\": 1.0}, \"14\": {\"Si\": 1.0}, \"15\": {\"Si\": 1.0}, \"16\": {\"Si\": 1.0}, \"17\": {\"Si\": 1.0}, \"18\": {\"Si\": 1.0}, \"19\": {\"Si\": 1.0}, \"20\": {\"Si\": 1.0}, \"21\": {\"Si\": 1.0}, \"22\": {\"Si\": 1.0}, \"23\": {\"Si\": 1.0}, \"24\": {\"Si\": 1.0}, \"25\": {\"Si\": 1.0}, \"26\": {\"Si\": 1.0}, \"27\": {\"Si\": 1.0}, \"28\": {\"Si\": 1.0}, \"29\": {\"Si\": 1.0}, \"30\": {\"Si\": 1.0}, \"31\": {\"Si\": 1.0}, \"32\": {\"Si\": 1.0}, \"33\": {\"Si\": 1.0}, \"34\": {\"Si\": 1.0}, \"35\": {\"Si\": 1.0}, \"36\": {\"Si\": 1.0}, \"37\": {\"Si\": 1.0}, \"38\": {\"Si\": 1.0}, \"39\": {\"Si\": 1.0}, \"40\": {\"Si\": 1.0}, \"41\": {\"Si\": 1.0}, \"42\": {\"Si\": 1.0}, \"43\": {\"Si\": 1.0}, \"44\": {\"Si\": 1.0}, \"45\": {\"Si\": 1.0}, \"46\": {\"Si\": 1.0}, \"47\": {\"Si\": 1.0}, \"48\": {\"Si\": 1.0}, \"49\": {\"Si\": 1.0}, \"50\": {\"Si\": 1.0}, \"51\": {\"Si\": 1.0}, \"52\": {\"Si\": 1.0}, \"53\": {\"Si\": 1.0}, \"54\": {\"Si\": 1.0}}" energy=-475.7995153150882 stress="-0.010566330137318879 0.005337405609783898 0.004739389512848438 0.005337405609783898 -0.013635804224997647 0.0005734242150818394 0.004739389512848438 0.0005734242150818394 -0.006405634179039045" free_energy=-475.7995153150882 pbc="T T T"
Si       6.69946622       3.89385948       2.75677970       0.10831276       0.06924606      -0.45019814       0.66671850      -0.43351108       0.32007074      -8.73592449
Si       8.71549402       4.97670501       6.00573413      -0.31341116      -0.86718424       0.26042735      -0.77251871       0.53677748      -0.67080485      -8.67109006
Si      10.46273827       6.10205955       9.10678243      -0.34561216      -0.20845494      -0.99672133       0.68071748      -0.03886708       0.09653543      -8.61120002
Si       8.65104828       7.26647956       2.86250593      -0.67614112      -0.46312148      -0.25749684      -0.00375691      -0.09594421       0.34637475      -8.72021282
Si      10.57590568       8.31262755       5.97793627       0.40509834       0.41206615      -0.59814384       0.18287433       0.21689962       0.02019618      -8.69882438
Si      12.52783143       9.44491537       9.04821955       0.20037592       0.45654543      -0.64109045      -0.24746212      -0.06566956       0.21307366      -8.74586606
Si      10.66685463      10.47580785       2.89920714      -0.16160455      -0.81093398       0.72513965      -0.88730104       0.04896729      -0.31297794      -8.71412271
Si      12.47252447      11.57469401       5.94450352      -0.52479419       0.62683744      -0.63691950       0.85550109       0.26485026      -0.15304081      -8.71257629
Si      15.07471421      12.22525303       8.82013157      -1.01642062       0.02489329       1.41062140       0.33267754       0.14064669      -0.09993548      -7.86762867
Si      10.49233149       3.94836821       2.69526554      -1.39983235       0.10958740       0.29834539       0.21717973       0.12253552      -0.04014373      -8.74892102
Si      12.37479054       4.97027430       5.90375796      -0.71499539       0.27769813       0.62400908       0.86818468      -0.06545664      -0.48477003      -8.72530261
Si      14.35109396       6.11219422       8.92383035       0.62798560       0.27715988      -0.46982926       0.37209569      -0.17986686       0.50808508      -8.71580758
Si      12.47349376       7.23090416       2.69415911       0.43213076       1.37170481      -0.02629476       0.77481943      -0.08989650       0.54403514      -8.75510870
Si      14.48622623       8.22940061       5.91053776       0.02222222      -0.14356448      -0.80632998      -0.53675639      -0.19583801      -0.47201327      -8.71885937
Si      16.33966349       9.50925542       8.98441285       0.45649261      -0.41913863       1.46836091      -0.26938916      -0.04606028       0.83559824      -8.67152340
Si      14.41000214      10.55309773       2.72404316      -0.22482263       0.17906311      -0.36763909      -0.06989954      -0.20772905      -0.44176217      -8.73553458
Si      16.35835754      11.57581910       5.72966560       0.27275216      -0.21444290       0.00185792      -0.10939702       1.19079637       0.07168226      -8.64153188
Si      18.14455365      12.81873235       8.93784579      -0.15709093      -0.59306955      -0.62295555       1.06615740      -0.47745184       0.18954516      -8.67843529
Si      14.46990049       3.83153861       2.78567413      -0.21249865       0.45804872       1.34552180      -0.69204425       0.63833572       0.53510670      -8.68906326
Si      16.42244588       4.91748755       5.88167655       0.58737787      -0.72632955       0.43103900       0.21896052       0.22818692       0.48549675      -8.75525836
Si      18.20499071       6.31335684       9.11181653       0.78535540      -0.98962679      -0.35377290      -0.70394428      -0.11182364      -1.34051385      -8.61838794
Si      16.37140094       7.20105997       2.81051987       0.19191161       0.23598420       0.05059463       0.17363513       0.14617183      -0.20893271      -8.72233014
Si      18.19675703       8.45531393       5.88982023      -0.97540577       0.47097807       0.27772599      -0.08402495      -0.46038959       0.22172703      -8.73571286
Si      20.19249912       9.48250275       9.10622151       0.20128199      -0.58871250      -0.03952941       0.01473021      -0.18592146      -0.42423847      -8.69477367
Si      18.20442501      10.58912883       2.80307510       0.11450939      -1.15906705       0.65117175       0.49859322       0.15108275      -0.93662221      -8.69180003
Si      20.20768989      11.67969363       5.93033756       0.11040900       0.43232060      -0.84855457       0.42817888      -0.07687718      -0.46187943      -8.69329429
Si      22.10758214      12.72494581       9.07920297      -0.21148134       0.57300245       1.02149233      -0.48002015       0.58768549      -0.01153942      -8.72388955
Si       0.69169888       0.80121244       0.43971959      -0.14481173      -0.50129135      -0.38449179      -0.67098486      -0.45085413       1.11658460      -8.33028622
Si       2.87158207       1.60373482       3.49081235       0.13356019      -0.72144995      -0.17611196       0.36226895       0.18413082       0.91382349      -8.70467428
Si       4.89219993       2.74446422       6.75677176       0.34256395      -0.08662041      -0.19775797      -0.85281779      -0.12340402      -0.32916450      -8.74679041
Si       2.81359240       3.89373784       0.48336867       0.41124635      -0.08811336       0.09149871       0.40571909       0.79368834      -0.17757438      -8.68671527
Si       4.85130088       4.96745028       3.57869062      -0.85844902       0.68007628      -0.24913300      -0.65553382       0.10157601      -0.40015009      -8.75756821
Si       6.76377113       6.19524805       6.60441754       1.24741522       1.18459396       0.00999956      -0.36695850      -0.14713305       1.10675879      -8.54774544
Si       4.85773778       7.19858856       0.43646500       1.11731810      -1.62158311       0.51288710      -0.34813908      -0.07619763       0.21497280      -8.74473009
Si       6.72316654       8.41935069       3.57712699      -0.90101245       0.42632449      -0.48717757      -0.32380712      -0.58713980      -0.26148524      -8.73494440
Si       8.58370894       9.44494600       6.68756879      -0.89495228       1.06737454      -0.75937310       0.68336885       0.26777770       0.59534437      -8.73398760
Si       4.87767609       0.53722349       0.56437582       0.44647941      -0.18639663       0.83495579      -0.58140297       0.30828207      -0.42477949      -8.47431563
Si       6.75977713       1.64118335       3.58223169       0.84936279       1.49685388       1.03651803       0.07839706       0.53527202       0.05063453      -8.71675894
Si       8.69302348       2.73983634       6.56455270       0.97745848       0.01095090      -0.42760228       0.16321228      -0.90268218       0.24855311      -8.53035441
Si       6.74747938       3.93667899       0.43440342       0.41436400       1.44740225      -0.95604734      -0.63334354      -0.64376823      -0.52308201      -8.65328247
Si       8.61250901       5.01411375       3.58730598       0.14344480      -0.83011228      -0.74209570      -0.10376755       0.03224373       0.16628983      -8.67214818
Si      10.55487267       6.10449453       6.75892538      -0.35797486       0.34126661       0.28211755       0.23658276       0.25173213       0.28316487      -8.72106455
Si       8.59686119       7.12484737       0.55952951       0.39439597      -0.09003606       0.18425032       0.44038744      -0.46613476      -0.29673967      -8.50359610
Si      10.64867184       8.25355661       3.61677354       0.15854071      -0.35865125      -0.55322589      -0.54030564       0.36179411       0.22857546      -8.73938413
Si      12.62239318       9.37853222       6.73555477      -0.59100238      -0.21086363       0.79767930      -0.83512384      -0.24700580      -0.38593814      -8.71378878
Si       8.55346760       0.54221146       0.32178725       0.22186902      -0.18051384       0.81195722       0.39582194       0.01612716       0.24333505      -8.66384128
Si      10.53143574       1.71823588       3.40581843       0.81825184      -0.09793252       0.51609740      -0.15478625      -0.00349768       0.37444051      -8.72541967
Si      12.45868670       2.72286245       6.61645623      -0.00859793      -0.23527950      -0.08812074      -0.31530806       0.18443684      -0.23263519      -8.74257379
Si      10.45351871       3.97019197       0.34767599      -0.44351409      -0.21884497       0.53530451      -0.14531129       0.06269743      -0.10589328      -8.68009025
Si      12.42593892       5.03753086       3.51804311       0.52883104      -0.09402773      -0.68493529       0.63262250      -0.67038565      -0.02312539      -8.67099029
Si      14.44492973       5.95255996       6.58302839      -0.55648221       0.43443901       0.24187335      -0.43375171       0.56173085       0.19580724      -8.70786813
Si      12.47605627       7.30084313       0.38361301       0.27341736       0.51870015      -0.25481405      -0.03877176      -0.17676517      -0.45637259      -8.70027816
Si      14.43953442       8.33614319       3.53764145      -0.50012983      -0.15157145       0.27187897      -0.26389381      -0.18566201      -0.03103789      -8.71162875
Si      16.22402845       9.52472491       6.67560712       0.07691082      -0.80144535      -0.63137428       0.82370462      -0.89653841      -0.08249867      -8.69112416
Si       8.36091852       4.22844724       8.75503209      -0.88060803       0.07526164      -0.98558840       0.54741280       0.37404636      -0.33616088      -7.60058570
55
Lattice="11.5478352 0.0 0.0 5.773917198490155 10.000722372470358 0.0 5.773916394327279 3.333571176804646 9.428767828939895" Properties=species:S:1:pos:R:3:momenta:R:3:forces:R:3:energies:R:1 spacegroup="_JSON {\"number\": 1, \"setting\": 1}" unit_cell=conventional occupancy="_JSON {\"0\": {\"Si\": 1.0}, \"1\": {\"Si\": 1.0}, \"2\": {\"Si\": 1.0}, \"3\": {\"Si\": 1.0}, \"4\": {\"Si\": 1.0}, \"5\": {\"Si\": 1.0}, \"6\": {\"Si\": 1.0}, \"7\": {\"Si\": 1.0}, \"8\": {\"Si\": 1.0}, \"9\": {\"Si\": 1.0}, \"10\": {\"Si\": 1.0}, \"11\": {\"Si\": 1.0}, \"12\": {\"Si\": 1.0}, \"13\": {\"Si\": 1.0}, \"14\": {\"Si\": 1.0}, \"15\": {\"Si\": 1.0}, \"16\": {\"Si\": 1.0}, \"17\": {\"Si\": 1.0}, \"18\": {\"Si\": 1.0}, \"19\": {\"Si\": 1.0}, \"20\": {\"Si\": 1.0}, \"21\": {\"Si\": 1.0}, \"22\": {\"Si\": 1.0}, \"23\": {\"Si\": 1.0}, \"24\": {\"Si\": 1.0}, \"25\": {\"Si\": 1.0}, \"26\": {\"Si\": 1.0}, \"27\": {\"Si\": 1.0}, \"28\": {\"Si\": 1.0}, \"29\": {\"Si\": 1.0}, \"30\": {\"Si\": 1.0}, \"31\": {\"Si\": 1.0}, \"32\": {\"Si\": 1.0}, \"33\": {\"Si\": 1.0}, \"34\": {\"Si\": 1.0}, \"35\": {\"Si\": 1.0}, \"36\": {\"Si\": 1.0}, \"37\": {\"Si\": 1.0}, \"38\": {\"Si\": 1.0}, \"39\": {\"Si\": 1.0}, \"40\": {\"Si\": 1.0}, \"41\": {\"Si\": 1.0}, \"42\": {\"Si\": 1.0}, \"43\": {\"Si\": 1.0}, \"44\": {\"Si\": 1.0}, \"45\": {\"Si\": 1.0}, \"46\": {\"Si\": 1.0}, \"47\": {\"Si\": 1.0}, \"48\": {\"Si\": 1.0}, \"49\": {\"Si\": 1.0}, \"50\": {\"Si\": 1.0}, \"51\": {\"Si\": 1.0}, \"52\": {\"Si\": 1.0}, \"53\": {\"Si\": 1.0}, \"54\": {\"Si\": 1.0}}" energy=-475.7947629783731 stress="-0.009671337901140458 0.005300324526616145 0.004496037737008504 0.005300324526616145 -0.0133983354669634 0.00045618214316520063 0.004496037737008504 0.00045618214316520063 -0.006958786796975881" free_energy=-475.7947629783731 pbc="T T T"
Si       6.72025299       3.88889315       2.74103183       0.44749058      -0.08777922      -0.26390184      -0.25704057       0.22916074      -0.12238029      -8.73361109
Si       8.67736489       4.95778949       5.99299413      -0.96178274       0.18148096      -0.69559337      -0.06947260       0.66056973      -0.46157467      -8.64423213
Si      10.47207366       6.09054474       9.06814168       0.68371214      -0.19287734      -0.29722516       0.59563924       0.10495056       0.77468675      -8.63479412
Si       8.61676578       7.23992869       2.86474618      -0.60850017      -0.52431893       0.34539757       0.08713479       0.00482682       0.34912093      -8.68520000
Si      10.59508486       8.34025117       5.95067509       0.13949977       0.57859563      -0.37948280      -0.54728560      -0.03138216       0.25494498      -8.70797820
Si      12.53484852       9.46701421       9.02709076       0.16077252       0.37822882      -0.12373650       0.10803756      -0.10295901       0.35719352      -8.74143741
Si      10.63698290      10.44689448       2.92605407      -0.72649084      -0.08352305       0.29232540       0.10377115       0.83989075      -0.33459360      -8.69274454
Si      12.48348991      11.61117367       5.91641093       0.95211941       0.64323160      -0.21501179       0.86697112      -0.20651004       0.68243808      -8.70183820
Si      15.03692944      12.24122283       8.88483164      -0.38943367       0.69948870       0.96967479       0.45465766       0.56628451      -0.42806799      -7.85554023
Si      10.44298161       3.95297025       2.70730347      -0.21045797      -0.04894539       0.13254301       1.24119646      -0.30900392      -0.13629564      -8.72592401
Si      12.37084159       4.98121603       5.91352903       0.51402794       0.13572521      -0.29811715       0.65585188      -0.07797257      -0.65784615      -8.71099192
Si      14.39102130       6.11896705       8.92273963       0.72900063      -0.02997163       0.46130676      -0.27383923      -0.22255870       0.61842753      -8.72103375
Si      12.52171733       7.28756057       2.70796253       1.22647573       0.57011581       0.41603827       0.05377341      -0.93589825       0.00860974      -8.74812154
Si      14.46238814       8.21767007       5.85943278      -0.96327890      -0.20944471      -0.93335749      -0.64299869       0.17139485       0.34199583      -8.73835680
Si      16.35317289       9.48558796       9.07676552       0.08281961      -0.48627311       1.70929170      -0.16369280      -0.05684073      -0.51465081      -8.66185244
Si      14.39937177      10.55649270       2.69956699      -0.12384267      -0.00305792      -0.32028397       0.15254889      -0.02184163       0.50481718      -8.72057728
Si      16.37036532      11.60065527       5.73548683       0.23043405       0.87208021       0.27982015       0.07245051       0.06106897       0.28623822      -8.68923936
Si      18.17561065      12.77821610       8.91723572       1.24825620      -0.74297659      -0.08924118       0.69000294       0.33286684       0.46159748      -8.67570797
Si      14.43383719       3.87052281       2.86277535      -1.06997358       0.80077207       1.30233851      -0.30230694      -0.25322528      -0.60418502      -8.73860625
Si      16.45699459       4.90011284       5.91802799       0.60733124       0.26262427       0.82893775      -0.25742817       0.97890656      -0.00201811      -8.69109399
Si      18.21770009       6.26584785       9.05112286      -0.25381880      -0.68179842      -1.67291915      -0.52454493       0.43201793      -0.18242625      -8.66371393
Si      16.38024706       7.21739023       2.80543694      -0.03059261       0.32944971      -0.23193753      -0.50735986      -0.08202075      -0.15504531      -8.73826977
Si      18.15347326       8.46202563       5.90458992      -0.40077492      -0.22620594       0.13693978       0.96488931      -0.49319731      -0.35074060      -8.74487789
Si      20.20388216       9.44928435       9.08710726       0.23843862      -0.56053071      -0.67372438       0.03533976       0.26914717      -0.35339928      -8.70139315
Si      18.22866035      10.54607115       2.79666938       0.76624489      -0.30295838      -0.86302884       0.32083903       0.81837610      -0.77582650      -8.70143195
Si      20.22683212      11.70102000       5.87310910       0.50863152       0.40200925      -1.17917519      -0.00712687       0.00218265       0.15481738      -8.73115719
Si      22.07883275      12.76045323       9.12561063      -0.84253532       0.44808463       0.61377997      -0.29964095      -0.70248210      -0.52814718      -8.69183989
Si       0.66396370       0.76046386       0.46366038      -0.71973031      -0.93358191       1.17661668       0.06425349       0.01102053       0.62037571      -8.31246267
Si       2.89005091       1.57754021       3.51321382       0.49267680      -0.17862905       0.89880128       0.05343662       0.56071912       0.37537626      -8.71553201
Si       4.87606475       2.73583642       6.74253014      -0.89496957      -0.22052354      -0.20223804      -0.58418414      -0.02684350       0.22910505      -8.75321054
Si       2.84572309       3.91397497       0.48701032       0.67173677       0.68716535       0.12373396      -0.14054089       0.11417725       0.12205955      -8.67349972
Si       4.79456230       5.00203452       3.55910697      -1.01759191       0.54413234      -0.30663415       0.45696788      -0.26545981       0.33756256      -8.74793625
Si       6.80739922       6.24270891       6.64365521       0.28746561       0.46884092       1.34174937      -0.85573999      -0.74666136       0.50410605      -8.58778952
Si       4.89349247       7.12591568       0.46662032       0.07929737      -0.86716171       0.52753641      -0.97461006       1.01233291      -0.22040394      -8.69164795
Si       6.67043373       8.41084146       3.55161701      -0.94837680      -0.81622717      -0.30819362       0.31079903      -0.80333964       0.41830144      -8.72240494
Si       8.56686101       9.50481290       6.67066859       0.27846806       1.06540401       0.07550048       0.77392321      -0.31600065       0.43055512      -8.69450165
Si       4.88151632       0.53686016       0.58607452      -0.20408057       0.10283878      -0.10654526      -0.20327476       0.03957329      -0.78811786      -8.48731700
Si       6.79766259       1.72595207       3.62536929       0.43844464       1.42608225       0.36748007      -0.53495126      -0.66869501      -0.86496182      -8.70287806
Si       8.74415053       2.70385694       6.55708420       0.83544047      -1.28159144       0.23417265      -0.37090897      -0.49226451       0.60218949      -8.53348774
Si       6.74628547       3.97691689       0.36932161      -0.40152725      -0.08873260      -1.37532971      -0.39580158      -1.29499423       0.06467251      -8.61977583
Si       8.60842155       4.97911319       3.56284481      -0.40206003      -0.36974490      -0.06459142      -0.47865986       0.53891191       0.63956857      -8.68479100
Si      10.54120559       6.12973676       6.77419800      -0.21994554       0.54309315       0.07904896       0.01525501      -0.05188162      -0.56045713      -8.71659451
Si       8.62966055       7.09827685       0.56034650       0.75238118      -0.93364366      -0.08198756       0.03130719      -0.47880324      -0.02172720      -8.55136355
Si      10.63345994       8.24530296       3.59867841      -0.71966980      -0.03588059      -0.12038599      -0.45478820       0.05649285       0.28579856      -8.74338067
Si      12.56735091       9.36439695       6.74871979      -1.31323536      -0.19344172      -0.49432804      -0.06028958       0.28309680      -1.12457444      -8.69851253
Si       8.57344596       0.53688333       0.36496061       0.40413679       0.04471416       0.66264369      -0.13751871       0.27525595      -0.41858071      -8.69702871
Si      10.56322537       1.71169186       3.44048792       0.32383803      -0.17594901       0.64801282      -0.42328531      -0.09910227      -0.23761665      -8.70332146
Si      12.44972663       2.72051765       6.60109207      -0.21564826       0.19689673      -0.49872444       0.14179375       0.37836164      -0.22375919      -8.74038018
Si      10.43427010       3.95662096       0.37021419      -0.11685973      -0.36977472       0.31151350       0.53361942      -0.21391642      -0.15710367      -8.68544267
Si      12.46688319       5.01528104       3.48714123       0.77983803      -0.55298639      -0.37676572      -0.36399598       0.12380821       0.43214434      -8.66885540
Si      14.40837967       5.98942285       6.59847916      -0.64034428       0.81169952       0.27676422       0.33355866      -0.06463718      -0.07737241      -8.71899382
Si      12.49255832       7.31586580       0.35932211       0.42090532      -0.06445115      -0.50255721       0.20931016      -0.62655379       0.19497314      -8.71327494
Si      14.41038825       8.32742859       3.54448137      -0.43404756      -0.04797948      -0.11935017       0.42552653       0.33225003      -0.43843289      -8.73094345
Si      16.25179759       9.45866085       6.65257432       0.75371131      -1.44186571      -0.03461489      -0.07415263       0.17225976       0.74751118      -8.67269763
Si       8.33465599       4.24573489       8.69103893      -0.22402607       0.56007203      -1.38298520       0.15258448       0.27514121      -0.05888181      -7.63517358
55
Lattice="11.5478352 0.0 0.0 5.773917198490155 10.000722372470358 0.0 5.773916394327279 3.333571176804646 9.428767828939895" Properties=species:S:1:pos:R:3:momenta:R:3:forces:R:3:energies:R:1 spacegroup="_JSON {\"number\": 1, \"setting\": 1}" unit_cell=conventional occupancy="_JSON {\"0\": {\"Si\": 1.0}, \"1\": {\"Si\": 1.0}, \"2\": {\"Si\": 1.0}, \"3\": {\"Si\": 1.0}, \"4\": {\"Si\": 1.0}, \"5\": {\"Si\": 1.0}, \"6\": {\"Si\": 1.0}, \"7\": {\"Si\": 1.0}, \"8\": {\"Si\": 1.0}, \"9\": {\"Si\": 1.0}, \"10\": {\"Si\": 1.0}, \"11\": {\"Si\": 1.0}, \"12\": {\"Si\": 1.0}, \"13\": {\"Si\": 1.0}, \"14\": {\"Si\": 1.0}, \"15\": {\"Si\": 1.0}, \"16\": {\"Si\": 1.0}, \"17\": {\"Si\": 1.0}, \"18\": {\"Si\": 1.0}, \"19\": {\"Si\": 1.0}, \"20\": {\"Si\": 1.0}, \"21\": {\"Si\": 1.0}, \"22\": {\"Si\": 1.0}, \"23\": {\"Si\": 1.0}, \"24\": {\"Si\": 1.0}, \"25\": {\"Si\": 1.0}, \"26\": {\"Si\": 1.0}, \"27\": {\"Si\": 1.0}, \"28\": {\"Si\": 1.0}, \"29\": {\"Si\": 1.0}, \"30\": {\"Si\": 1.0}, \"31\": {\"Si\": 1.0}, \"32\": {\"Si\": 1.0}, \"33\": {\"Si\": 1.0}, \"34\": {\"Si\": 1.0}, \"35\": {\"Si\": 1.0}, \"36\": {\"Si\": 1.0}, \"37\": {\"Si\": 1.0}, \"38\": {\"Si\": 1.0}, \"39\": {\"Si\": 1.0}, \"40\": {\"Si\": 1.0}, \"41\": {\"Si\": 1.0}, \"42\": {\"Si\": 1.0}, \"43\": {\"Si\": 1.0}, \"44\": {\"Si\": 1.0}, \"45\": {\"Si\": 1.0}, \"46\": {\"Si\": 1.0}, \"47\": {\"Si\": 1.0}, \"48\": {\"Si\": 1.0}, \"49\": {\"Si\": 1.0}, \"50\": {\"Si\": 1.0}, \"51\": {\"Si\": 1.0}, \"52\": {\"Si\": 1.0}, \"53\": {\"Si\": 1.0}, \"54\": {\"Si\": 1.0}}" energy=-475.8795994872265 stress="-0.011324429374191041 0.0035039725749273698 0.001693360007960954 0.0035039725749273698 -0.01047206963256396 -0.0010477768740842538 0.001693360007960954 -0.0010477768740842538 -0.008409520776244718" free_energy=-475.8795994872265 pbc="T T T"
Si       6.72495943       3.89792120       2.71664757      -0.38688696       0.47011156      -0.73365139      -0.70678900       0.36691245      -0.37113742      -8.71216302
Si       8.63026261       4.98454024       5.94776172      -0.73813905       0.66288518      -0.82155855       0.30949681      -0.02877830       0.35383583      -8.60402586
Si      10.52421342       6.08653781       9.08061445       1.12360503       0.06088769       0.64739119      -0.13044688       0.17336996       0.27283081      -8.68859079
Si       8.58822645       7.21269740       2.89114057      -0.46443214      -0.50277790       0.54005060       0.15036507       0.05222385      -0.12481804      -8.69907781
Si      10.57502610       8.36617163       5.94010134      -0.96961691       0.34796451      -0.05338008      -0.76890025      -0.26910569       0.13561221      -8.74580951
Si      12.54495192       9.47909825       9.02846330       0.12651198      -0.00998871       0.04288549      -0.26311838      -0.44993259      -0.15481813      -8.72895227
Si      10.61055481      10.47500545       2.92599114      -0.16933443       1.07981642      -0.35020223       0.53345495       0.53109713      -0.53875722      -8.68208557
Si      12.55395667      11.63540857       5.93249425       1.41809674       0.26776161       0.74903214      -0.37441938      -0.25274209       0.36326902      -8.71144582
Si      15.03010237      12.29283054       8.92206835       0.02781898       1.06703314       0.52114770       0.05177930      -0.20720308      -0.15059838      -7.90505345
Si      10.47715955       3.93816342       2.71247252       1.35196732      -0.47841746       0.15260486       0.59910864      -0.16881218       0.19658842      -8.71450551
Si      12.41524422       4.98793619       5.87589810       1.01396304       0.17851900      -1.03212688       0.00431720       0.14802925      -0.23029648      -8.73003833
Si      14.41309996       6.10904232       8.96509248       0.03963306      -0.33236433       1.00671085      -0.54373127      -0.14867064       0.04041076      -8.72844067
Si      12.57292475       7.27841019       2.72466487       0.46084646      -0.90662878       0.14889812      -0.95027683      -0.85131751      -0.26407184      -8.71059763
Si      14.39289079       8.21873223       5.82988209      -1.52157749       0.33601266      -0.11989103       0.01385458       0.49538074       0.61785144      -8.74465959
Si      16.35670859       9.45633991       9.13640758       0.16413649      -0.65094197       0.40594908       0.26425588      -0.13610725      -1.11927492      -8.66167228
Si      14.39839002      10.55837894       2.70707596       0.06751487       0.12924571       0.61012540       0.07755665       0.19030299       0.50419019      -8.71657312
Si      16.38832170      11.63225681       5.76070293       0.49296165       0.06834581       0.64321856       0.21176105      -0.95676035       0.14188141      -8.68519961
Si      18.25933312      12.75852064       8.92816059       1.75433515       0.05363192       0.43815244      -0.06896694       0.55700723       0.19659528      -8.66717866
Si      14.37767919       3.89378325       2.89990021      -0.83037877      -0.02861970       0.01052134       0.61184127      -0.67525050      -0.98730723      -8.72817580
Si      16.47273598       4.94976972       5.95715297      -0.12070888       1.50300319       0.59425611      -0.69211130       0.46448840      -0.27537782      -8.67354303
Si      18.19190736       6.24601049       8.97955088      -0.57442155      -0.11296063      -0.58876850       0.09606356       0.28086274       1.60256915      -8.62033538
Si      16.35320732       7.22718890       2.78881199      -1.04109372      -0.02964517      -0.36058625      -0.63480699      -0.35952750       0.01035990      -8.75353241
Si      18.17787146       8.43190929       5.89827089       1.36595485      -0.86702062      -0.30850366       1.06466039      -0.26009703      -0.07327296      -8.73709655
Si      20.21810712       9.43417458       9.04234472       0.30262623       0.02471807      -0.92065255       0.02795747       0.41109095       0.09283518      -8.73416526
Si      18.27788188      10.55557536       2.74092515       1.03403933       0.48863507      -0.81739106       0.01176246       0.13844311       0.92765334      -8.68840510
Si      20.24516649      11.72140250       5.82853599       0.04792250       0.34015468      -0.29837451      -0.54877857      -0.13103639       0.99329636      -8.74796897
Si      22.02835659      12.75075222       9.13565266      -0.95366322      -0.83532478      -0.23025083       0.19860652      -0.74870843      -0.51693252      -8.68850432
Si       0.63686454       0.71895653       0.52699486      -0.22377539      -0.54237535       0.75471983       0.41585506       0.41720715      -1.23431568      -8.26811637
Si       2.91286217       1.59242470       3.56156226       0.28612656       0.76668629       0.66904959      -0.29356321       0.62249210      -0.68316371      -8.71019738
Si       4.81989939       2.72724252       6.74126440      -0.95661402      -0.00535038       0.13359471       0.54048287       0.36288421       0.15088621      -8.73457414
Si       2.86972757       3.94384659       0.49674274       0.16140979       0.27362681       0.19172418      -0.45570015      -0.57349186      -0.09429165      -8.60333479
Si       4.76545010       5.01875048       3.56119832      -0.03423457       0.07085888       0.43411978       0.67406514      -0.34839117       0.51486127      -8.71477647
Si       6.79054779       6.23824084       6.71704813      -0.85815438      -0.60183134       1.09060834      -0.55651697      -0.58619785      -0.89926643      -8.63386084
Si       4.86133218       7.12244985       0.48043217      -1.20438083       0.72060350      -0.10035041      -0.56083869       0.93170718      -0.59311271      -8.69013220
Si       6.63879275       8.34937906       3.55143056      -0.17245067      -1.24376348       0.24061438       0.62245381       0.28435653       0.18089369      -8.72094771
Si       8.60629894       9.54376767       6.68423126       1.09539902       0.34898220       0.29136806       0.24634877      -0.58292710      -0.15884765      -8.69286101
Si       4.87062374       0.54045742       0.55167271      -0.06027465      -0.01130370      -1.12525693       0.39056267      -0.13680502      -0.46265315      -8.51877072
Si       6.79874703       1.76616954       3.61153033      -0.39814239       0.00147858      -0.80022380      -0.52763472      -1.05399324      -0.48822056      -8.70070756
Si       8.77090541       2.63451974       6.59450320       0.18141054      -1.02573805       1.20046749      -0.36163823       0.80785334       0.61000420      -8.53765564
Si       6.71591368       3.92711008       0.30727500      -0.61828648      -1.60998538      -0.84052208       0.15643767      -0.48588276       0.64911367      -8.67525763
Si       8.57504357       4.97902546       3.58035141      -0.69362038       0.27747813       0.59004995       0.19488254       0.18569310       0.07904255      -8.72210197
Si      10.53080665       6.15148706       6.75290455      -0.14732706       0.19870446      -0.87784047       0.12506934      -0.38836309      -0.50051014      -8.68539131
Si       8.66701574       7.04065240       0.55888780       0.60798137      -1.02853755       0.08398430      -0.22162482       0.42240809       0.19972494      -8.61213279
Si      10.58636100       8.24412050       3.60004235      -0.90287021       0.00408131       0.09546814       0.21845627       0.10475859      -0.01767738      -8.72671147
Si      12.50522380       9.37063046       6.68639679      -0.89853540       0.51108303      -1.65091990       0.53689255       0.57803721      -0.22046611      -8.72229577
Si       8.58642436       0.55105911       0.38227426       0.07537422       0.49203742       0.03386856      -0.18739425       0.24900422      -0.26779948      -8.73140765
Si      10.56670946       1.69734815       3.46063470      -0.10855263      -0.39006233       0.07377464      -0.09399774      -0.16889042      -0.40647161      -8.70499252
Si      12.45172240       2.74606579       6.57146181       0.41628789       0.76449292      -0.50211641       0.60855675       0.31551723       0.27577547      -8.73119537
Si      10.45203358       3.92829888       0.38202936       0.80549874      -0.69610134       0.17103072       0.55557257      -0.15352070      -0.02565534      -8.68450324
Si      12.48314659       5.00034297       3.48677338      -0.30025162       0.11745990       0.38133217      -0.87351286       0.62421282       0.48450335      -8.70759220
Si      14.39352069       6.02507591       6.61161424       0.14745736       0.49053276       0.27100755       0.60648116      -0.28261252       0.09818052      -8.71794728
Si      12.52342449       7.28580055       0.34681633       0.73530685      -1.06918463       0.10237666       0.12278428      -0.55359475       0.48457603      -8.71492440
Si      14.41075733       8.34170484       3.52237487       0.50414295       0.61826987      -0.64971122       0.60698620       0.41285107      -0.14489021      -8.74967890
Si      16.27719804       9.39990993       6.68035196       0.08330230      -0.66513989       1.03443308      -0.56693775       0.68455489       0.49506403      -8.62177728
Si       8.31872598       4.28503096       8.62137500      -0.54390747       0.90896117      -1.17225728      -0.46702427       0.14597349       0.33159953      -7.63795855
55
Lattice="11.5478352 0.0 0.0 5.773917198490155 10.000722372470358 0.0 5.773916394327279 3.333571176804646 9.428767828939895" Properties=species:S:1:pos:R:3:momenta:R:3:forces:R:3:energies:R:1 spacegroup="_JSON {\"number\": 1, \"setting\": 1}" unit_cell=conventional occupancy="_JSON {\"0\": {\"Si\": 1.0}, \"1\": {\"Si\": 1.0}, \"2\": {\"Si\": 1.0}, \"3\": {\"Si\": 1.0}, \"4\": {\"Si\": 1.0}, \"5\": {\"Si\": 1.0}, \"6\": {\"Si\": 1.0}, \"7\": {\"Si\": 1.0}, \"8\": {\"Si\": 1.0}, \"9\": {\"Si\": 1.0}, \"10\": {\"Si\": 1.0}, \"11\": {\"Si\": 1.0}, \"12\": {\"Si\": 1.0}, \"13\": {\"Si\": 1.0}, \"14\": {\"Si\": 1.0}, \"15\": {\"Si\": 1.0}, \"16\": {\"Si\": 1.0}, \"17\": {\"Si\": 1.0}, \"18\": {\"Si\": 1.0}, \"19\": {\"Si\": 1.0}, \"20\": {\"Si\": 1.0}, \"21\": {\"Si\": 1.0}, \"22\": {\"Si\": 1.0}, \"23\": {\"Si\": 1.0}, \"24\": {\"Si\": 1.0}, \"25\": {\"Si\": 1.0}, \"26\": {\"Si\": 1.0}, \"27\": {\"Si\": 1.0}, \"28\": {\"Si\": 1.0}, \"29\": {\"Si\": 1.0}, \"30\": {\"Si\": 1.0}, \"31\": {\"Si\": 1.0}, \"32\": {\"Si\": 1.0}, \"33\": {\"Si\": 1.0}, \"34\": {\"Si\": 1.0}, \"35\": {\"Si\": 1.0}, \"36\": {\"Si\": 1.0}, \"37\": {\"Si\": 1.0}, \"38\": {\"Si\": 1.0}, \"39\": {\"Si\": 1.0}, \"40\": {\"Si\": 1.0}, \"41\": {\"Si\": 1.0}, \"42\": {\"Si\": 1.0}, \"43\": {\"Si\": 1.0}, \"44\": {\"Si\": 1.0}, \"45\": {\"Si\": 1.0}, \"46\": {\"Si\": 1.0}, \"47\": {\"Si\": 1.0}, \"48\": {\"Si\": 1.0}, \"49\": {\"Si\": 1.0}, \"50\": {\"Si\": 1.0}, \"51\": {\"Si\": 1.0}, \"52\": {\"Si\": 1.0}, \"53\": {\"Si\": 1.0}, \"54\": {\"Si\": 1.0}}" energy=-476.07362948226034 stress="-0.01296647460096767 0.00290701151117669 0.0010194426254775003 0.00290701151117669 -0.011051415072339943 -0.0014752955274729609 0.0010194426254775003 -0.0014752955274729609 -0.006533209774856286" free_energy=-476.07362948226034 pbc="T T T"
Si       6.68187751       3.93050018       2.66886729      -1.10262492       0.61285972      -0.92954086      -0.10237685      -0.25035928       0.24845584      -8.70880687
Si       8.60346310       5.01160679       5.92671004      -0.28913772       0.24950070       0.13895007       0.28663493      -0.49833010       0.79897893      -8.57921838
Si      10.56564693       6.09246511       9.11117956       0.21937172       0.06619335       0.24881538      -1.01995897      -0.20081316      -0.76685374      -8.66895951
Si       8.57216695       7.18956869       2.90972813      -0.08421056      -0.34524220       0.08951370       0.38938717       0.17921333      -0.42732847      -8.73317364
Si      10.50408860       8.37298556       5.93856225      -1.44528574      -0.10899521      -0.09278274       0.36531545      -0.35094441      -0.21111443      -8.76855965
Si      12.53580024       9.45915607       9.02051299      -0.54324882      -0.74198784      -0.39028143      -0.51320027      -0.40176721      -0.32318151      -8.66209546
Si      10.61888722      10.54136302       2.88483601       0.36289627       1.21265213      -1.23789280       0.04015418      -0.39953059      -0.59905195      -8.70152069
Si      12.60021636      11.64361473       5.97325173       0.14519081       0.15888593       0.56216257      -1.12679747       0.20307142      -0.57379309      -8.68881916
Si      15.02683478      12.33242560       8.94835427      -0.26947974       0.33123563       0.56320840      -0.39792360      -0.62502631       0.17755695      -7.96445121
Si      10.55562493       3.91004762       2.73098482       1.32350295      -0.53489940       0.57447285      -0.63855744       0.06038225       0.27703934      -8.68758270
Si      12.46390100       5.00585034       5.82207181       0.77115980       0.54231736      -0.80781626      -0.26950670       0.28699691       0.59804024      -8.73964481
Si      14.39927863       6.08901441       9.01258379      -0.41733061      -0.35264338       0.67941323       0.04208730       0.15594229      -0.44315158      -8.72649481
Si      12.56157871       7.21087102       2.72561238      -0.80000788      -1.34623011      -0.02843976      -0.58821940       0.40893935       0.05629601      -8.70767994
Si      14.32402554       8.25447561       5.84283481      -0.88400005       0.96641363       0.49969196       0.86317854       0.25566621       0.17131308      -8.72976495
Si      16.37718820       9.41743721       9.11791832       0.59794570      -0.79279157      -0.96751249       0.18728401       0.02071229      -0.53201992      -8.71498806
Si      14.40293932      10.57420274       2.74787625       0.06606337       0.48963036       0.71477143      -0.07660067       0.24229206      -0.38367332      -8.73638532
Si      16.42026907      11.60052928       5.79848819       0.66259235      -1.15278699       0.77635833      -0.02594094      -0.45536335       0.05261623      -8.68370076
Si      18.34057859      12.77522526       8.95505429       1.18502902       0.40184947       0.52136838      -0.67373942      -0.14632286      -0.06300699      -8.65236917
Si      14.35957979       3.87482450       2.86750695       0.10685918      -0.44972296      -1.09701791       0.48810720       0.27455749      -0.39732880      -8.73029921
Si      16.43807037       5.03301021       5.97700939      -1.18618090       1.37843557       0.14617533      -0.60991573      -0.67631323      -0.33513035      -8.71923778
Si      18.17252029       6.24671659       9.01426207      -0.02606907       0.05472012       1.77007585       0.62788254      -0.05849924       1.02548849      -8.59981989
Si      16.28471099       7.21195365       2.77224141      -1.29634431      -0.52558087      -0.24405322       0.42291122      -0.25329218       0.11219015      -8.75958508
Si      18.27621737       8.38254843       5.88846982       2.04745429      -0.89357116       0.09063687      -0.25242964       0.20888602       0.51277407      -8.70964390
Si      20.23413328       9.44590636       9.00348936       0.27888723       0.28324195      -0.45798467      -0.08818857      -0.13276567       0.48114023      -8.74656338
Si      18.32830166      10.57786554       2.74251611       0.77420507       0.21702895       0.85307907      -0.43118366      -0.43080751       0.81809925      -8.66511060
Si      20.22756534      11.73218628       5.85131788      -0.62192965       0.04031238       1.06172423      -0.15482782      -0.24231700       0.56543679      -8.75978121
Si      21.98978863      12.69200785       9.10728021      -0.46245357      -1.04896167      -0.78116973       0.41046895       0.64231180      -0.23744997      -8.71287938
Si       0.63719096       0.70349275       0.51067207       0.15418924      -0.14424528      -1.32703071       0.09205334       0.03420735      -1.01418553      -8.25220828
Si       2.91725889       1.65232794       3.56671477      -0.06850895       1.38147113      -0.43336074      -0.09728851       0.07576281      -0.51957602      -8.75379811
Si       4.79861764       2.74487465       6.75012512       0.22801564       0.71303501       0.11346100       0.84521956       0.48752013      -0.20653354      -8.69360487
Si       2.86282163       3.93585040       0.49864162      -0.35047999      -0.53202378      -0.20407443      -0.15729695      -0.38496999      -0.41683929      -8.58784120
Si       4.78177580       5.01014949       3.59856839       0.46449798      -0.36046301       0.84616380      -0.08040508      -0.18928782      -0.05549840      -8.72205019
Si       6.73270111       6.19092827       6.73448352      -1.15555186      -1.03817080      -0.35764291       0.19970948       0.06374247      -0.62373054      -8.64563639
Si       4.78826775       7.18454251       0.45307124      -1.32661013       1.34827448      -0.86307414       0.43833724      -0.25099119      -0.26640182      -8.72743888
Si       6.64859984       8.30278102       3.56361532       0.40686648      -0.42955404       0.09410442       0.08249643       0.68882839      -0.31325626      -8.70930469
Si       8.66409984       9.54206367       6.68857732       0.90115310      -0.33431245      -0.17110618      -0.56422191      -0.26075450      -0.32289728      -8.72909922
Si       4.88793044       0.53566432       0.48181939       0.79228225      -0.13949407      -1.39060255       0.65443132      -0.01773786       0.11618765      -8.55291064
Si       6.76139306       1.73459900       3.56201881      -0.91539573      -0.95617585      -0.86536187      -0.08217391      -0.07376623       0.38214429      -8.71615925
Si       8.77506778       2.61843665       6.67599010       0.14035108       0.46037954       1.74063433       0.25081674       0.97468013      -0.05347687      -8.54772212
Si       6.69652066       3.84231337       0.29154864      -0.01406392      -1.25674502       0.27633537       0.54370819       0.92704913       0.76159198      -8.71961073
Si       8.55293049       4.99115085       3.60332900      -0.06012292       0.00060291       0.09443874       0.54205773      -0.52597071      -0.65160631      -8.69130886
Si      10.53008094       6.14616099       6.69670514       0.15519873      -0.38747958      -1.06431184       0.25515466      -0.32257474       0.28169424      -8.64500239
Si       8.68920195       7.00916181       0.56977336       0.21946802      -0.11898225       0.26658151      -0.29111174       0.61682836      -0.05828945      -8.63929987
Si      10.55161172       8.25286723       3.60038045      -0.36800803       0.41075484      -0.15333801       0.42688675       0.41137697      -0.29337949      -8.67804204
Si      12.47555629       9.41663896       6.60547458      -0.35598121       1.11868926      -1.16507960       0.06035282       0.08321195       0.83142393      -8.74197158
Si       8.58954763       0.58195742       0.38273512       0.18719255       0.56736347       0.15826336       0.35881288      -0.21410956       0.40230801      -8.72464473
Si      10.56400928       1.67057738       3.45490697       0.13280082      -0.60849908      -0.13835683       0.39709050      -0.07946338       0.19362878      -8.71957033
Si      12.49432322       2.79453415       6.56129659       1.07818648       0.98284049       0.20357621       0.09388091      -0.07844050       0.61621239      -8.74026217
Si      10.50706112       3.88949817       0.39318908       1.05701330      -0.68133024       0.32677886      -0.36630412       0.24701853       0.25569222      -8.67726687
Si      12.44361031       5.02487385       3.51926628      -0.92693328       0.63518381       0.69560203       0.20552508      -0.08299919      -0.14539672      -8.76867658
Si      14.41929006       6.04402315       6.63203440       0.66538634       0.34415031       0.53672834      -0.06832396       0.15901268       0.21053361      -8.72275582
Si      12.56245863       7.21675683       0.36665964       0.64740401      -1.36417674       0.53780736      -0.28800223       0.22255359       0.02949411      -8.70931791
Si      14.44831159       8.38283096       3.49056201       0.62505081       0.77194828      -0.40014523      -0.55335858      -0.27156045       0.48543068      -8.75300359
Si      16.26788967       9.38636327       6.74230268      -0.24710660       0.02472602       1.06701967       0.16880139       0.19644196      -0.52358583      -8.63097291
Si       8.27193711       4.33464831       8.57297830      -1.17914841       0.88036872      -0.67993575      -0.22089237      -0.25212766       0.29596994      -7.61701375
55
Lattice="11.5478352 0.0 0.0 5.773917198490155 10.000722372470358 0.0 5.773916394327279 3.333571176804646 9.428767828939895" Properties=species:S:1:pos:R:3:momenta:R:3:forces:R:3:energies:R:1 spacegroup="_JSON {\"number\": 1, \"setting\": 1}" unit_cell=conventional occupancy="_JSON {\"0\": {\"Si\": 1.0}, \"1\": {\"Si\": 1.0}, \"2\": {\"Si\": 1.0}, \"3\": {\"Si\": 1.0}, \"4\": {\"Si\": 1.0}, \"5\": {\"Si\": 1.0}, \"6\": {\"Si\": 1.0}, \"7\": {\"Si\": 1.0}, \"8\": {\"Si\": 1.0}, \"9\": {\"Si\": 1.0}, \"10\": {\"Si\": 1.0}, \"11\": {\"Si\": 1.0}, \"12\": {\"Si\": 1.0}, \"13\": {\"Si\": 1.0}, \"14\": {\"Si\": 1.0}, \"15\": {\"Si\": 1.0}, \"16\": {\"Si\": 1.0}, \"17\": {\"Si\": 1.0}, \"18\": {\"Si\": 1.0}, \"19\": {\"Si\": 1.0}, \"20\": {\"Si\": 1.0}, \"21\": {\"Si\": 1.0}, \"22\": {\"Si\": 1.0}, \"23\": {\"Si\": 1.0}, \"24\": {\"Si\": 1.0}, \"25\": {\"Si\": 1.0}, \"26\": {\"Si\": 1.0}, \"27\": {\"Si\": 1.0}, \"28\": {\"Si\": 1.0}, \"29\": {\"Si\": 1.0}, \"30\": {\"Si\": 1.0}, \"31\": {\"Si\": 1.0}, \"32\": {\"Si\": 1.0}, \"33\": {\"Si\": 1.0}, \"34\": {\"Si\": 1.0}, \"35\": {\"Si\": 1.0}, \"36\": {\"Si\": 1.0}, \"37\": {\"Si\": 1.0}, \"38\": {\"Si\": 1.0}, \"39\": {\"Si\": 1.0}, \"40\": {\"Si\": 1.0}, \"41\": {\"Si\": 1.0}, \"42\": {\"Si\": 1.0}, \"43\": {\"Si\": 1.0}, \"44\": {\"Si\": 1.0}, \"45\": {\"Si\": 1.0}, \"46\": {\"Si\": 1.0}, \"47\": {\"Si\": 1.0}, \"48\": {\"Si\": 1.0}, \"49\": {\"Si\": 1.0}, \"50\": {\"Si\": 1.0}, \"51\": {\"Si\": 1.0}, \"52\": {\"Si\": 1.0}, \"53\": {\"Si\": 1.0}, \"54\": {\"Si\": 1.0}}" energy=-475.7005923545695 stress="-0.01410386573597941 0.004235520126866518 0.003064511547832792 0.004235520126866518 -0.013381688082532494 -0.0004983387630952059 0.003064511547832792 -0.0004983387630952059 -0.00483235308366146" free_energy=-475.7005923545695 pbc="T T T"
Si       6.63061534       3.94594145       2.64017479      -0.65607984      -0.13355347       0.03344662       0.65342086      -0.66725124       1.00391627      -8.68911499
Si       8.59845401       5.00293035       5.95981506       0.08815603      -0.59805152       0.96283893       0.24062080      -0.54849677       0.16760227      -8.60637966
Si      10.53926689       6.08570306       9.08932649      -1.08257952      -0.33515419      -1.11150114      -0.45686771      -0.24755740      -0.86569233      -8.66280849
Si       8.58461374       7.17895991       2.89862035       0.56656908      -0.05951102      -0.47320754       0.40627318       0.17130708      -0.26762291      -8.75665076
Si      10.45877877       8.35288591       5.92107562      -0.03358181      -0.64737256      -0.63222112       1.29583452      -0.28711688      -0.42113574      -8.73741434
Si      12.49111152       9.41139783       8.99072263      -1.05385101      -0.91850018      -0.65240211      -0.09375099       0.22458469       0.04506810      -8.62913911
Si      10.62933143      10.58168391       2.79820940      -0.13111568       0.21912311      -1.98679395      -0.58582610      -0.78893789      -0.26927604      -8.70842715
Si      12.57076066      11.66881860       5.97630290      -1.06490042       0.93348595      -0.47421748      -0.32747269       0.67942335      -0.67519573      -8.68191793
Si      14.99652275      12.33230243       8.98788303      -0.85718342      -0.14530238       0.97012420      -0.28100631       0.12250307       0.26419883      -8.00831398
Si      10.59193033       3.88401244       2.76969912      -0.04325498      -0.46913649       0.85040024      -1.02200960       0.01795652       0.07662241      -8.69372075
Si      12.49539252       5.04382612       5.81066287       0.45928818       0.83985548       0.47123286      -0.15599924       0.02355570       0.95361311      -8.73278547
Si      14.38780879       6.07938113       9.03068992       0.11127462       0.01992890       0.04346820       0.53677406       0.28574780      -0.30027823      -8.71606183
Si      12.50478677       7.17064884       2.72928106      -1.21429078       0.03437854       0.20399376       0.01547444       1.24504692       0.19675108      -8.70190815
Si      14.31566841       8.31082298       5.87104729       0.58790888       1.10591442       0.50643472       0.92105280      -0.04192629      -0.10447977      -8.71797137
Si      16.41025955       9.38015801       9.06134200       0.54317578      -0.55232965      -0.90066121      -0.28037368       0.31395999       0.58027977      -8.72272560
Si      14.40306113      10.60688458       2.76560892      -0.04759773       0.68083298      -0.06226739      -0.01872823      -0.05697406      -0.46031762      -8.74769590
Si      16.45213806      11.53661341       5.84138287       0.52362547      -0.98692601       0.84443293      -0.13994644       0.70468813      -0.00651500      -8.64409365
Si      18.37725299      12.78334694       8.97968813       0.28068677      -0.20179065       0.42523970      -0.39448773      -0.57320472      -0.03471806      -8.65264830
Si      14.37769936       3.87507696       2.80296814       0.47052980       0.64775573      -1.20845165       0.03618710       0.97834762       0.21629918      -8.70583012
Si      16.35993121       5.07042917       5.97193328      -1.59704230      -0.05793596      -0.32186752       0.15070089      -1.05880395      -0.25315520      -8.74533506
Si      18.19605048       6.24411806       9.12210751       0.83894130      -0.19206487       1.88014520       0.26641456      -0.20460434      -0.76792684      -8.56534827
Si      16.24320772       7.17859390       2.76279952      -0.15277368      -0.63581524      -0.12975606       0.92900102       0.18694732       0.06242973      -8.72971506
Si      18.35981248       8.34519138       5.91103445       0.87773037      -0.51576347       0.66422080      -1.26918176       0.26938482       0.10075030      -8.65855165
Si      20.24333550       9.44853894       8.99690992       0.03067659      -0.29292729       0.15580697      -0.24469161      -0.55049547       0.27927937      -8.72440883
Si      18.34823022      10.57078368       2.79915910      -0.05257355      -0.48469853       0.92724068      -0.56044007      -0.40832447      -0.65350639      -8.67737956
Si      20.20137595      11.72656235       5.91443720      -0.13801695      -0.20154761       1.06279103       0.75271102      -0.02961273      -0.53060033      -8.73339368
Si      21.98076400      12.67828382       9.05859381       0.10747203       0.73132819      -1.02887326       0.36048728       1.38509599      -0.03886208      -8.69816054
Si       0.64490288       0.68947966       0.42599921       0.06484733      -0.52068493      -1.41062312      -0.19225348      -0.46065845       0.89051731      -8.21464244
Si       2.91460591       1.71788737       3.53629990       0.03688135       0.92254513      -0.49886491       0.16630798      -0.67092005       0.35339644      -8.75836115
Si       4.83487699       2.79714835       6.74366134       0.93703057       1.17231988      -0.42756862      -0.01047622       0.06350991      -0.45874318      -8.69596611
Si       2.84511615       3.90029474       0.47079844      -0.18103545      -0.66486715      -0.83963372       0.40371910       0.23883106      -0.33497081      -8.62074212
Si       4.79382472       4.98757149       3.63237616      -0.14640989      -0.42114618       0.28605386      -0.61950038       0.12325884      -0.65930387      -8.71591559
Si       6.68636548       6.14585750       6.70965091      -0.51821099      -0.57521465      -0.27313891       0.55017931       0.46167700       0.59886757      -8.60232350
Si       4.74438650       7.23021573       0.40683615      -0.20759746       0.16824002      -0.72855209       0.96479027      -1.08635080       0.38520340      -8.71291183
Si       6.66718728       8.30381411       3.55704354       0.22188909       0.36821562      -0.28728177      -0.22995095       0.27718349      -0.09229255      -8.70466596
Si       8.68283654       9.52038614       6.67297577      -0.24919176      -0.39900048      -0.28887183      -0.77325289       0.09286673       0.18917587      -8.75101506
Si       4.95113758       0.52824958       0.41651483       1.47861041      -0.14279939      -1.05001437       0.09833926      -0.01020103       0.30826825      -8.59684936
Si       6.71715374       1.69550189       3.53690317      -0.65048467      -0.30923054      -0.02723955       0.37367773       0.78879160       0.61981224      -8.69076755
Si       8.79225884       2.67042281       6.75324758       0.46317771       1.27363939       0.96671504       0.06143941      -0.00766884      -0.96314081      -8.56340120
Si       6.71018190       3.81767734       0.32918328       0.33778126       0.32609682       0.98179832      -0.20723096       0.94753833       0.06421141      -8.74585684
Si       8.56859467       4.96747680       3.58359237       0.58785994      -0.90608004      -0.76697973       0.25943106      -0.52094152      -0.33271865      -8.65834897
Si      10.54699469       6.11770134       6.65798638       0.44133850      -0.59958660      -0.32166448       0.06040648       0.06167362       0.62226456      -8.64644584
Si       8.68932877       7.01850980       0.57450424      -0.22473155       0.27800987      -0.21839759      -0.32486426      -0.15593448      -0.56072901      -8.63322837
Si      10.54651602       8.29126701       3.57921207       0.11554115       1.03820645      -0.67239056       0.19240210       0.34351249      -0.35923665      -8.67502556
Si      12.45091266       9.46894876       6.58154445      -0.68152911       0.70312348       0.29516258      -0.30812530      -0.57090617       0.97195050      -8.74151231
Si       8.61662323       0.59804637       0.40909840       0.84535906      -0.02978095       0.82361275       0.34805520      -0.49418688       0.29905764      -8.70755448
Si      10.58841526       1.63746450       3.46319121       0.78207786      -0.61087921       0.58140626       0.32092064       0.08956567       0.67971070      -8.72527677
Si      12.54344693       2.83892235       6.59595160       0.59440390       0.63177629       1.08633672      -0.66787437      -0.38362677       0.47602577      -8.73301773
Si      10.53696445       3.86849334       0.42329009      -0.07001252      -0.04418143       0.84222047      -0.93065126       0.52232347       0.32591220      -8.64322584
Si      12.41581506       5.04466765       3.54338594       0.05655366      -0.03455961       0.13303527       0.93443178      -0.66613936      -0.49078267      -8.74161748
Si      14.43901389       6.07627702       6.66795038      -0.12560740       1.01460167       0.80221724      -0.86305537       0.64428535       0.08162725      -8.71481074
Si      12.58092214       7.16102906       0.39007940      -0.01384503      -0.63680816       0.25952949      -0.55068280       0.70088720      -0.33808385      -8.68522174
Si      14.44944978       8.40650952       3.49184616      -0.69275530       0.03794755       0.46441683      -0.97057092      -0.62830658       0.52948735      -8.71453424
Si      16.26908014       9.38807072       6.76777779       0.41590352      -0.08825644      -0.24767689       0.65335510      -0.30773280      -1.08632752      -8.64393087
Si       8.21024606       4.36663892       8.54458391      -0.97903740       0.26413139      -0.48320309       0.52686337      -0.53757378      -0.01668703      -7.61552251
55
Lattice="11.5478352 0.0 0.0 5.773917198490155 10.000722372470358 0.0 5.773916394327279 3.333571176804646 9.428767828939895" Properties=species:S:1:pos:R:3:momenta:R:3:forces:R:3:energies:R:1 spacegroup="_JSON {\"number\": 1, \"setting\": 1}" unit_cell=conventional occupancy="_JSON {\"0\": {\"Si\": 1.0}, \"1\": {\"Si\": 1.0}, \"2\": {\"Si\": 1.0}, \"3\": {\"Si\": 1.0}, \"4\": {\"Si\": 1.0}, \"5\": {\"Si\": 1.0}, \"6\": {\"Si\": 1.0}, \"7\": {\"Si\": 1.0}, \"8\": {\"Si\": 1.0}, \"9\": {\"Si\": 1.0}, \"10\": {\"Si\": 1.0}, \"11\": {\"Si\": 1.0}, \"12\": {\"Si\": 1.0}, \"13\": {\"Si\": 1.0}, \"14\": {\"Si\": 1.0}, \"15\": {\"Si\": 1.0}, \"16\": {\"Si\": 1.0}, \"17\": {\"Si\": 1.0}, \"18\": {\"Si\": 1.0}, \"19\": {\"Si\": 1.0}, \"20\": {\"Si\": 1.0}, \"21\": {\"Si\": 1.0}, \"22\": {\"Si\": 1.0}, \"23\": {\"Si\": 1.0}, \"24\": {\"Si\": 1.0}, \"25\": {\"Si\": 1.0}, \"26\": {\"Si\": 1.0}, \"27\": {\"Si\": 1.0}, \"28\": {\"Si\": 1.0}, \"29\": {\"Si\": 1.0}, \"30\": {\"Si\": 1.0}, \"31\": {\"Si\": 1.0}, \"32\": {\"Si\": 1.0}, \"33\": {\"Si\": 1.0}, \"34\": {\"Si\": 1.0}, \"35\": {\"Si\": 1.0}, \"36\": {\"Si\": 1.0}, \"37\": {\"Si\": 1.0}, \"38\": {\"Si\": 1.0}, \"39\": {\"Si\": 1.0}, \"40\": {\"Si\": 1.0}, \"41\": {\"Si\": 1.0}, \"42\": {\"Si\": 1.0}, \"43\": {\"Si\": 1.0}, \"44\": {\"Si\": 1.0}, \"45\": {\"Si\": 1.0}, \"46\": {\"Si\": 1.0}, \"47\": {\"Si\": 1.0}, \"48\": {\"Si\": 1.0}, \"49\": {\"Si\": 1.0}, \"50\": {\"Si\": 1.0}, \"51\": {\"Si\": 1.0}, \"52\": {\"Si\": 1.0}, \"53\": {\"Si\": 1.0}, \"54\": {\"Si\": 1.0}}" energy=-476.1573976679267 stress="-0.012505922805246213 0.0044480174051954955 0.0037038504183538514 0.0044480174051954955 -0.011743740893878639 -0.0002221287622429321 0.0037038504183538514 -0.0002221287622429321 -0.006019783023383432" free_energy=-476.1573976679267 pbc="T T T"
Si       6.62337998       3.91469085       2.68248556       0.36411143      -0.97136491       1.52260467       0.57549807      -0.30750700       0.74858418      -8.72932235
Si       8.61214041       4.95599236       6.00623906       0.42046221      -1.02889809       0.60747403       0.17889416       0.09457394      -0.61138932      -8.60140574
Si      10.47953151       6.06058843       9.00577477      -0.91711846      -0.57916947      -1.84786976       0.62580488      -0.07194729       0.03697958      -8.66269204
Si       8.62606734       7.17985390       2.86660501       0.90702986       0.03171074      -0.69299608      -0.01742067      -0.07261722      -0.05455860      -8.73480672
Si      10.50002503       8.31386687       5.87482827       1.37234571      -0.69731084      -1.03047662       0.38255168       0.26150103      -0.03071864      -8.74031552
Si      12.43802375       9.37818600       8.96446163      -0.85048102      -0.25025375      -0.22523149       0.37774699       0.59321833       0.51941205      -8.69324530
Si      10.60234610      10.56958351       2.69261826      -0.78774390      -0.48357130      -1.81269018      -0.16483417      -0.01430756       0.60650885      -8.72078172
Si      12.51564404      11.73781001       5.93155684      -0.78676424       1.48679742      -1.06746514       0.64535981      -0.13241020      -0.02151843      -8.68020412
Si      14.94498431      12.34133864       9.04474004      -1.01910976       0.66513021       1.07950759       0.06476813       0.77370413      -0.18546818      -8.00080624
Si      10.55832133       3.85827527       2.81605170      -0.99778630      -0.54711243       0.88509276      -0.06686497      -0.12005605      -0.05338412      -8.74419435
Si      12.51441224       5.08280928       5.86540550       0.26627194       0.51203731       1.42107279      -0.14777088      -0.49734441       0.18783258      -8.74504315
Si      14.41048586       6.08980897       9.02970078       0.61564651       0.33728785       0.09223982      -0.00064843       0.12754098       0.36454210      -8.72487273
Si      12.44604363       7.21456340       2.74637398      -0.93722457       1.41582033       0.39964694       0.36217349       0.35605673       0.00058699      -8.74630879
Si      14.37138277       8.36746240       5.89399522       1.27253244       1.05501710       0.37934636      -0.11319972      -0.04059785      -0.06727512      -8.73541030
Si      16.42341046       9.36498977       9.03963076      -0.12001059      -0.00566936       0.04749654      -0.57619693       0.38441463       0.48007273      -8.69952234
Si      14.40304785      10.63527784       2.75522839       0.10672044       0.29935453      -0.08366291       0.20563402      -0.45203923       0.50265699      -8.73511046
Si      16.47477939      11.52112090       5.88474552       0.34868187       0.50495210       0.79617159      -0.10164546       1.09870534      -0.04962199      -8.63363320
Si      18.38760039      12.75054305       9.00299370       0.31631264      -1.01274377       0.50305815       0.38388798      -0.41272248       0.11814835      -8.67924112
Si      14.40112155       3.93933951       2.75018763       0.38135221       1.54142015      -0.78534111      -0.12773764      -0.04483818       0.28052839      -8.74089591
Si      16.28779687       5.03692110       5.94828692      -1.08108710      -0.91976895      -0.51844822       0.43395495       0.12449937      -0.01888791      -8.74296245
Si      18.23408307       6.22727383       9.18373274       0.29554767      -0.42073255       0.39965194      -0.92479539      -0.08660455      -1.03459454      -8.53676176
Si      16.26578617       7.15953461       2.75894173       0.86392195       0.03509253      -0.00435777       0.33364434       0.66290957       0.10513394      -8.72508443
Si      18.35335025       8.32716444       5.94046341      -1.10472976      -0.19782473       0.28124888      -1.14265383       0.15423317      -0.58348707      -8.69404837
Si      20.23496566       9.41404061       9.01177271      -0.34101868      -0.91424828       0.33942208      -0.20281748      -0.11381555      -0.00564062      -8.73675238
Si      18.32976469      10.53521882       2.81445386      -0.51272787      -0.73664824      -0.42919732      -0.02173964       0.11546549      -0.96854675      -8.69959607
Si      20.22494470      11.71903860       5.94404009       0.98056942      -0.01648303       0.00791947       0.52235145       0.22496440      -0.75063937      -8.71463347
Si      21.99924963      12.75467942       9.00684414       0.56486492       1.76289836      -0.87025392       0.22378293      -0.23184933       0.23874776      -8.69978289
Si       0.64261567       0.64565958       0.39914046      -0.05193682      -1.04749894       0.54062064       0.19960345      -0.05622303       1.47158486      -8.18133173
Si       2.92123695       1.73906908       3.52505958       0.15780256      -0.08565555       0.03212366      -0.05641924      -0.55062424       0.20772139      -8.72400832
Si       4.87179915       2.85571505       6.70512462       0.26424344       0.94198432      -0.96448979      -0.80343293      -0.40587731      -0.14918894      -8.73144671
Si       2.85590086       3.88014706       0.41895107       0.62950052      -0.03800770      -1.01391225       0.52202926       0.47208677       0.14508076      -8.64306909
Si       4.76494645       4.97361293       3.62025101      -0.82862334      -0.04486733      -0.72673290      -0.11492490       0.38090889      -0.55635320      -8.73767275
Si       6.67669508       6.13010666       6.72205003       0.05244525      -0.12463250       0.74531967       0.16935997       0.07502815       0.59232785      -8.56331401
Si       4.76792587       7.20569439       0.38351486       0.97893236      -0.85433550      -0.19023707       0.44677837      -0.12342237       0.28069427      -8.72256699
Si       6.67212532       8.32384231       3.54399789       0.03161979       0.19457354      -0.11006305       0.02510461      -0.49755436       0.29284569      -8.70971228
Si       8.65046959       9.50055155       6.66798607      -0.73806298      -0.42696919       0.11006106       0.17561704      -0.16359746       0.23121359      -8.76135668
Si       5.02165042       0.52024313       0.37144705       1.00077577      -0.15476752      -0.70966246      -0.69950147       0.01618284       0.14099033      -8.59930143
Si       6.69547901       1.70697281       3.55321342      -0.24100828       0.60293307       0.47917537       0.13130603       0.21701019      -0.04406230      -8.72288722
Si       8.81435142       2.72282337       6.76423417       0.29574484       0.45365216      -0.53473536      -0.26768053      -1.05427027      -0.89677941      -8.54863211
Si       6.71146323       3.85956697       0.37401073      -0.38936923       1.00364239       0.59126889      -0.59644460      -0.10756040      -0.45427653      -8.70168556
Si       8.60309124       4.90831081       3.54069581       0.58384004      -1.13274862      -0.64985259      -0.30356601       0.33004796       0.52338128      -8.63836419
Si      10.56783443       6.09212194       6.66096732       0.26023791      -0.31714474       0.29522454      -0.29584402       0.28994981       0.05779625      -8.68109006
Si       8.66420979       7.01791250       0.53961375      -0.73252823      -0.42690742      -1.10198446      -0.30836473      -0.62642189      -0.51373209      -8.62108018
Si      10.55568367       8.35521561       3.53133834       0.14462610       1.29730424      -1.09637602      -0.16145738      -0.06412002      -0.12665377      -8.73495819
Si      12.40902939       9.48548532       6.62573658      -0.74693083       0.01904104       1.15846402       0.34017464      -0.21387252       0.05753856      -8.74287151
Si       8.66671529       0.58115430       0.45438201       0.88597888      -0.50270260       0.69498930      -0.34078430      -0.05936201      -0.49594133      -8.71415740
Si      10.63390786       1.61017795       3.51969863       0.77118020      -0.39955437       1.51011637      -0.37615716       0.20332616       0.41827061      -8.72666270
Si      12.54983465       2.85556062       6.66542779      -0.25776525      -0.02497514       1.40942321      -0.29753930      -0.47743599      -0.12740048      -8.72638859
Si      10.50533785       3.88304316       0.47634980      -0.91918469       0.50799188       1.08788918      -0.09090603       0.16832995      -0.03313737      -8.66007821
Si      12.45125560       5.02166225       3.53515445       1.13690258      -0.67893973      -0.33594382       0.29852088      -0.02554546      -0.05243971      -8.74020049
Si      14.40309021       6.15327604       6.70903389      -1.06254923       1.82255294       0.66492923      -0.15857972       0.25179952      -0.29369326      -8.74216789
Si      12.56045398       7.15465441       0.39190086      -0.70128428       0.35835415      -0.12864814      -0.28622657       0.54190455      -0.09295950      -8.69692831
Si      14.38355175       8.38608348       3.52966706      -1.59666978      -0.73817083       0.81348591      -0.08656022      -0.30690894      -0.10778327      -8.72615774
Si      16.31854711       9.36958717       6.71902959       1.47364836      -0.59460053      -1.39847936       0.63472516      -0.19974860      -0.24640553      -8.71597615
Si       8.18342802       4.36020322       8.51682497      -0.02213465      -0.47527046      -0.56593686       0.59344201      -0.38716012       0.01735740      -7.64589726
55
Lattice="11.5478352 0.0 0.0 5.773917198490155 10.000722372470358 0.0 5.773916394327279 3.333571176804646 9.428767828939895" Properties=species:S:1:pos:R:3:momenta:R:3:forces:R:3:energies:R:1 spacegroup="_JSON {\"number\": 1, \"setting\": 1}" unit_cell=conventional occupancy="_JSON {\"0\": {\"Si\": 1.0}, \"1\": {\"Si\": 1.0}, \"2\": {\"Si\": 1.0}, \"3\": {\"Si\": 1.0}, \"4\": {\"Si\": 1.0}, \"5\": {\"Si\": 1.0}, \"6\": {\"Si\": 1.0}, \"7\": {\"Si\": 1.0}, \"8\": {\"Si\": 1.0}, \"9\": {\"Si\": 1.0}, \"10\": {\"Si\": 1.0}, \"11\": {\"Si\": 1.0}, \"12\": {\"Si\": 1.0}, \"13\": {\"Si\": 1.0}, \"14\": {\"Si\": 1.0}, \"15\": {\"Si\": 1.0}, \"16\": {\"Si\": 1.0}, \"17\": {\"Si\": 1.0}, \"18\": {\"Si\": 1.0}, \"19\": {\"Si\": 1.0}, \"20\": {\"Si\": 1.0}, \"21\": {\"Si\": 1.0}, \"22\": {\"Si\": 1.0}, \"23\": {\"Si\": 1.0}, \"24\": {\"Si\": 1.0}, \"25\": {\"Si\": 1.0}, \"26\": {\"Si\": 1.0}, \"27\": {\"Si\": 1.0}, \"28\": {\"Si\": 1.0}, \"29\": {\"Si\": 1.0}, \"30\": {\"Si\": 1.0}, \"31\": {\"Si\": 1.0}, \"32\": {\"Si\": 1.0}, \"33\": {\"Si\": 1.0}, \"34\": {\"Si\": 1.0}, \"35\": {\"Si\": 1.0}, \"36\": {\"Si\": 1.0}, \"37\": {\"Si\": 1.0}, \"38\": {\"Si\": 1.0}, \"39\": {\"Si\": 1.0}, \"40\": {\"Si\": 1.0}, \"41\": {\"Si\": 1.0}, \"42\": {\"Si\": 1.0}, \"43\": {\"Si\": 1.0}, \"44\": {\"Si\": 1.0}, \"45\": {\"Si\": 1.0}, \"46\": {\"Si\": 1.0}, \"47\": {\"Si\": 1.0}, \"48\": {\"Si\": 1.0}, \"49\": {\"Si\": 1.0}, \"50\": {\"Si\": 1.0}, \"51\": {\"Si\": 1.0}, \"52\": {\"Si\": 1.0}, \"53\": {\"Si\": 1.0}, \"54\": {\"Si\": 1.0}}" energy=-475.6873904984655 stress="-0.013032658365189641 0.004828770822888044 0.00219577729008074 0.004828770822888044 -0.01172249248245962 -0.0003177353357429427 0.00219577729008074 -0.0003177353357429427 -0.007546516867090902" free_energy=-475.6873904984655 pbc="T T T"
Si       6.65639915       3.86346586       2.77690630       0.70675612      -0.72216730       1.75010712      -0.15838611       0.68945121      -0.52067614      -8.74247326
Si       8.63874134       4.91502739       6.01047801       0.52876848      -0.38331145      -0.47793954      -0.07979173       0.65899097      -0.71945849      -8.57487706
Si      10.46107936       6.02974479       8.92447676       0.27130730      -0.53371572      -0.98292424       0.84362379       0.17827523       1.05596755      -8.64066892
Si       8.66690328       7.17522968       2.82745809       0.53021607      -0.26681882      -0.81863249      -0.47991762      -0.29711748      -0.12241348      -8.68032604
Si      10.57223226       8.29182171       5.82454845       1.12117607      -0.07703615      -0.79449247      -0.63113135       0.52080647       0.32863312      -8.70978113
Si      12.41157974       9.38517035       8.97414899      -0.10810012       0.41289777       0.56715847       0.54770542       0.17758128       0.39502123      -8.76715478
Si      10.56155580      10.55635485       2.62829361      -0.64484477       0.19757925      -0.54064772       0.31864317       0.82297064       0.97338823      -8.69306821
Si      12.50264405      11.79887717       5.88428235       0.28157300       0.63538954      -0.56229459       0.58951829      -0.93201152       0.63725194      -8.65335364
Si      14.89541313      12.39839794       9.09091623      -0.84428346       1.23412363       0.63710743       0.17226297      -0.30177995      -0.35929255      -7.97973554
Si      10.51943787       3.82345666       2.85932923      -0.21780588      -0.77125482       0.74117546       0.94687990      -0.06577755      -0.13811693      -8.73169532
Si      12.52230578       5.08607565       5.93679483       0.03581325      -0.43768694       1.11254045      -0.13445312      -0.67367185      -0.54803180      -8.72633188
Si      14.43287323       6.11111866       9.05213790       0.05878781       0.45463044       0.76707173      -0.69121146       0.04414984       0.37726196      -8.71041896
Si      12.41235368       7.28481820       2.76233842      -0.33395885       0.92921455       0.10957051       0.40313829      -0.93409659      -0.37332507      -8.73548450
Si      14.42225367       8.42230760       5.91147284       0.48981136       1.04518328       0.27695252      -0.79323517      -0.00415768      -0.10286094      -8.72642524
Si      16.39528494       9.37743279       9.05091286      -0.89959583       0.42192223       0.19417912      -0.35435477       0.15075554      -0.25276369      -8.67441401
Si      14.41671631      10.63094618       2.77852900       0.39171971      -0.49751079       1.03683134       0.11501125      -0.57123487       0.73508155      -8.69715190
Si      16.49055083      11.58107027       5.92658038       0.28595289       1.52262430       0.82812970       0.03332451       0.08591515       0.05601200      -8.68379530
Si      18.42154629      12.68928564       9.03456470       0.95167742      -1.11601782       0.68237526       0.28017525       0.39633046       0.03979032      -8.69981749
Si      14.41629677       4.00034157       2.71508371       0.20039556       0.46246769      -0.63634734      -0.11628041      -1.27560163      -0.02835627      -8.74081370
Si      16.24488669       5.01258358       5.92055117      -0.59976996       0.30413686      -0.53815104       0.25962218       1.30781333      -0.00175878      -8.67060192
Si      18.21246185       6.20372398       9.17276397      -1.04212411      -0.43121269      -0.61738961      -0.62458297       0.09233523      -0.23511772      -8.57397436
Si      16.31410984       7.18694815       2.76198641       0.78253762       0.96210476       0.09193540      -0.43534413       0.46735908      -0.00679783      -8.71775106
Si      18.27006904       8.31811871       5.92893982      -1.58415550      -0.27641159      -0.75386511       0.75456343      -0.35473585      -0.69625680      -8.73513916
Si      20.21206767       9.37345992       9.02772121      -0.46764127      -0.39238691       0.23966539       0.04820681       0.80635875      -0.11972282      -8.74065883
Si      18.30682162      10.50546746       2.76477251      -0.29204730      -0.34273958      -1.14230689       0.25825169       0.32532615       0.32485112      -8.73161530
Si      20.28444635      11.72393195       5.92003922       1.01628784       0.09496473      -0.81283416      -0.54016493      -0.19705694      -0.31422284      -8.71555780
Si      22.03563689      12.81965172       8.97061763       0.79226935       0.43632081      -0.49047632       0.10475352      -1.30409445       0.32984383      -8.65219588
Si       0.65609437       0.59833843       0.47451772       0.66780192      -0.57804165       2.00826965       0.56830478       0.62768912       0.15764640      -8.23766758
Si       2.92363745       1.72041566       3.52712776      -0.13237627      -0.48125277      -0.10158626      -0.31337726       0.02105301      -0.36615702      -8.68490039
Si       4.85485986       2.88530091       6.65524056      -0.82181922       0.13530440      -0.81468616      -0.44495756      -0.57282050       0.32180094      -8.76837554
Si       2.90035298       3.88913768       0.37539142       0.84426640       0.19072660      -0.58568244      -0.33045816      -0.25678178       0.37705052      -8.65035841
Si       4.72957631       4.98813369       3.56877136      -0.27932022       0.62431935      -1.05366692       0.80007108       0.46731575       0.15052390      -8.74579865
Si       6.68035900       6.12032678       6.77586595      -0.00952823      -0.34156629       1.09775408      -0.21069825      -0.28788319      -0.23486256      -8.55870700
Si       4.82228034       7.17002036       0.38228785       0.79273747      -0.25759037       0.12030076      -0.71759294       0.84570639       0.17868770      -8.67174616
Si       6.67969776       8.31120623       3.54976575       0.34902869      -0.67495446       0.28984353       0.38039835      -0.48340166       0.12548904      -8.72524797
Si       8.62616612       9.46943922       6.67756733      -0.09189695      -0.77007403       0.13759640       0.55693620      -0.20295725      -0.22513824      -8.71134147
Si       5.04650907       0.51258847       0.33637157      -0.00495849      -0.15373513      -0.66614876      -0.50794129      -0.04985080      -0.00282621      -8.57762533
Si       6.68522376       1.73141750       3.56803760      -0.17283810       0.02005931      -0.03611899       0.03644095      -0.96867198      -0.51040225      -8.71193394
Si       8.81682994       2.70198489       6.70979274      -0.25509996      -1.21924515      -1.34887002      -0.47200968      -0.90595282      -0.12929920      -8.53398232
Si       6.67150593       3.89624678       0.39122260      -1.03056353       0.20093367       0.17035537      -0.18697978      -0.85185906      -0.04992573      -8.61366549
Si       8.61723942       4.87223711       3.53479820      -0.08428000      -0.07221698       0.53579675      -0.43473709       0.97183126       0.93231512      -8.63665364
Si      10.56890761       6.08698600       6.66556529      -0.21106823       0.11784124      -0.36097610      -0.25777542       0.27061302      -0.85181379      -8.68158405
Si       8.61697113       6.97748904       0.46672918      -0.97382077      -0.91398726      -1.54324792       0.06819397       0.15229147       0.02395688      -8.64908660
Si      10.55339755       8.41530327       3.47430056      -0.28403188       0.87502328      -0.95645034      -0.35595932      -0.52254819       0.34178535      -8.75461696
Si      12.39148273       9.48684171       6.67643262       0.21037794       0.18208504       0.57011107       0.84008425       0.36655913      -0.72762301      -8.68806264
Si       8.69513867       0.55861379       0.46815790       0.15290654      -0.25517661      -0.16351318      -0.49975383       0.33605920      -0.46166693      -8.71231475
Si      10.65520483       1.59697584       3.60652170      -0.00103418      -0.11974783       1.59722331      -0.53236842       0.13368226      -0.37190714      -8.71882618
Si      12.53652424       2.83784819       6.72771235      -0.01526717      -0.58424275       0.85111160       0.61655936      -0.21202391      -0.56259787      -8.71527844
Si      10.46386335       3.91188191       0.52952890      -0.49457081       0.51643842       0.89036024       0.56217421      -0.13009756      -0.22910369      -8.67152167
Si      12.50711698       4.99670925       3.52335376       0.69912495      -0.07796621       0.02824767      -0.82445242       0.71550369       0.49345611      -8.67651277
Si      14.35433999       6.24911307       6.73158045      -0.57661331       1.62252324       0.21153383       0.68888984      -0.56313320      -0.22604943      -8.73815851
Si      12.51826947       7.18603761       0.38818343      -0.79653536       0.63232134       0.11366527       0.14405220      -0.26907410       0.39373569      -8.70400919
Si      14.31054609       8.34356093       3.56297209      -0.90727370      -0.71480583       0.39047259       0.99574928       0.34551574      -0.36381028      -8.70215814
Si      16.40988316       9.34243045       6.65172960       1.68118165      -0.15429942      -0.86397854      -0.64774451       0.90080780       0.93437480      -8.70444344
Si       8.19667328       4.32701280       8.49078922       0.33474799      -0.61396242      -0.38421488      -0.15787523       0.30934521       0.16843023      -7.63753211
55
Lattice="11.5478352 0.0 0.0 5.773917198490155 10.000722372470358 0.0 5.773916394327279 3.333571176804646 9.428767828939895" Properties=species:S:1:pos:R:3:momenta:R:3:forces:R:3:energies:R:1 spacegroup="_JSON {\"number\": 1, \"setting\": 1}" unit_cell=conventional occupancy="_JSON {\"0\": {\"Si\": 1.0}, \"1\": {\"Si\": 1.0}, \"2\": {\"Si\": 1.0}, \"3\": {\"Si\": 1.0}, \"4\": {\"Si\": 1.0}, \"5\": {\"Si\": 1.0}, \"6\": {\"Si\": 1.0}, \"7\": {\"Si\": 1.0}, \"8\": {\"Si\": 1.0}, \"9\": {\"Si\": 1.0}, \"10\": {\"Si\": 1.0}, \"11\": {\"Si\": 1.0}, \"12\": {\"Si\": 1.0}, \"13\": {\"Si\": 1.0}, \"14\": {\"Si\": 1.0}, \"15\": {\"Si\": 1.0}, \"16\": {\"Si\": 1.0}, \"17\": {\"Si\": 1.0}, \"18\": {\"Si\": 1.0}, \"19\": {\"Si\": 1.0}, \"20\": {\"Si\": 1.0}, \"21\": {\"Si\": 1.0}, \"22\": {\"Si\": 1.0}, \"23\": {\"Si\": 1.0}, \"24\": {\"Si\": 1.0}, \"25\": {\"Si\": 1.0}, \"26\": {\"Si\": 1.0}, \"27\": {\"Si\": 1.0}, \"28\": {\"Si\": 1.0}, \"29\": {\"Si\": 1.0}, \"30\": {\"Si\": 1.0}, \"31\": {\"Si\": 1.0}, \"32\": {\"Si\": 1.0}, \"33\": {\"Si\": 1.0}, \"34\": {\"Si\": 1.0}, \"35\": {\"Si\": 1.0}, \"36\": {\"Si\": 1.0}, \"37\": {\"Si\": 1.0}, \"38\": {\"Si\": 1.0}, \"39\": {\"Si\": 1.0}, \"40\": {\"Si\": 1.0}, \"41\": {\"Si\": 1.0}, \"42\": {\"Si\": 1.0}, \"43\": {\"Si\": 1.0}, \"44\": {\"Si\": 1.0}, \"45\": {\"Si\": 1.0}, \"46\": {\"Si\": 1.0}, \"47\": {\"Si\": 1.0}, \"48\": {\"Si\": 1.0}, \"49\": {\"Si\": 1.0}, \"50\": {\"Si\": 1.0}, \"51\": {\"Si\": 1.0}, \"52\": {\"Si\": 1.0}, \"53\": {\"Si\": 1.0}, \"54\": {\"Si\": 1.0}}" energy=-475.66339312577793 stress="-0.012658051144911704 0.0033401810040570097 0.0003903032791158022 0.0033401810040570097 -0.010175718072286495 -0.0006117561105515492 0.0003903032791158022 -0.0006117561105515492 -0.007086320403160185" free_energy=-475.66339312577793 pbc="T T T"
Si       6.68103879       3.85739897       2.83874742       0.15819107       0.48330243       0.48236949      -0.43804905       0.64357942      -0.99973277      -8.72259233
Si       8.65892725       4.91740803       5.96433627       0.14652535       0.37082102      -1.09119587      -0.44234307       0.25811496       0.04317877      -8.58355973
Si      10.50344079       6.01224844       8.91241967       1.21175086      -0.07230274       0.39113512       0.30297676       0.40137091       0.53498622      -8.68010214
Si       8.67428633       7.14965698       2.77845131      -0.25103584      -0.67963482      -1.05049065      -0.47353773      -0.17774512      -0.11733835      -8.67139392
Si      10.60384239       8.30832301       5.79666755       0.08521905       0.70243836      -0.25780697      -0.61504780       0.49078323       0.36358774      -8.71477903
Si      12.42034680       9.40431314       9.01065084       0.24017888       0.14285698       0.64476078      -0.23949246      -0.49036313      -0.29731879      -8.76581905
Si      10.54218284      10.59817354       2.63192112      -0.07156507       1.28640770       0.52922084       0.39397626       0.37207854       0.37545708      -8.71232707
Si      12.52834537      11.79374837       5.87851514       0.42291313      -0.83765745       0.25619057      -0.48383564      -0.93355360       0.29338757      -8.67973656
Si      14.85746401      12.43385145       9.11071103      -0.61234993      -0.13115470       0.09676612       0.12744038      -1.22088950      -0.44608464      -7.94287632
Si      10.54210195       3.78764770       2.89432732       0.94705349      -0.41740138       0.61970427       0.42304288       0.60738745      -0.03973413      -8.72221523
Si      12.52141046       5.04217679       5.97144172      -0.01510110      -1.08794912       0.18441564       0.07854443      -0.08651181      -0.63428110      -8.72220319
Si      14.40732588       6.13695400       9.10133506      -1.00601997       0.53031896       0.98657497      -0.56659609       0.03729503      -0.10033285      -8.71773352
Si      12.40757227       7.29326624       2.75419130       0.10063998      -0.59577060      -0.35034707       0.20423643      -0.87285037      -0.09011069      -8.74405847
Si      14.42015046       8.47682278       5.92118026      -0.45634473       0.99214556       0.07748604      -0.33703501      -0.17396142      -0.16017170      -8.73602826
Si      16.34202074       9.40152462       9.04733196      -0.96019287       0.41927377      -0.35383382       0.31305674      -0.15352041      -0.33325574      -8.66838330
Si      14.43851119      10.58443604       2.85080637       0.37111123      -1.20705132       1.45173816      -0.14902151      -0.28323876      -0.30920936      -8.69732068
Si      16.50940637      11.65033067       5.97145521       0.46564463       0.89400075       0.83789931       0.15066137      -0.77291599      -0.11576822      -8.69489970
Si      18.47438230      12.65537821       9.06801153       0.88798234      -0.05622275       0.51147427      -0.39994890       0.83897916      -0.26558299      -8.70031516
Si      14.42241278       3.97525606       2.68250270       0.02745604      -1.29990494      -0.50605104      -0.13469646      -0.78865448       0.34741978      -8.75017365
Si      16.22330198       5.07536048       5.89365196      -0.20341332       1.88848962      -0.44300630       0.32654040       0.51558709       0.16174586      -8.68008242
Si      18.14463985       6.18637242       9.14294645      -1.32633295      -0.19842569      -0.32658643       0.23182668       0.21697953       0.50310617      -8.56678441
Si      16.33329247       7.24973290       2.76443630      -0.10439401       1.31032719      -0.03333490      -0.62512592      -0.01462753      -0.14003643      -8.72359968
Si      18.23550740       8.28356125       5.86985310       0.44905036      -1.06508528      -1.25431002       1.43055381      -0.41764009       0.27664626      -8.71950842
Si      20.19149010       9.38737586       9.03560145      -0.28297991       0.89415942       0.06539522       0.17993174       0.67614879      -0.10295549      -8.73404437
Si      18.30162849      10.49712396       2.74354845       0.07955884      -0.04394109       0.76266632       0.18679001       0.05855911       1.89817773      -8.68242472
Si      20.30676364      11.71271756       5.86984619      -0.29817483      -0.66186247      -1.01927717      -1.02574971      -0.71929214       0.01555484      -8.71009372
Si      22.08137858      12.79600603       8.96114530       0.92698853      -1.17289791       0.19222940      -0.00396425      -0.63571113       0.54474022      -8.68236478
Si       0.70618758       0.59339864       0.55819305       1.06892200       0.36836668       0.69321575      -0.09257360       0.53341202      -1.65902895      -8.23604452
Si       2.90311057       1.70139859       3.50459503      -0.65690082      -0.15454195      -0.76178836      -0.32589014       0.36670950      -0.36862280      -8.71292252
Si       4.80656454       2.87770447       6.62560923      -0.79170608      -0.24601301      -0.32211961       0.42871076       0.10652979       0.29529072      -8.78077999
Si       2.92292831       3.88221583       0.35664092      -0.11525974      -0.51718264      -0.20396006      -0.83523848      -0.49174996       0.08378414      -8.63471508
Si       4.74663489       5.03629002       3.52405941       0.84415102       1.12139143      -0.59388025       0.45563410       0.10726920       0.37749851      -8.75077082
Si       6.67033112       6.09107530       6.81246686      -0.36997718      -0.74818338       0.09098725      -0.19396737      -0.18330298      -1.01510541      -8.55802598
Si       4.82879300       7.19266293       0.39466162      -0.59759296       1.10403561       0.31875499      -0.90743018       0.75066248       0.04675164      -8.69118245
Si       6.71461783       8.26470838       3.56172165       0.97764442      -0.93773836      -0.01183405       0.34553697       0.14046459      -0.55792276      -8.73105160
Si       8.64063639       9.42415555       6.67161082       0.57366571      -0.87653849      -0.41809881       0.27237385       0.11161758      -0.42141540      -8.67792230
Si       5.03425215       0.50031057       0.30378473      -0.32966582      -0.35103461      -0.49540188       0.00868870      -0.18590372       0.30353005      -8.57282678
Si       6.67949355       1.69130038       3.54958426       0.00803463      -1.47713432      -0.56157512       0.24577051      -0.66097039      -0.09400197      -8.71669912
Si       8.78484861       2.61915742       6.64414085      -0.91902945      -1.57314990      -0.95070831      -0.27045919       0.51473974       0.66675578      -8.49421131
Si       6.61661056       3.87537992       0.40408783      -0.92752692      -0.88893152       0.41332757       0.34512399      -0.41600914       0.31706061      -8.62855129
Si       8.60441124       4.90285223       3.59326420      -0.21840681       1.10650465       1.49002428       0.27311450       0.44119524       0.11248140      -8.70360433
Si      10.55233954       6.10183127       6.61483100      -0.31452176       0.40382072      -1.42975808       0.16078534       0.09279636      -0.28891977      -8.69188905
Si       8.57508161       6.94775507       0.39581821      -0.49183568      -0.01949826      -0.96644606       0.56461528       0.91033075       0.76944875      -8.64041839
Si      10.52655876       8.43844696       3.43971492      -0.67291027      -0.01594840      -0.34406394      -0.09397411      -0.59930694       0.40659800      -8.74622506
Si      12.43230835       9.51231194       6.67940812       1.22104260       0.77109802      -0.37245359       0.32959239       0.28447529      -0.39176556      -8.70301307
Si       8.69161540       0.55876165       0.45118273      -0.09512385       0.24989152      -0.28605286       0.24692997       0.28921572       0.30681796      -8.70354373
Si      10.63942059       1.59263141       3.66961365      -0.48887970      -0.10701855       0.72456355      -0.09213449      -0.09967636      -0.68687655      -8.71535013
Si      12.56693571       2.80352020       6.75194752       1.25639142      -0.64199442       0.12013298       0.90967356       0.11120687      -0.37591419      -8.71956354
Si      10.45945396       3.93278876       0.56660257       0.27152294       0.26692375       0.50102216       0.33648116      -0.18028695      -0.31021165      -8.68246814
Si      12.51020017       5.01835680       3.54493286      -0.51351543       0.78296973       0.76338779      -0.55239537       0.23701959       0.36640951      -8.67528064
Si      14.35050869       6.30629480       6.73854908       0.36600555       0.46862720       0.13685511       0.42847312      -0.89086989       0.09704261      -8.72461979
Si      12.48374031       7.19896243       0.41071342      -0.49937239      -0.27264072       0.70722297       0.22859547      -0.76299259       0.22760025      -8.70012510
Si      14.30655002       8.32285525       3.57176618       0.77000545      -0.05890142      -0.00033589       1.02550944       0.39500692      -0.14645999      -8.70857908
Si      16.45706262       9.37782005       6.64764387      -0.03479436       1.51992292       0.69490890      -1.19983160       0.92071935       0.84944295      -8.67544605
Si       8.20095127       4.31631372       8.47378246      -0.25272577       0.33561822      -0.33971270      -0.45684885       0.78231018      -0.11634284      -7.56214341
55
Lattice="11.5478352 0.0 0.0 5.773917198490155 10.000722372470358 0.0 5.773916394327279 3.333571176804646 9.428767828939895" Properties=species:S:1:pos:R:3:momenta:R:3:forces:R:3:energies:R:1 spacegroup="_JSON {\"number\": 1, \"setting\": 1}" unit_cell=conventional occupancy="_JSON {\"0\": {\"Si\": 1.0}, \"1\": {\"Si\": 1.0}, \"2\": {\"Si\": 1.0}, \"3\": {\"Si\": 1.0}, \"4\": {\"Si\": 1.0}, \"5\": {\"Si\": 1.0}, \"6\": {\"Si\": 1.0}, \"7\": {\"Si\": 1.0}, \"8\": {\"Si\": 1.0}, \"9\": {\"Si\": 1.0}, \"10\": {\"Si\": 1.0}, \"11\": {\"Si\": 1.0}, \"12\": {\"Si\": 1.0}, \"13\": {\"Si\": 1.0}, \"14\": {\"Si\": 1.0}, \"15\": {\"Si\": 1.0}, \"16\": {\"Si\": 1.0}, \"17\": {\"Si\": 1.0}, \"18\": {\"Si\": 1.0}, \"19\": {\"Si\": 1.0}, \"20\": {\"Si\": 1.0}, \"21\": {\"Si\": 1.0}, \"22\": {\"Si\": 1.0}, \"23\": {\"Si\": 1.0}, \"24\": {\"Si\": 1.0}, \"25\": {\"Si\": 1.0}, \"26\": {\"Si\": 1.0}, \"27\": {\"Si\": 1.0}, \"28\": {\"Si\": 1.0}, \"29\": {\"Si\": 1.0}, \"30\": {\"Si\": 1.0}, \"31\": {\"Si\": 1.0}, \"32\": {\"Si\": 1.0}, \"33\": {\"Si\": 1.0}, \"34\": {\"Si\": 1.0}, \"35\": {\"Si\": 1.0}, \"36\": {\"Si\": 1.0}, \"37\": {\"Si\": 1.0}, \"38\": {\"Si\": 1.0}, \"39\": {\"Si\": 1.0}, \"40\": {\"Si\": 1.0}, \"41\": {\"Si\": 1.0}, \"42\": {\"Si\": 1.0}, \"43\": {\"Si\": 1.0}, \"44\": {\"Si\": 1.0}, \"45\": {\"Si\": 1.0}, \"46\": {\"Si\": 1.0}, \"47\": {\"Si\": 1.0}, \"48\": {\"Si\": 1.0}, \"49\": {\"Si\": 1.0}, \"50\": {\"Si\": 1.0}, \"51\": {\"Si\": 1.0}, \"52\": {\"Si\": 1.0}, \"53\": {\"Si\": 1.0}, \"54\": {\"Si\": 1.0}}" energy=-475.7722147254259 stress="-0.012112969469899528 0.0023736163587636844 0.0015725668289764457 0.0023736163587636844 -0.00988329020896179 7.368171681113791e-05 0.0015725668289764457 7.368171681113791e-05 -0.0046176918359703886" free_energy=-475.7722147254259 pbc="T T T"
Si       6.67826091       3.89500522       2.83134450      -0.11430575       0.69878098      -0.60386559       0.13838078      -0.33027758      -0.35466695      -8.70159905
Si       8.64744703       4.94028183       5.92284585      -0.58733805       0.39186820      -0.22366052      -0.43801624      -0.17138383       1.05043841      -8.56127180
Si      10.56722949       6.02140999       8.93901572       0.96884608       0.33129784       0.36278252      -0.67158638       0.04899318      -0.47529986      -8.67956527
Si       8.64905204       7.11153222       2.72137209      -0.55568620      -0.67152049      -1.04274977       0.13680525       0.22254616       0.20998410      -8.70269237
Si      10.59334010       8.36089103       5.79459898      -0.28324489       1.19380130       0.11336152       0.17878911       0.05359186       0.10031100      -8.73687922
Si      12.41321057       9.39189721       9.02960255      -0.62911276      -0.56607751       0.06286482      -0.67919357      -0.28858105      -0.35198130      -8.69215019
Si      10.54951874      10.66429070       2.66440077       0.24252970       0.90879842       0.52834842      -0.02797385      -0.88308081      -0.32953245      -8.71007561
Si      12.52114680      11.72221535       5.89299500      -0.81653553      -1.63296137       0.10853199      -0.91997113       0.09628075      -0.42806741      -8.70830643
Si      14.82826915      12.39237704       9.09334187      -0.51617806      -1.07928518      -0.86908941       0.07221537       0.21041811      -0.85052707      -7.97051428
Si      10.59682906       3.79447319       2.92569469       0.92030558       0.71603344       0.55815857      -0.43984623       0.73631942      -0.11056173      -8.69895014
Si      12.52605153       4.99072902       5.96031536       0.23085861      -0.71015822      -0.51105099       0.22933649       0.54375642      -0.23622349      -8.71775662
Si      14.34267131       6.16496552       9.14566153      -1.21481591       0.48974573       0.64142808       0.38863628      -0.15073167      -0.34183949      -8.72342846
Si      12.42024702       7.24044789       2.74197732       0.38118508      -1.14906552       0.06683340       0.18853277       0.17769885       0.59980874      -8.74936749
Si      14.39470356       8.51617508       5.91937873      -0.28254317       0.36903024      -0.13117656       0.55568750      -0.70113213      -0.09461248      -8.72683433
Si      16.30923848       9.41551653       9.02325000      -0.21488318       0.08502211      -0.37982194       0.59311512      -0.26342946       0.38036961      -8.67848670
Si      14.45094443      10.51787615       2.90217187       0.09900388      -1.14535206       0.28281951      -0.15883672       0.43691483      -1.16721987      -8.70426741
Si      16.53766518      11.67130515       6.00810240       0.54976813       0.05885035       0.49944990      -0.08608174      -0.17588815      -0.34631467      -8.69097030
Si      18.50051987      12.67756422       9.08473712       0.05605720       0.71880764       0.15460140      -0.58732841       0.13156209      -0.15452268      -8.70920980
Si      14.41783276       3.89505725       2.67505338      -0.21825099      -1.35665322       0.28316578      -0.19260400       0.78073449       0.56679144      -8.70185089
Si      16.22644885       5.17612995       5.87689937       0.32802605       1.58400459      -0.21298246       0.32434004      -0.92818874       0.09246650      -8.71230985
Si      18.08956465       6.18501979       9.14268756      -0.69118808       0.15511821       0.19181563       0.54716051       0.24173579       0.02275417      -8.55508501
Si      16.31076149       7.31375849       2.75707837      -0.55905550       1.03369268      -0.24566681       0.14445173      -0.40150789      -0.13454259      -8.73282138
Si      18.29752126       8.22262491       5.83060344       1.56165294      -1.03176830      -0.02224341       0.04883034       0.45385621       1.09550597      -8.69094930
Si      20.18301619       9.44824748       9.03504377      -0.06304346       1.15953724      -0.10123902       0.08598472      -0.36753388      -0.15890431      -8.71203811
Si      18.30788229      10.49391847       2.84247464       0.04302721      -0.12697388       2.51963158      -0.25584487      -0.13227303       0.03496081      -8.71053768
Si      20.26077510      11.65184994       5.81837342      -1.17995969      -1.55775130      -0.91417718       0.05028007      -0.31845738       0.12879471      -8.72587133
Si      22.12602915      12.72823070       8.98802764       0.68972693      -1.00362266       0.68729127      -0.32897875       0.95475094      -0.02544187      -8.70621266
Si       0.75317361       0.62623805       0.54087743       0.63044601       0.71643362      -0.96280280      -0.45581785      -0.12156511      -0.18620979      -8.28449648
Si       2.86021908       1.70674465       3.45794965      -0.85202595       0.30085371      -0.82990637       0.17162378       0.13055237       0.35406156      -8.76813601
Si       4.78270123       2.87293690       6.61741799      -0.15992812       0.07737053      -0.04044607       0.27206135       0.16519670       0.09377711      -8.70147955
Si       2.88698227       3.84266881       0.34459329      -1.15189294      -0.83013223      -0.31231736      -0.41618401       0.13368330      -0.13285759      -8.62201687
Si       4.79500032       5.09349302       3.50528045       0.72915211       0.94463098      -0.16649305      -0.59248548      -0.34288589       0.19894528      -8.72227609
Si       6.64755634       6.04878168       6.78041178      -0.39356235      -0.76037507      -1.16909948       0.21706283       0.22653856      -0.44066105      -8.57538793
Si       4.77178260       7.26572145       0.41122766      -1.35830265       1.33761057       0.28866363      -0.05520275      -0.58927712      -0.04782245      -8.74486331
Si       6.77288313       8.22534733       3.53551653       1.07526137      -0.49268772      -0.97187976      -0.31175101       0.41577612      -0.47090475      -8.73926490
Si       8.67492593       9.38661432       6.63756477       0.59215677      -0.46873090      -0.74849236      -0.28148910       0.44226696       0.09730050      -8.72188386
Si       5.01773843       0.47538235       0.29303556      -0.32869343      -0.55766652       0.13115296      -0.09583827      -0.01920138       0.46993106      -8.59108639
Si       6.69303888       1.60687049       3.52422275       0.56284116      -1.35943705      -0.26203042       0.43809280       0.81580494       0.45558057      -8.69906635
Si       8.73503382       2.56850362       6.62503481      -0.80701687      -0.19787859       0.27337514       0.37986099       1.12367847       0.84234263      -8.46051482
Si       6.58550698       3.82562572       0.43970472      -0.19900039      -0.74195358       0.94497501       0.55882375       0.61375685       0.30329734      -8.70944567
Si       8.60743221       4.96631824       3.65720618       0.35620036       1.07732666       0.58172651       0.36586115      -0.48381815      -1.27659542      -8.68399447
Si      10.54726489       6.12454856       6.54328943       0.20085980       0.42547092      -1.02321434       0.46051081      -0.05268855       0.77590577      -8.65785185
Si       8.56982280       6.97747139       0.37814208       0.19049788       0.95057138       0.29667521       0.16621173       0.11214131       0.76372755      -8.65359575
Si      10.49219690       8.41849147       3.43367502      -0.54622635      -0.64907467       0.03963368       0.26311108      -0.21840911       0.11544429      -8.70474663
Si      12.49538138       9.55537739       6.65474764       0.89432885       0.65052273      -0.36302133      -0.78403246      -0.58098451       0.40709744      -8.72167552
Si       8.70478234       0.57993533       0.45418489       0.70390718       0.48116643       0.47312639       0.64585912      -0.01466252       0.57868579      -8.65995239
Si      10.61473072       1.58290375       3.68581599      -0.38344822      -0.23609617       0.00509071       0.17612690       0.01155309      -0.24774168      -8.72244703
Si      12.66046654       2.77510023       6.74774987       2.07055795      -0.42401613      -0.20477714      -0.03425349       0.18679935      -0.07002998      -8.74825089
Si      10.47779214       3.94171501       0.58117141       0.24105879       0.11973727       0.06636835      -0.38745360       0.00081337      -0.25553889      -8.67189994
Si      12.47503199       5.05591552       3.59329845      -0.56094637       0.40539850       0.95225249       0.48881076      -0.70111540      -0.14062565      -8.70791469
Si      14.37665643       6.30128720       6.75149971       0.43219066      -0.52689652       0.37791814      -0.34287873      -0.36646898       0.17709849      -8.70214797
Si      12.46566616       7.16148591       0.44654615      -0.19798151      -0.97336014       0.44697333       0.19241174      -0.05171665      -0.57642814      -8.70939527
Si      14.37410185       8.32764062       3.56976283       1.50057105       0.08055278       0.00334255      -0.17369407      -0.22129213       0.16826421      -8.72385011
Si      16.42409124       9.47394009       6.70129443      -0.91808813       1.72237354       1.02520602      -0.01722536      -0.71564771      -0.41122032      -8.69484537
Si       8.17718161       4.35757662       8.44869062      -0.46776283       1.06508642      -0.65536037       0.25559322       0.12447830      -0.26675113      -7.55972696
55
Lattice="11.5478352 0.0 0.0 5.773917198490155 10.000722372470358 0.0 5.773916394327279 3.333571176804646 9.428767828939895" Properties=species:S:1:pos:R:3:momenta:R:3:forces:R:3:energies:R:1 spacegroup="_JSON {\"number\": 1, \"setting\": 1}" unit_cell=conventional occupancy="_JSON {\"0\": {\"Si\": 1.0}, \"1\": {\"Si\": 1.0}, \"2\": {\"Si\": 1.0}, \"3\": {\"Si\": 1.0}, \"4\": {\"Si\": 1.0}, \"5\": {\"Si\": 1.0}, \"6\": {\"Si\": 1.0}, \"7\": {\"Si\": 1.0}, \"8\": {\"Si\": 1.0}, \"9\": {\"Si\": 1.0}, \"10\": {\"Si\": 1.0}, \"11\": {\"Si\": 1.0}, \"12\": {\"Si\": 1.0}, \"13\": {\"Si\": 1.0}, \"14\": {\"Si\": 1.0}, \"15\": {\"Si\": 1.0}, \"16\": {\"Si\": 1.0}, \"17\": {\"Si\": 1.0}, \"18\": {\"Si\": 1.0}, \"19\": {\"Si\": 1.0}, \"20\": {\"Si\": 1.0}, \"21\": {\"Si\": 1.0}, \"22\": {\"Si\": 1.0}, \"23\": {\"Si\": 1.0}, \"24\": {\"Si\": 1.0}, \"25\": {\"Si\": 1.0}, \"26\": {\"Si\": 1.0}, \"27\": {\"Si\": 1.0}, \"28\": {\"Si\": 1.0}, \"29\": {\"Si\": 1.0}, \"30\": {\"Si\": 1.0}, \"31\": {\"Si\": 1.0}, \"32\": {\"Si\": 1.0}, \"33\": {\"Si\": 1.0}, \"34\": {\"Si\": 1.0}, \"35\": {\"Si\": 1.0}, \"36\": {\"Si\": 1.0}, \"37\": {\"Si\": 1.0}, \"38\": {\"Si\": 1.0}, \"39\": {\"Si\": 1.0}, \"40\": {\"Si\": 1.0}, \"41\": {\"Si\": 1.0}, \"42\": {\"Si\": 1.0}, \"43\": {\"Si\": 1.0}, \"44\": {\"Si\": 1.0}, \"45\": {\"Si\": 1.0}, \"46\": {\"Si\": 1.0}, \"47\": {\"Si\": 1.0}, \"48\": {\"Si\": 1.0}, \"49\": {\"Si\": 1.0}, \"50\": {\"Si\": 1.0}, \"51\": {\"Si\": 1.0}, \"52\": {\"Si\": 1.0}, \"53\": {\"Si\": 1.0}, \"54\": {\"Si\": 1.0}}" energy=-475.05992500888794 stress="-0.01179488131053526 0.0039272457628204815 0.0034705767383155298 0.0039272457628204815 -0.011226109873188889 0.0008396008678909206 0.0034705767383155298 0.0008396008678909206 -0.0053712636723816385" free_energy=-475.05992500888794 pbc="T T T"
Si       6.68350504       3.91353947       2.79810473       0.37626654      -0.04471402      -0.41733726       0.37133635      -0.53563277       0.60460515      -8.67522131
Si       8.60615156       4.95353717       5.95027747      -0.81230948       0.12137490       1.11286040       0.25487392      -0.14205733       0.43369430      -8.56869571
Si      10.58530135       6.03515515       8.93718962      -0.34582643       0.11434923      -0.39978987      -0.91500755      -0.25322574      -0.33926994      -8.65014592
Si       8.63280726       7.08918543       2.68072556       0.05430499      -0.10078959      -0.37328045       0.58485002       0.52883500       0.72244908      -8.71403326
Si      10.59364091       8.41674708       5.80034477       0.38740850       0.75065705       0.04128230       0.51607620      -0.66385196      -0.14667325      -8.72934996
Si      12.36051776       9.35962777       9.02518183      -1.21661072      -0.49782485      -0.10213989      -0.04265047       0.35617119       0.15365010      -8.63070088
Si      10.55713828      10.67041798       2.67713680       0.01483195      -0.74095277      -0.03423003      -0.15530177      -1.12230381      -0.29132482      -8.69752444
Si      12.45229968      11.65804737       5.88092476      -1.55463140      -0.52737324      -0.51610615       0.07063672       1.16335404      -0.20809182      -8.71032514
Si      14.80574931      12.36161940       9.01438820      -0.30574329       0.12181997      -2.04651803       0.20403455       1.01838407      -0.43412116      -8.01518146
Si      10.62218806       3.85225997       2.94750410      -0.02946908       1.27606834       0.19422297      -0.71643115      -0.09467627      -0.41480992      -8.68870227
Si      12.54752655       4.97548844       5.93221127       0.57870120       0.11016702      -0.39766808       0.18316163       0.46438279       0.39688608      -8.71114982
Si      14.30430889       6.18136030       9.16631879      -0.09675802       0.07131223       0.16420171       0.95457764      -0.39090944      -0.26339780      -8.70905264
Si      12.44762691       7.19586800       2.76916017       0.65187305      -0.43173974       0.90303739       0.13877591       0.63529523       0.33480526      -8.71884704
Si      14.40523182       8.50506470       5.91185468       0.67243357      -0.81313594      -0.07637316       0.49796809      -0.76505891       0.21648620      -8.72226433
Si      16.31708156       9.41102204       9.02512706       0.40397000      -0.21711509       0.52094240       0.15655383      -0.10370701       0.62922323      -8.69082679
Si      14.45328726      10.48067139       2.87200237       0.05973990      -0.20446774      -1.33295293       0.10667119       0.69095767      -0.73652217      -8.73827396
Si      16.56027227      11.67914724       6.01988258       0.25472847       0.40824857      -0.05568661      -0.31409040       0.46247012      -0.35553301      -8.66165567
Si      18.48695905      12.71334935       9.09056966      -0.42577743       0.54127560       0.13237031      -0.01682137      -0.28252594       0.09738422      -8.69463313
Si      14.39899420       3.86806948       2.70606776      -0.48064511       0.50547945       0.75793477      -0.10562631       1.43033009       0.01485855      -8.65456921
Si      16.25079392       5.21299903       5.86644000       0.45999879      -0.32050202      -0.22164879      -0.21494933      -1.46066526      -0.03857880      -8.70461361
Si      18.07143469       6.20100276       9.14389960      -0.09055909       0.40515973      -0.29797871       0.18643379       0.04401807      -0.56123716      -8.53628120
Si      16.29835541       7.34777625       2.73940441       0.25506449       0.17310863      -0.40434040       0.77442597      -0.73539300      -0.02984958      -8.72149629
Si      18.36876002       8.19150456       5.86303738       0.92241528      -0.07077538       1.01871027      -0.86853021       0.77925686       0.16417514      -8.60609177
Si      20.18019406       9.48510123       9.02153996      -0.10122825       0.08742598      -0.44348841      -0.13387612      -0.97667234      -0.26248331      -8.67395113
Si      18.29732478      10.48257527       2.95135655      -0.45926538      -0.26559645       1.23495078      -0.30338088       0.03099726      -1.52559461      -8.66378686
Si      20.21657127      11.56733119       5.77546111      -0.25313166      -1.44644036      -0.69836933       1.01860742       0.54743550       0.23131054      -8.68182392
Si      22.14797399      12.72547756       9.01382140       0.12610218       1.00183354       0.15604477      -0.40765999       1.30820615      -0.55961458      -8.69646147
Si       0.76916862       0.65314074       0.50358494       0.03129058       0.24124642      -0.17106024      -0.23809694      -0.37733778       0.94385656      -8.24853866
Si       2.82972283       1.71985864       3.43474776      -0.18304392       0.05683880       0.02172679       0.65788623      -0.40469938       0.63502219      -8.74943724
Si       4.77771248       2.87835879       6.61688961      -0.15831546       0.03720769      -0.01442770      -0.22905294      -0.18864133      -0.04537806      -8.61797478
Si       2.82045818       3.81156519       0.32560360      -1.17194713      -0.22341391      -0.33732167       0.41521054       0.64828785       0.15184586      -8.59441559
Si       4.80473986       5.12660386       3.50159485      -0.39755642       0.25256711      -0.02354504      -0.73526912      -0.59286704       0.00206760      -8.68758308
Si       6.64032231       6.02322534       6.71652637       0.18062250      -0.11013717      -0.98693037       0.43731213       0.62104685       0.64476003      -8.57813998
Si       4.70681537       7.29993792       0.42419122      -0.96764118      -0.17195207       0.16227576       0.54175931      -1.09473146      -0.22879868      -8.72872175
Si       6.80952414       8.21526027       3.47963542       0.20228197       0.08605761      -0.86688721      -0.76001017       0.31986998       0.65516498      -8.71584898
Si       8.69075274       9.38027132       6.61107934      -0.02387230       0.21516863      -0.10124904      -0.39988364       0.37929081       0.70601327      -8.75873249
Si       4.99257952       0.44951452       0.31511477      -0.69165405      -0.34482473       0.61809636      -0.32081510       0.30256908       0.09722519      -8.62030149
Si       6.73581723       1.57575095       3.52835506       0.93656661       0.26269996       0.36219388      -0.07610241       1.15231934       0.22042646      -8.68618949
Si       8.70683074       2.59526004       6.66408914      -0.32145075       1.03757914       0.99075787       0.18347494       0.41107495      -0.06037889      -8.50588930
Si       6.59218468       3.81609291       0.49484535       0.33039557       0.41154837       0.97248141       0.08082035       0.72840610      -0.42215774      -8.74399940
Si       8.63625527       4.99711368       3.63714417       0.64375717      -0.00395779      -1.22019995      -0.03177887      -0.85920471      -0.77594245      -8.66357230
Si      10.57385192       6.14439529       6.52396303       0.74222888       0.31982324       0.31653411       0.18066636      -0.09988510       0.87883648      -8.61568395
Si       8.57622438       7.01563615       0.41289059      -0.10072005       0.27105386       0.76688121      -0.42566168      -0.76482064      -0.26913958      -8.63936952
Si      10.47663236       8.38043816       3.43802392       0.01050670      -0.71980034       0.10076847       0.48672776       0.10699771       0.01242836      -8.66260701
Si      12.50662733       9.55525687       6.65674689      -0.47335995      -0.80995810       0.47386811      -0.79591933      -1.13207994       0.52330331      -8.72618491
Si       8.76084593       0.60074838       0.49629500       1.25467083       0.24943825       0.97005744      -0.05684161      -0.25327967      -0.07088996      -8.67313331
Si      10.60017574       1.57579476       3.68156908      -0.21383052       0.06584123      -0.09704152       0.01326074       0.39878381       0.02892174      -8.70036072
Si      12.75275498       2.76127763       6.73749819       1.17647684      -0.07388806      -0.13240239      -1.07790828       0.28754482       0.13635611      -8.73154184
Si      10.47037660       3.95009407       0.57694688      -0.56429806       0.21730400      -0.18261356      -0.53075563       0.06454708      -0.07572617      -8.65866820
Si      12.47296619       5.04663256       3.63247737       0.59411600      -0.75112709       0.43656617       0.90372177      -0.65405521      -0.54432957      -8.73722618
Si      14.38173616       6.26669700       6.77652283      -0.25359784      -0.67589846       0.51886324      -0.38863759       0.09236504      -0.04968832      -8.68508527
Si      12.46269083       7.11869342       0.44561038       0.09419117      -0.46937599      -0.43969524       0.22732567       0.68702762      -0.40276724      -8.70428346
Si      14.43201030       8.31999983       3.57962916       0.48558469      -0.37296079       0.39814338      -1.01544824      -0.22421114       0.24881370      -8.70999066
Si      16.38418212       9.52357238       6.73094544      -0.45028005      -0.00250373       0.01642890       0.59736802      -1.36633579      -0.75113162      -8.64102493
Si       8.16936415       4.41328976       8.40450709       0.24299461       0.99857085      -0.97091914       0.53199002      -0.12139616      -0.02113946      -7.60976134
55
Lattice="11.5478352 0.0 0.0 5.773917198490155 10.000722372470358 0.0 5.773916394327279 3.333571176804646 9.428767828939895" Properties=species:S:1:pos:R:3:momenta:R:3:forces:R:3:energies:R:1 spacegroup="_JSON {\"number\": 1, \"setting\": 1}" unit_cell=conventional occupancy="_JSON {\"0\": {\"Si\": 1.0}, \"1\": {\"Si\": 1.0}, \"2\": {\"Si\": 1.0}, \"3\": {\"Si\": 1.0}, \"4\": {\"Si\": 1.0}, \"5\": {\"Si\": 1.0}, \"6\": {\"Si\": 1.0}, \"7\": {\"Si\": 1.0}, \"8\": {\"Si\": 1.0}, \"9\": {\"Si\": 1.0}, \"10\": {\"Si\": 1.0}, \"11\": {\"Si\": 1.0}, \"12\": {\"Si\": 1.0}, \"13\": {\"Si\": 1.0}, \"14\": {\"Si\": 1.0}, \"15\": {\"Si\": 1.0}, \"16\": {\"Si\": 1.0}, \"17\": {\"Si\": 1.0}, \"18\": {\"Si\": 1.0}, \"19\": {\"Si\": 1.0}, \"20\": {\"Si\": 1.0}, \"21\": {\"Si\": 1.0}, \"22\": {\"Si\": 1.0}, \"23\": {\"Si\": 1.0}, \"24\": {\"Si\": 1.0}, \"25\": {\"Si\": 1.0}, \"26\": {\"Si\": 1.0}, \"27\": {\"Si\": 1.0}, \"28\": {\"Si\": 1.0}, \"29\": {\"Si\": 1.0}, \"30\": {\"Si\": 1.0}, \"31\": {\"Si\": 1.0}, \"32\": {\"Si\": 1.0}, \"33\": {\"Si\": 1.0}, \"34\": {\"Si\": 1.0}, \"35\": {\"Si\": 1.0}, \"36\": {\"Si\": 1.0}, \"37\": {\"Si\": 1.0}, \"38\": {\"Si\": 1.0}, \"39\": {\"Si\": 1.0}, \"40\": {\"Si\": 1.0}, \"41\": {\"Si\": 1.0}, \"42\": {\"Si\": 1.0}, \"43\": {\"Si\": 1.0}, \"44\": {\"Si\": 1.0}, \"45\": {\"Si\": 1.0}, \"46\": {\"Si\": 1.0}, \"47\": {\"Si\": 1.0}, \"48\": {\"Si\": 1.0}, \"49\": {\"Si\": 1.0}, \"50\": {\"Si\": 1.0}, \"51\": {\"Si\": 1.0}, \"52\": {\"Si\": 1.0}, \"53\": {\"Si\": 1.0}, \"54\": {\"Si\": 1.0}}" energy=-475.4951711117035 stress="-0.010245689231373938 0.0038818579599425823 0.001888280593705343 0.0038818579599425823 -0.007858320832710904 -0.0007680378173963438 0.001888280593705343 -0.0007680378173963438 -0.009162846356868256" free_energy=-475.4951711117035 pbc="T T T"
Si       6.71218483       3.89467100       2.80476893       0.56528978      -0.56490918       0.67061551      -0.22465485      -0.09252413       0.57146726      -8.70863277
Si       8.58424237       4.95736393       6.00865960       0.16568790       0.09340596       0.79402745       0.96538285       0.13458915      -0.80874203      -8.52233904
Si      10.53778650       6.03296199       8.91433291      -1.32183454      -0.14780442      -0.22801162      -0.34144101      -0.05731187       0.60322236      -8.65238419
Si       8.65591140       7.10516158       2.69183650       0.72521658       0.69159081       0.78479429       0.17875075       0.43811877       0.64488267      -8.73141503
Si      10.62471488       8.42511215       5.79758715       0.55239539      -0.51074504      -0.11175168      -0.42403040      -0.95543444      -0.01168782      -8.73145598
Si      12.30189887       9.35044896       9.03074841      -0.88513978       0.17631511       0.37229362       0.48490665       0.46144761       0.36350964      -8.67824290
Si      10.55596897      10.59639552       2.67079876       0.02666353      -1.85860279      -0.07159532       0.17669751      -0.23064243       0.23044326      -8.71054911
Si      12.38599227      11.66811702       5.85730025      -0.74612482       0.68160763      -0.15780204       0.95349101       0.28037083       0.65012586      -8.69154497
Si      14.79692116      12.39498340       8.90949703      -0.05355696       0.84487857      -1.52077044       0.10881143      -0.15130136       1.20618831      -8.03574615
Si      10.59980225       3.90483417       2.93826764      -0.61963529       0.53343856      -0.59400394       0.08478731      -0.84746411      -0.58455279      -8.68413010
Si      12.58149472       4.99388742       5.93049055       0.62036378       0.47647299       0.35129437      -0.19421800       0.00716942       0.45838545      -8.72756701
Si      14.33040411       6.17018932       9.16793007       0.90757382      -0.46839534      -0.04934782       0.22691804      -0.27043145      -0.05938728      -8.71555272
Si      12.48533065       7.19307556       2.82001675       0.73097631       0.19110841       0.83752404      -0.07694239       0.10779460      -0.44244296      -8.70596590
Si      14.44924176       8.43763052       5.92063999       0.78072648      -1.63133635       0.47153412      -0.37038071      -0.25237619       0.43422093      -8.74407917
Si      16.33709246       9.39933774       9.06842967       0.23551867      -0.14759701       0.91900457      -0.31750678       0.21338349      -0.18977443      -8.70141228
Si      14.46176520      10.49169274       2.79272660       0.25603973       0.51528498      -1.25567206       0.07623280       0.26287869       0.93707849      -8.74225006
Si      16.55898071      11.71421774       6.00624448      -0.35200305       0.77618831      -0.39558854      -0.48983022      -0.12653894      -0.08655186      -8.64964507
Si      18.46890145      12.73165759       9.10230128      -0.20501952       0.19691057       0.31094457       0.20901591      -0.12073918       0.07610970      -8.67566597
Si      14.37468947       3.93656074       2.73947697      -0.30054161       1.71419822       0.36930354       0.46836958      -0.10867761      -0.56837331      -8.71038287
Si      16.26196936       5.14525541       5.85577936      -0.07677018      -2.07248122      -0.11908442      -0.37792558      -0.68539470       0.20542511      -8.71545711
Si      18.06718882       6.22045699       9.10783649      -0.17266917       0.27605294      -0.98765276      -0.20028321      -0.18550385      -0.19995516      -8.53519430
Si      16.33534582       7.32869863       2.72062740       0.94410541      -0.86675922      -0.23812488      -0.04370961      -0.59224322       0.24378948      -8.74402232
Si      18.37833693       8.21778120       5.91101198      -0.60880741       1.04465098       0.61166604      -1.03473924       0.64761318      -0.61420984      -8.62256001
Si      20.16826394       9.45265329       8.99041482      -0.35817753      -1.24432214      -0.65395536      -0.14555536      -0.63215252       0.09470547      -8.71852710
Si      18.26580206      10.47553963       2.95466815      -0.64269773       0.11279064      -1.07676115       0.08709012       0.46788474      -1.36022582      -8.69052581
Si      20.24084568      11.52274387       5.75257226       1.06514834      -0.07664147      -0.05088896       0.56066907       1.20458376       0.69645086      -8.67665542
Si      22.14027840      12.81012427       9.00229428      -0.36374945       1.79933697      -0.52925945      -0.17052382      -0.34241407      -0.29831651      -8.69484512
Si       0.76958190       0.65647654       0.52766784       0.12783520       0.00560891       0.93887547       0.30689967       0.07995954       0.33789981      -8.24894739
Si       2.84503600       1.70782000       3.45374540       0.71661068      -0.45497366       0.52906610       0.45026395      -0.17594772      -0.04081945      -8.74035647
Si       4.75757038       2.87160671       6.61357905      -0.63079745      -0.30722594      -0.11369985      -0.29873054      -0.24166504      -0.04604795      -8.66432919
Si       2.78059302       3.82682864       0.31733033      -0.28853754       0.79735881       0.07838356       0.63043586       0.59084410       0.36801330      -8.58414011
Si       4.76353996       5.11579685       3.49928099      -0.96934124      -0.66340634      -0.06446996       0.07313779      -0.56860652       0.00739052      -8.70506323
Si       6.65994568       6.04182411       6.69399438       0.38666350       0.78278708       0.13961446      -0.25212307       0.46109483       0.67554397      -8.59863725
Si       4.67884294       7.26190525       0.41758142      -0.09879304      -0.96890621      -0.51484114       0.52253090       0.10519707      -0.59196053      -8.71630767
Si       6.79430819       8.22872065       3.46837110      -0.66089413       0.36347687       0.55434846      -0.27929734       0.07480853       1.09398819      -8.69004686
Si       8.68136951       9.39986368       6.63248522      -0.17353668       0.39475224       0.83262715       0.21034697      -0.14945730       0.35437379      -8.76073465
Si       4.94573400       0.44440383       0.34388113      -1.01322190       0.15288741       0.33350825       0.00021533       0.30659272      -0.45814201      -8.63942351
Si       6.77400264       1.62570302       3.54627650       0.38665933       1.40811089       0.13748103      -0.58849549       0.21241776      -0.47530521      -8.70958553
Si       8.69200491       2.65504786       6.69565114      -0.32499334       1.04959498      -0.14031843      -0.13315080      -0.34774727      -1.39395861      -8.48912209
Si       6.60725994       3.85670745       0.51955108       0.17490622       0.91936679      -0.16255028      -0.19313770      -0.12770391      -0.90182802      -8.70800484
Si       8.66240603       4.96880449       3.56105500       0.22434114      -0.90235779      -1.33138180      -0.52288267      -0.16774003       0.59407083      -8.63712475
Si      10.61457244       6.15650813       6.56727065       0.70797760       0.11667297       1.14933954      -0.22085423      -0.19790525       0.14324089      -8.60029275
Si       8.55557493       7.00741953       0.42974894      -0.62488400      -0.38613361      -0.29055909      -0.18407981      -0.00566801      -0.88163210      -8.62984604
Si      10.49817140       8.34786946       3.44490776       0.84306262      -0.51386855       0.19177904       0.59702354       0.13508703       0.12719466      -8.69938227
Si      12.46378760       9.48002550       6.69345767      -0.86807585      -1.75319081       0.74122496       0.34363506       0.04796046      -0.18444586      -8.74083384
Si       8.81316259       0.60532738       0.53099541       0.52116411      -0.03148721       0.08906760      -0.90558128      -0.08766349      -1.06843381      -8.69113988
Si      10.58657824       1.59764276       3.67619429      -0.33918218       0.79491520      -0.15850800      -0.11407623       0.49350971      -0.16392973      -8.67648764
Si      12.77169842       2.76760325       6.73547713      -0.41834761       0.27765159       0.03546894      -0.92713373       0.13862730       0.06309975      -8.72221416
Si      10.42729141       3.96145822       0.56644041      -0.89660874       0.15459600      -0.18128008       0.18084840      -0.16785796       0.06719159      -8.66853371
Si      12.53170977       4.99218479       3.63408273       1.38608148      -1.07477857      -0.32316887      -0.13315017       0.33163313      -0.31854513      -8.76750301
Si      14.36280919       6.23474933       6.79816652      -0.25043518      -0.56415531       0.24694499       0.45533931       0.00755304      -0.27187801      -8.69687826
Si      12.47775817       7.12431554       0.41718965       0.49694114       0.70956018      -0.44121202       0.27792615       0.76417050       0.38433209      -8.69616943
Si      14.42345882       8.29799275       3.60432910      -0.62006130      -0.33543763       0.40673569      -0.26230148       0.28322516      -0.26718611      -8.74375337
Si      16.38765726       9.47850412       6.70934997       0.62900723      -1.48274615      -0.67233833       0.74434812      -0.43821948      -0.09036836      -8.67293500
Si       8.19753843       4.46376383       8.36164092       0.70748122       0.97669038      -0.46286906       0.05266164       0.06881693       0.74635645      -7.68062975
55
Lattice="11.5478352 0.0 0.0 5.773917198490155 10.000722372470358 0.0 5.773916394327279 3.333571176804646 9.428767828939895" Properties=species:S:1:pos:R:3:momenta:R:3:forces:R:3:energies:R:1 spacegroup="_JSON {\"number\": 1, \"setting\": 1}" unit_cell=conventional occupancy="_JSON {\"0\": {\"Si\": 1.0}, \"1\": {\"Si\": 1.0}, \"2\": {\"Si\": 1.0}, \"3\": {\"Si\": 1.0}, \"4\": {\"Si\": 1.0}, \"5\": {\"Si\": 1.0}, \"6\": {\"Si\": 1.0}, \"7\": {\"Si\": 1.0}, \"8\": {\"Si\": 1.0}, \"9\": {\"Si\": 1.0}, \"10\": {\"Si\": 1.0}, \"11\": {\"Si\": 1.0}, \"12\": {\"Si\": 1.0}, \"13\": {\"Si\": 1.0}, \"14\": {\"Si\": 1.0}, \"15\": {\"Si\": 1.0}, \"16\": {\"Si\": 1.0}, \"17\": {\"Si\": 1.0}, \"18\": {\"Si\": 1.0}, \"19\": {\"Si\": 1.0}, \"20\": {\"Si\": 1.0}, \"21\": {\"Si\": 1.0}, \"22\": {\"Si\": 1.0}, \"23\": {\"Si\": 1.0}, \"24\": {\"Si\": 1.0}, \"25\": {\"Si\": 1.0}, \"26\": {\"Si\": 1.0}, \"27\": {\"Si\": 1.0}, \"28\": {\"Si\": 1.0}, \"29\": {\"Si\": 1.0}, \"30\": {\"Si\": 1.0}, \"31\": {\"Si\": 1.0}, \"32\": {\"Si\": 1.0}, \"33\": {\"Si\": 1.0}, \"34\": {\"Si\": 1.0}, \"35\": {\"Si\": 1.0}, \"36\": {\"Si\": 1.0}, \"37\": {\"Si\": 1.0}, \"38\": {\"Si\": 1.0}, \"39\": {\"Si\": 1.0}, \"40\": {\"Si\": 1.0}, \"41\": {\"Si\": 1.0}, \"42\": {\"Si\": 1.0}, \"43\": {\"Si\": 1.0}, \"44\": {\"Si\": 1.0}, \"45\": {\"Si\": 1.0}, \"46\": {\"Si\": 1.0}, \"47\": {\"Si\": 1.0}, \"48\": {\"Si\": 1.0}, \"49\": {\"Si\": 1.0}, \"50\": {\"Si\": 1.0}, \"51\": {\"Si\": 1.0}, \"52\": {\"Si\": 1.0}, \"53\": {\"Si\": 1.0}, \"54\": {\"Si\": 1.0}}" energy=-475.6234900749105 stress="-0.0103526490619365 0.003124278942717773 0.001061394500658701 0.003124278942717773 -0.009601470452315526 -0.0006713380043994298 0.001061394500658701 -0.0006713380043994298 -0.008511824984396158" free_energy=-475.6234900749105 pbc="T T T"
Si       6.72396808       3.86976233       2.84738465      -0.27105753      -0.21598696       0.63458255      -0.80501877       0.54975047      -0.65506466      -8.72402877
Si       8.62885568       4.97240389       6.01273424       1.42296719       0.56178296      -0.69045615       0.51078904       0.43467076      -0.99413840      -8.52518118
Si      10.46154313       6.02653229       8.93301273      -1.45587688      -0.02979575       1.00409378       0.17520630       0.20516744       0.82839043      -8.65020452
Si       8.69152721       7.15260319       2.74792205       0.45150507       0.98509523       1.13732379      -0.51751656      -0.07431186      -0.19189991      -8.71324249
Si      10.62802970       8.36392964       5.79503928      -0.51820094      -1.70590556       0.10076047      -0.76156579      -0.47375456       0.32349374      -8.73465679
Si      12.27814713       9.37381199       9.05890833       0.04857305       0.61233455       0.54700787       0.73608831       0.05398046      -0.23233329      -8.75224499
Si      10.56728587      10.50341148       2.67817936       0.44843175      -1.41873105       0.34792139       0.34191365       0.80667808       0.20971439      -8.69977891
Si      12.38618273      11.70177474       5.87540789       0.73758584       0.37897406       0.78319506       0.86118050      -0.60063251       0.38925245      -8.65596201
Si      14.79439494      12.42365601       8.88137980      -0.13862597       0.13920134       0.37831043      -0.26137688      -0.57252249       0.92349394      -8.03887484
Si      10.58144335       3.89916880       2.88687246       0.05530244      -0.68813822      -1.26890064       0.59270718      -0.57755498      -0.19133504      -8.69399858
Si      12.60147516       5.01433696       5.96018037       0.05805359       0.22413687       0.63933138      -0.50505007      -0.29659551      -0.08909123      -8.73601362
Si      14.37419976       6.13925405       9.16214290       0.53658750      -0.61281315      -0.20963411      -0.64532186       0.11980171      -0.19788701      -8.71196489
Si      12.51854265       7.19894941       2.84039175       0.50635520      -0.09811428      -0.15705411      -0.17647103      -0.39291028      -0.80132810      -8.71321548
Si      14.47090057       8.35007247       5.95880447       0.00792691      -1.52379192       0.87211008      -0.50766668       0.46530137      -0.00338507      -8.74457004
Si      16.33786481       9.40324811       9.10059639      -0.15103487       0.34812458       0.17504290      -0.10400002       0.40524419      -0.69658853      -8.67548002
Si      14.47486859      10.52559833       2.77340977       0.17393625       0.72623098       0.56316662      -0.19518671       0.04969568       1.08626787      -8.72508863
Si      16.52138441      11.74007202       5.98404785      -1.05384681       0.02977962      -0.42808746      -0.36833518      -0.81926450       0.00421294      -8.63272299
Si      18.46301511      12.74257857       9.11774398      -0.10459783       0.31931733       0.17918156      -0.12660801       0.26063647      -0.30712040      -8.69232264
Si      14.38544567       3.99895945       2.73084699       0.79064324       0.27917875      -0.75746131       0.72373409      -1.57920757      -0.74793215      -8.70353207
Si      16.24761533       5.02606377       5.85871693      -0.36617553      -2.12621856       0.22658905       0.03670090       0.66543659       0.18569744      -8.69019404
Si      18.05209140       6.22874685       9.05881236      -0.33454300       0.07983010      -0.65562672       0.05920692      -0.02998032       0.66908861      -8.51957758
Si      16.37119101       7.26449693       2.71744562       0.23927228      -1.46777153       0.09437922      -0.74525664      -0.12749841       0.16041930      -8.73579705
Si      18.31648133       8.29189910       5.91803654      -1.44979844       1.61347571      -0.32408379       0.15877892      -0.02769841      -0.52399001      -8.72496247
Si      20.14659638       9.37630954       8.96736661      -0.40169914      -1.34183340      -0.08916005       0.11077359       0.64165095       0.59921898      -8.74756638
Si      18.23917476      10.50096643       2.86162437      -0.30566273       0.83455262      -2.05409014       0.34734954       0.37315172       0.28728141      -8.72537468
Si      20.30485709      11.56192218       5.78015171       1.05930443       1.40764475       1.09542812      -0.69069058       0.54320466       0.63536636      -8.71522478
Si      22.12149273      12.87714800       8.96807023      -0.21862143       0.54899648      -0.65936233       0.33420782      -1.14462018       0.16733050      -8.64442076
Si       0.78837200       0.66336023       0.57292606       0.54130313       0.29005362       0.40478008       0.12641306       0.20975329      -1.14415586      -8.25518543
Si       2.89406645       1.68144777       3.47228888       1.02464366      -0.47975344       0.07533707      -0.05581722       0.10534519      -0.43200508      -8.69759138
Si       4.71915794       2.84595474       6.60906397      -0.63697082      -0.66455699       0.03207411       0.48466122      -0.20228891       0.30756422      -8.75182736
Si       2.78287048       3.88266064       0.33584070       0.20963158       1.09960797       0.61702653      -0.01690189      -0.31742130       0.31890543      -8.59496031
Si       4.72708617       5.06307120       3.49969046      -0.20813824      -1.24103019       0.15755112       0.88432653      -0.14754956       0.29981322      -8.72058725
Si       6.66454101       6.09371593       6.71709427      -0.26300223       1.03855242       0.49997135      -0.44909564      -0.15161175      -0.26661582      -8.59550523
Si       4.68651714       7.22709659       0.37113782       0.22839865      -0.16906367      -1.12535890      -0.10852564       0.83852184      -0.07953495      -8.66485496
Si       6.75671612       8.25127480       3.53428094      -0.64608986       0.52687705       1.75799940       0.20976258       0.18097132       0.27555043      -8.71780574
Si       8.68345654       9.41161754       6.67704792       0.25896378       0.02571624       0.59558301       0.23280810      -0.25750028      -0.68402808      -8.71701770
Si       4.89879379       0.46094298       0.34292978      -0.65022059       0.39444557      -0.32266555       0.48482004      -0.02453115      -0.26439998      -8.62930583
Si       6.77103281       1.69080725       3.53517115      -0.48867320       0.73486344      -0.48088094      -0.53490647      -1.09125923      -0.16412611      -8.69442148
Si       8.66969001       2.69362102       6.63452905      -0.48428519       0.39724930      -2.00241974       0.03435151      -0.42634459      -0.65085088      -8.54211270
Si       6.61048677       3.89005097       0.48397870      -0.01505401       0.18820152      -0.98913498      -0.05379762      -0.75242588      -0.10951657      -8.62784437
Si       8.65366072       4.92807276       3.52288555      -0.49215028      -0.41948890      -0.01095564      -0.25452017       0.71942644       1.01721052      -8.61866976
Si      10.64098365       6.15293396       6.62455759       0.26509629      -0.29772127       0.90740660      -0.34924728      -0.36675356      -0.34174972      -8.61410629
Si       8.52130089       6.99671373       0.39028121      -0.56130491       0.13555928      -0.94982132       0.28840787       0.60553429       0.14267482      -8.63485604
Si      10.56436380       8.32307968       3.46167934       1.61147640      -0.49582468       0.46933355       0.30523944      -0.11362746       0.20492586      -8.75666120
Si      12.44187777       9.40285288       6.72091310       0.15725630      -0.98765136       0.25117878       0.81138665       0.83059035      -0.40267055      -8.68410185
Si       8.80097111       0.60212493       0.49477315      -1.01279631      -0.07829099      -1.31835613      -0.97320651      -0.03862932      -0.46237446      -8.72853188
Si      10.56700661       1.65495881       3.65792886      -0.32301271       1.27655925      -0.58706106       0.21193981       0.03539257      -0.34254388      -8.70530017
Si      12.72114336       2.78450551       6.73878420      -1.36193592       0.30576143       0.07909557      -0.33735908      -0.10390760       0.01405954      -8.71959643
Si      10.39596275       3.96169637       0.55913412      -0.15505914      -0.14893200      -0.13076961       0.72352057      -0.17573464      -0.07136245      -8.66987443
Si      12.57946332       4.95998492       3.61442996       0.12308535       0.00271529      -0.25932612      -1.28328959       0.90026840       0.30394083      -8.71428425
Si      14.37592918       6.20074138       6.80218582       0.86222301      -0.82792921      -0.04778802       0.86744762      -0.36043544      -0.09752776      -8.71136532
Si      12.51237488       7.18386850       0.41368107       0.74850703       1.36477415       0.35613950      -0.01622377      -0.00936727       0.56408870      -8.68795923
Si      14.39542747       8.29510555       3.61329916      -0.19090194       0.26575478      -0.05613020       0.73335536       0.42677250      -0.23563492      -8.73083329
Si      16.44051731       9.39973848       6.67992327       1.09612548      -1.19404059      -0.27159835      -0.41091254       0.84597461       0.60848027      -8.67259379
Si       8.23297418       4.51875039       8.37129428       0.59618108       1.09803645       0.86428244      -0.13320892      -0.01698183       0.85474870      -7.73953524
55
Lattice="11.5478352 0.0 0.0 5.773917198490155 10.000722372470358 0.0 5.773916394327279 3.333571176804646 9.428767828939895" Properties=species:S:1:pos:R:3:momenta:R:3:forces:R:3:energies:R:1 spacegroup="_JSON {\"number\": 1, \"setting\": 1}" unit_cell=conventional occupancy="_JSON {\"0\": {\"Si\": 1.0}, \"1\": {\"Si\": 1.0}, \"2\": {\"Si\": 1.0}, \"3\": {\"Si\": 1.0}, \"4\": {\"Si\": 1.0}, \"5\": {\"Si\": 1.0}, \"6\": {\"Si\": 1.0}, \"7\": {\"Si\": 1.0}, \"8\": {\"Si\": 1.0}, \"9\": {\"Si\": 1.0}, \"10\": {\"Si\": 1.0}, \"11\": {\"Si\": 1.0}, \"12\": {\"Si\": 1.0}, \"13\": {\"Si\": 1.0}, \"14\": {\"Si\": 1.0}, \"15\": {\"Si\": 1.0}, \"16\": {\"Si\": 1.0}, \"17\": {\"Si\": 1.0}, \"18\": {\"Si\": 1.0}, \"19\": {\"Si\": 1.0}, \"20\": {\"Si\": 1.0}, \"21\": {\"Si\": 1.0}, \"22\": {\"Si\": 1.0}, \"23\": {\"Si\": 1.0}, \"24\": {\"Si\": 1.0}, \"25\": {\"Si\": 1.0}, \"26\": {\"Si\": 1.0}, \"27\": {\"Si\": 1.0}, \"28\": {\"Si\": 1.0}, \"29\": {\"Si\": 1.0}, \"30\": {\"Si\": 1.0}, \"31\": {\"Si\": 1.0}, \"32\": {\"Si\": 1.0}, \"33\": {\"Si\": 1.0}, \"34\": {\"Si\": 1.0}, \"35\": {\"Si\": 1.0}, \"36\": {\"Si\": 1.0}, \"37\": {\"Si\": 1.0}, \"38\": {\"Si\": 1.0}, \"39\": {\"Si\": 1.0}, \"40\": {\"Si\": 1.0}, \"41\": {\"Si\": 1.0}, \"42\": {\"Si\": 1.0}, \"43\": {\"Si\": 1.0}, \"44\": {\"Si\": 1.0}, \"45\": {\"Si\": 1.0}, \"46\": {\"Si\": 1.0}, \"47\": {\"Si\": 1.0}, \"48\": {\"Si\": 1.0}, \"49\": {\"Si\": 1.0}, \"50\": {\"Si\": 1.0}, \"51\": {\"Si\": 1.0}, \"52\": {\"Si\": 1.0}, \"53\": {\"Si\": 1.0}, \"54\": {\"Si\": 1.0}}" energy=-475.72052835665215 stress="-0.010575643211632074 0.0031326136782086015 0.0018229128615021727 0.0031326136782086015 -0.012550174555588768 0.0003470495188893675 0.0018229128615021727 0.0003470495188893675 -0.0064682638069122585" free_energy=-475.72052835665215 pbc="T T T"
Si       6.68203307       3.87984530       2.84729098      -1.15216961       0.50373262      -0.70995324      -0.09804389       0.15996223      -0.92530255      -8.73917149
Si       8.71024948       5.01655022       5.94542536       1.39234543       1.01995328      -1.68177828      -0.61838070       0.03733703      -0.21422925      -8.57497903
Si      10.39615908       6.03400761       9.00895062      -0.94284386       0.30676259       1.66416858       0.54034672       0.16407128      -0.05633779      -8.63229377
Si       8.69302727       7.19823921       2.79489783      -0.38428823       0.71493700       0.58381776      -0.47158499      -0.23137847      -0.46645301      -8.66341219
Si      10.58106104       8.26816343       5.81621760      -1.02660408      -1.68244686       0.73542369       0.19788929       0.54640682       0.42219917      -8.74047770
Si      12.30701927       9.40190396       9.07136082       0.96049557       0.35311751      -0.17371789       0.36515667      -0.35013395      -0.61606033      -8.76715704
Si      10.60320051      10.46364417       2.70006967       0.86890792      -0.10795618       0.39983289       0.12423441       0.74130419      -0.12668130      -8.71793826
Si      12.44683497      11.69327463       5.92013335       1.30867363      -0.77297061       0.68737008      -0.17186148      -0.85558476      -0.52047146      -8.65552953
Si      14.77340315      12.41643360       8.91809259      -0.68691648      -0.21427068       0.66742272      -0.34938377       0.20930097      -0.46168331      -8.02137707
Si      10.60006498       3.85546088       2.82139887       0.47362339      -0.64944548      -1.05245195      -0.10452197       0.69625734       0.48174118      -8.71302701
Si      12.58694381       5.01526677       5.98625636      -0.53388137      -0.15607671       0.29408949      -0.19398245      -0.17076835      -0.33112903      -8.73817441
Si      14.37589816       6.11643878       9.14182653      -0.43530030      -0.18145335      -0.56933626      -0.49267455       0.40024137      -0.20800912      -8.72669546
Si      12.54262834       7.18055463       2.80461244       0.51616840      -0.50968916      -1.07584592       0.22155752      -0.02954039      -0.26794003      -8.76668181
Si      14.45816408       8.29378859       5.99737970      -0.34939434      -0.55253754       0.46931676       0.05500700       0.71334305      -0.50167112      -8.73436488
Si      16.33132668       9.43649233       9.08549954      -0.00544167       0.88319116      -0.63978313       0.25307479       0.25989284      -0.24630664      -8.66319883
Si      14.47380524      10.56457997       2.82812058      -0.25394738       0.72445276       1.16778698      -0.33921051      -0.09397983      -0.29624345      -8.71662833
Si      16.45636788      11.70764907       5.96024175      -1.30961236      -1.25236562      -0.50969061       0.08628226      -0.74142115      -0.11119549      -8.64871508
Si      18.44619142      12.76990429       9.11022833      -0.65668749       0.66826863      -0.54023934      -0.58091792       0.04038766      -0.58205153      -8.71990685
Si      14.44160618       3.95477983       2.67545559       1.05780410      -1.80318005      -0.99615816      -0.38367423      -0.94044795       0.63973819      -8.72344378
Si      16.23684804       4.94927966       5.87500533       0.11035944      -0.69887051       0.34014962       0.64507034       1.03756945      -0.02617858      -8.67642690
Si      18.04112987       6.23533275       9.05457496      -0.00624065       0.23086111       0.48904905       0.35983232       0.19746527       0.62317254      -8.49492495
Si      16.35766790       7.19071500       2.72685645      -0.64761026      -1.16400735       0.23449509      -0.32202081       0.57145661       0.03638439      -8.70200906
Si      18.26566190       8.36501090       5.88907410      -0.21009507       0.99760174      -0.56383821       1.17630830      -0.68707567       0.33326952      -8.72444771
Si      20.13221200       9.34531305       8.98363934      -0.10574580       0.37218887       0.60773971       0.26908077       1.42660432       0.20475002      -8.71594427
Si      18.23751892      10.55374688       2.78484360       0.25169104       1.05816163      -0.61114699       0.37724720      -0.09780820       1.25893477      -8.68820834
Si      20.31794872      11.64050299       5.85092250      -0.79449474       1.28112538       1.34850403      -1.53627372      -0.62953861      -0.33796353      -8.69960766
Si      22.12249259      12.86527205       8.94635904       0.19118663      -0.86770510      -0.04454832       0.08125958      -0.60129575       0.63976893      -8.66866078
Si       0.81613723       0.68370130       0.53874185       0.40264680       0.39543291      -1.74421608      -0.32660851      -0.14691741      -1.21920525      -8.27687271
Si       2.94146416       1.66096624       3.46345988       0.70415824      -0.29733035      -0.29687070      -0.36130869       0.11491589       0.01872928      -8.69157323
Si       4.72020889       2.80589999       6.62796307       0.93827606      -0.79978859       0.74635033       1.43479089       0.02439711       0.49985366      -8.75061153
Si       2.78546919       3.91757275       0.37747445      -0.23435793       0.09771683       0.86462115      -0.49881966      -0.80381433      -0.10802909      -8.58403875
Si       4.74996685       4.99718285       3.52103826       0.96105825      -1.16541786       0.64544414       0.39211290       0.27397387       0.24863201      -8.75976423
Si       6.63893747       6.13775030       6.72343615      -0.57725624       0.57295826      -0.37912943       0.08727747      -0.41136315      -0.72280572      -8.52116622
Si       4.69031508       7.24909136       0.31823807      -0.09376915       0.89621365      -0.71065015      -0.14205051       0.38219081       0.62729695      -8.66607459
Si       6.72974745       8.28744355       3.61717039      -0.42627549       0.85216654       0.97468667       0.04370498       0.17815560      -1.36815558      -8.70972374
Si       8.70051177       9.40607574       6.67717030       0.26836215      -0.16286423      -0.58721021      -0.24413207       0.03673294      -0.65647912      -8.70840236
Si       4.88489532       0.47597486       0.32462523       0.10916046       0.09594307      -0.19928328       0.42504052      -0.33811954       0.41658942      -8.59869830
Si       6.72811381       1.68342936       3.51289746      -1.05220837      -0.95073054      -0.20049538      -0.14295383      -0.81052553       0.48732034      -8.71031071
Si       8.65230376       2.70494295       6.52603296      -0.03611559       0.19655217      -1.72568078       0.57355894       0.19985787       0.93692879      -8.56029738
Si       6.60841275       3.87265737       0.43635702      -0.06432548      -0.74950060      -0.69279859      -0.05321879      -0.34362382       0.41435032      -8.60481514
Si       8.62725957       4.93490593       3.55483541      -0.35845830       0.64095788       1.01381099       0.34036148       0.56240753       0.14851578      -8.66975834
Si      10.64247638       6.12164120       6.66393355      -0.17291742      -0.89655208       0.72874590      -0.20325921      -0.35427368       0.17464944      -8.64832760
Si       8.50706844       7.02700142       0.35938158       0.07857538       0.94826533       0.00609901       0.51161310       0.31477892       1.05243887      -8.63859298
Si      10.65228289       8.29063389       3.49317191       1.53281630      -0.74121072       0.69234016      -0.50263811      -0.10879508       0.05174340      -8.76219269
Si      12.47422923       9.38131447       6.71964268       0.88421507       0.09042490      -0.26529662       0.06167167       0.52162515      -0.25953193      -8.68412420
Si       8.72136399       0.59475319       0.42604704      -1.72328211      -0.22360608      -0.95975414       0.19488810      -0.10726780       0.86381742      -8.72688531
Si      10.56346659       1.71414034       3.61628439       0.27103134       0.77874226      -0.91312002       0.52051550      -0.73822656      -0.00099743      -8.74149181
Si      12.64047085       2.79404691       6.74306729      -1.65254820       0.00933285       0.06326446      -0.09170130      -0.29118057      -0.07383133      -8.72502825
Si      10.41378405       3.95046219       0.54374864       0.73162117      -0.19456598      -0.56705806       0.30733641       0.15945492      -0.48723008      -8.67481793
Si      12.54592077       4.98569141       3.60998269      -1.11231810       0.72484227      -0.00365197      -0.17654767      -0.07548921      -0.03869496      -8.70580093
Si      14.44853163       6.14048493       6.79731582       1.69418593      -1.45510817      -0.13169090       0.02473728      -0.28052333      -0.06845189      -8.73777370
Si      12.54590180       7.24538933       0.44876424       0.42423227       0.82194085       0.81755097      -0.42591827      -0.61738018      -0.09237077      -8.68165954
Si      14.41570364       8.32089746       3.60586111       0.92536340       0.59251281      -0.14223584       0.57543022      -0.05800536       0.09669369      -8.72405767
Si      16.46091029       9.37989910       6.69354008      -0.63704613       0.54872920       0.80632647      -1.57629903       1.22986828       0.62834184      -8.65533855
Si       8.26200039       4.57232510       8.44204473       0.58519383       0.87256433       1.63922376       0.16260001      -0.28548068       0.08583074      -7.76892775
55
Lattice="11.5478352 0.0 0.0 5.773917198490155 10.000722372470358 0.0 5.773916394327279 3.333571176804646 9.428767828939895" Properties=species:S:1:pos:R:3:momenta:R:3:forces:R:3:energies:R:1 spacegroup="_JSON {\"number\": 1, \"setting\": 1}" unit_cell=conventional occupancy="_JSON {\"0\": {\"Si\": 1.0}, \"1\": {\"Si\": 1.0}, \"2\": {\"Si\": 1.0}, \"3\": {\"Si\": 1.0}, \"4\": {\"Si\": 1.0}, \"5\": {\"Si\": 1.0}, \"6\": {\"Si\": 1.0}, \"7\": {\"Si\": 1.0}, \"8\": {\"Si\": 1.0}, \"9\": {\"Si\": 1.0}, \"10\": {\"Si\": 1.0}, \"11\": {\"Si\": 1.0}, \"12\": {\"Si\": 1.0}, \"13\": {\"Si\": 1.0}, \"14\": {\"Si\": 1.0}, \"15\": {\"Si\": 1.0}, \"16\": {\"Si\": 1.0}, \"17\": {\"Si\": 1.0}, \"18\": {\"Si\": 1.0}, \"19\": {\"Si\": 1.0}, \"20\": {\"Si\": 1.0}, \"21\": {\"Si\": 1.0}, \"22\": {\"Si\": 1.0}, \"23\": {\"Si\": 1.0}, \"24\": {\"Si\": 1.0}, \"25\": {\"Si\": 1.0}, \"26\": {\"Si\": 1.0}, \"27\": {\"Si\": 1.0}, \"28\": {\"Si\": 1.0}, \"29\": {\"Si\": 1.0}, \"30\": {\"Si\": 1.0}, \"31\": {\"Si\": 1.0}, \"32\": {\"Si\": 1.0}, \"33\": {\"Si\": 1.0}, \"34\": {\"Si\": 1.0}, \"35\": {\"Si\": 1.0}, \"36\": {\"Si\": 1.0}, \"37\": {\"Si\": 1.0}, \"38\": {\"Si\": 1.0}, \"39\": {\"Si\": 1.0}, \"40\": {\"Si\": 1.0}, \"41\": {\"Si\": 1.0}, \"42\": {\"Si\": 1.0}, \"43\": {\"Si\": 1.0}, \"44\": {\"Si\": 1.0}, \"45\": {\"Si\": 1.0}, \"46\": {\"Si\": 1.0}, \"47\": {\"Si\": 1.0}, \"48\": {\"Si\": 1.0}, \"49\": {\"Si\": 1.0}, \"50\": {\"Si\": 1.0}, \"51\": {\"Si\": 1.0}, \"52\": {\"Si\": 1.0}, \"53\": {\"Si\": 1.0}, \"54\": {\"Si\": 1.0}}" energy=-475.70494055775293 stress="-0.011529235199353586 0.004468488902244846 0.0034212906736054184 0.004468488902244846 -0.011741609865306047 0.00019993563318243418 0.0034212906736054184 0.00019993563318243418 -0.007298365672559799" free_energy=-475.70494055775293 pbc="T T T"
Si       6.63601144       3.89865480       2.78189828      -0.27208146      -0.02767837      -1.57605739       1.14774182      -0.75113013      -0.09445635      -8.70712113
Si       8.74855891       5.06396326       5.86237411      -0.09783313       0.65522579      -1.19202807      -1.24320948      -0.46967059       0.91566659      -8.56242743
Si      10.37004257       6.05177238       9.08473729      -0.01960805       0.26786445       1.07525441       0.64957356      -0.22779520      -0.63302786      -8.60504496
Si       8.66080950       7.22893533       2.80970356      -0.71198165       0.49816908       0.03967567       0.04552804      -0.06118771      -0.22417738      -8.68240844
Si      10.54680300       8.20784049       5.86754670      -0.08220215      -0.52631458       1.13204785       0.95164024       0.89365365       0.07522486      -8.71473268
Si      12.36416416       9.40735067       9.04178465       1.08671146      -0.10647797      -0.83720781      -0.14617475      -0.19606287      -0.14984848      -8.73403600
Si      10.64601101      10.47362856       2.71456474       0.58016128       0.20996638       0.13833431      -0.57933806      -0.33771951      -0.17500290      -8.72596388
Si      12.50160035      11.62390013       5.93020813       0.72038275      -1.70476572      -0.36306836      -0.39826149      -0.18122879      -0.74015549      -8.71357429
Si      14.72809460      12.42343151       8.92681323      -0.94180792       0.60573756      -0.42909601       0.02996337       0.66354140      -0.81523458      -7.99901380
Si      10.61284570       3.85850913       2.78753100      -0.11843182       0.85932511      -0.22234413      -0.61803598       1.03496604       0.53640092      -8.71694386
Si      12.55772149       5.00256693       5.98830400      -0.46807922      -0.29981522      -0.22442428       0.23722852      -0.05845298      -0.35697225      -8.72841849
Si      14.34311794       6.11978783       9.10689863      -0.62375563       0.22433837      -0.68834841       0.24881980       0.07093321       0.08046869      -8.73532931
Si      12.58225938       7.16007678       2.75082987       1.02286966      -0.14421813      -0.70668127       0.32265860       0.45718455       0.75906300      -8.76519240
Si      14.44726981       8.28554959       6.00125329       0.00520718       0.07779880      -0.32081558       0.32607716       0.08606660      -0.49033412      -8.72730424
Si      16.34096839       9.49035141       9.05467523       0.34107096       1.10912811      -0.28155917       0.12294596       0.01368666       0.72825148      -8.66839072
Si      14.44914434      10.59619642       2.86688261      -0.61825465       0.41246516       0.15213486      -0.06787122      -0.35702410      -0.90706722      -8.69865635
Si      16.39582700      11.62310338       5.92726468      -0.90836592      -1.70629034      -0.78143155       0.43166932       0.30431667      -0.24543503      -8.68664959
Si      18.38912157      12.79809351       9.06189943      -1.43255101       0.24983345      -1.19802619      -0.22589329      -0.55138546      -0.16444757      -8.72841798
Si      14.47626147       3.84061302       2.66457196       0.18773531      -2.18687173       0.79355216      -0.69287692       0.49362034       1.42613864      -8.67108528
Si      16.27553641       4.94197304       5.89090930       1.47794028       0.16712030       0.26003799       1.04606272       0.05583192      -0.04541660      -8.72297463
Si      18.05628717       6.25458161       9.09077653       0.58795838       0.45338155       0.58771745       0.35496877      -0.00369061      -0.55107302      -8.49073241
Si      16.32017642       7.15592546       2.73919997      -0.60255925      -0.12095934       0.20414908       0.38163044       0.71859312      -0.08722288      -8.68167230
Si      18.28686512       8.39384222       5.88260685       0.65827646       0.18261836       0.40535955      -0.20399614      -0.37918567       0.63874862      -8.74585524
Si      20.13721387       9.41188275       9.01577010       0.28540027       1.90915757       0.47360988       0.21814361       0.42101065      -0.36158965      -8.70053941
Si      18.26451487      10.60095087       2.78702341       0.75250286       0.64861577       0.33786040       0.26899296      -0.45741667      -0.11217731      -8.70344431
Si      20.22991276      11.68230178       5.90298124      -2.15897649       0.35030018       0.56821203       0.01620643      -0.50248540      -0.61317694      -8.70459457
Si      22.12853580      12.80928191       8.97030655      -0.08898788      -1.00633803       0.93979669      -0.41671045       0.41342968       0.55331211      -8.71597505
Si       0.81973901       0.69258534       0.42539140      -0.34004894      -0.15503116      -2.02471284      -0.58942139      -0.50704398       0.89615299      -8.29119107
Si       2.96375822       1.64676681       3.45675626       0.14687195      -0.32680189       0.20067857      -0.34722172      -0.21349611       0.63885019      -8.72392889
Si       4.81582018       2.76317200       6.67849039       2.37322580      -0.86787038       0.97827953       0.14786629      -0.10295141      -0.26354146      -8.75951136
Si       2.75388480       3.90179956       0.41105609      -0.90624040      -0.43711599       0.31076832      -0.22724385       0.20456001      -0.48291731      -8.59402604
Si       4.79818989       4.95090029       3.55948370       0.55768048      -0.51679517       0.69794899      -0.81641296       0.57419490      -0.23564758      -8.75242195
Si       6.62001357       6.15394300       6.68117513       0.01800105       0.10274678      -1.07022980       0.71953985      -0.17731397      -0.08878939      -8.49106418
Si       4.68795630       7.29626728       0.31068044       0.17314908       0.59487209       0.51221097       0.50747958      -0.80675723       0.96069788      -8.69790989
Si       6.70572762       8.33695781       3.60714795      -0.53573153       0.97878704      -1.34837628      -0.13339845      -0.04782526      -1.29913456      -8.71255322
Si       8.70128239       9.40368557       6.63240407      -0.27345091       0.16332762      -0.86904369      -0.36431761       0.38928299       0.31991166      -8.73923182
Si       4.89949482       0.46879370       0.33484625       0.27220369      -0.31506354       0.64022966      -0.25849961      -0.12285159       0.60764639      -8.56047151
Si       6.67556496       1.62092887       3.52426202      -0.76459652      -1.04934864       0.65558043       0.57698583       0.66944352       0.55505690      -8.71461065
Si       8.67396677       2.72840640       6.47848700       0.81403009       0.73165021      -0.02706424       0.37532394       0.32051923       1.15718051      -8.53018105
Si       6.60143958       3.83071329       0.41503378      -0.22391947      -0.63899565      -0.17589670      -0.12997457       0.47407825       0.18838768      -8.65289701
Si       8.62093227       4.98334181       3.59438929       0.06973168       1.05975433       0.10806887       0.16052171      -0.01452923      -1.32599527      -8.66641881
Si      10.62861264       6.06556597       6.71586134      -0.30353301      -1.11350378       1.32054489      -0.00159937       0.14379008       0.42771586      -8.65046608
Si       8.52922244       7.07940923       0.40317241       0.70810729       0.86832176       1.63260681       0.28140514      -0.37392580       0.89510771      -8.66052361
Si      10.70557184       8.25113426       3.52936964       0.38163094      -0.68645114       0.64237205      -0.94235557       0.18908137      -0.12485343      -8.71836389
Si      12.51344362       9.39718167       6.69872363       0.45201967       0.31568452      -0.47201869      -0.55202078      -0.26760611      -0.02213335      -8.70837286
Si       8.65161737       0.58109558       0.41445502      -0.75369204      -0.24775689       0.54183291       0.88589465       0.07552451       0.93806817      -8.67377296
Si      10.59572028       1.72237876       3.57305994       0.86608315      -0.46638064      -0.66394053       0.14916554      -0.71952611       0.26606641      -8.75308386
Si      12.54825868       2.78227405       6.73995002      -1.89107362      -0.45955688      -0.26535472      -0.18777248      -0.28717482      -0.39411839      -8.74237958
Si      10.45278369       3.95179770       0.49484422       0.52865089       0.34319133      -1.23880296      -0.56592399       0.52901159      -0.25297116      -8.66288531
Si      12.49517570       5.00880003       3.60439283      -0.57720159      -0.02080147      -0.25467751       0.79129238      -0.75670775      -0.21817338      -8.65776837
Si      14.52196917       6.06307932       6.78624750       0.79366393      -1.27325326      -0.31810570      -1.16083007       0.56255759      -0.17989529      -8.71635371
Si      12.54861244       7.26668806       0.47511348      -0.36230541       0.06798740      -0.05271650      -0.57271918      -0.31187222      -0.99388266      -8.68621881
Si      14.47741894       8.34472625       3.60375064       1.22649731       0.25443543       0.07433120      -0.21486092      -0.29175634       0.14418884      -8.72055479
Si      16.37827186       9.44275132       6.74761769      -2.16769509       1.49840803       0.97325889      -0.24945261      -0.13137555      -0.44147238      -8.73432260
Si       8.30519471       4.60821729       8.52148259       1.15720095       0.54424337       1.20557396       0.51106668      -0.09172937      -0.61796485      -7.69695792
55
Lattice="11.5478352 0.0 0.0 5.773917198490155 10.000722372470358 0.0 5.773916394327279 3.333571176804646 9.428767828939895" Properties=species:S:1:pos:R:3:momenta:R:3:forces:R:3:energies:R:1 spacegroup="_JSON {\"number\": 1, \"setting\": 1}" unit_cell=conventional occupancy="_JSON {\"0\": {\"Si\": 1.0}, \"1\": {\"Si\": 1.0}, \"2\": {\"Si\": 1.0}, \"3\": {\"Si\": 1.0}, \"4\": {\"Si\": 1.0}, \"5\": {\"Si\": 1.0}, \"6\": {\"Si\": 1.0}, \"7\": {\"Si\": 1.0}, \"8\": {\"Si\": 1.0}, \"9\": {\"Si\": 1.0}, \"10\": {\"Si\": 1.0}, \"11\": {\"Si\": 1.0}, \"12\": {\"Si\": 1.0}, \"13\": {\"Si\": 1.0}, \"14\": {\"Si\": 1.0}, \"15\": {\"Si\": 1.0}, \"16\": {\"Si\": 1.0}, \"17\": {\"Si\": 1.0}, \"18\": {\"Si\": 1.0}, \"19\": {\"Si\": 1.0}, \"20\": {\"Si\": 1.0}, \"21\": {\"Si\": 1.0}, \"22\": {\"Si\": 1.0}, \"23\": {\"Si\": 1.0}, \"24\": {\"Si\": 1.0}, \"25\": {\"Si\": 1.0}, \"26\": {\"Si\": 1.0}, \"27\": {\"Si\": 1.0}, \"28\": {\"Si\": 1.0}, \"29\": {\"Si\": 1.0}, \"30\": {\"Si\": 1.0}, \"31\": {\"Si\": 1.0}, \"32\": {\"Si\": 1.0}, \"33\": {\"Si\": 1.0}, \"34\": {\"Si\": 1.0}, \"35\": {\"Si\": 1.0}, \"36\": {\"Si\": 1.0}, \"37\": {\"Si\": 1.0}, \"38\": {\"Si\": 1.0}, \"39\": {\"Si\": 1.0}, \"40\": {\"Si\": 1.0}, \"41\": {\"Si\": 1.0}, \"42\": {\"Si\": 1.0}, \"43\": {\"Si\": 1.0}, \"44\": {\"Si\": 1.0}, \"45\": {\"Si\": 1.0}, \"46\": {\"Si\": 1.0}, \"47\": {\"Si\": 1.0}, \"48\": {\"Si\": 1.0}, \"49\": {\"Si\": 1.0}, \"50\": {\"Si\": 1.0}, \"51\": {\"Si\": 1.0}, \"52\": {\"Si\": 1.0}, \"53\": {\"Si\": 1.0}, \"54\": {\"Si\": 1.0}}" energy=-475.7597545722467 stress="-0.01046525927693064 0.0027941163967863157 0.0019965295537232187 0.0027941163967863157 -0.010432988518395823 -0.00037687598473721537 0.0019965295537232187 -0.00037687598473721537 -0.007815322439033568" free_energy=-475.7597545722467 pbc="T T T"
Si       6.66480797       3.86953856       2.71000542       1.22938444      -0.96837922      -0.88536411       0.60316648      -0.30994877       0.96685542      -8.68647620
Si       8.69909895       5.08017516       5.84082479      -1.63369454      -0.01534728       0.36675857      -0.61158759      -0.38852152       0.88192432      -8.60478323
Si      10.39008138       6.05501317       9.11946142       0.67354883      -0.14957421       0.34726917       0.21590787      -0.24501148      -0.24323988      -8.60529898
Si       8.62918961       7.25553954       2.80940761      -0.43924913       0.56373127       0.08967655       0.25565614       0.12511061       0.32609913      -8.72690639
Si      10.57723165       8.21125528       5.92712282       1.10865570       0.55995846       1.08331430       0.40781814       0.49793895      -0.15324233      -8.72024796
Si      12.41507883       9.39868324       9.00199935       0.86307848      -0.13871744      -0.48141870      -0.11543881       0.13717446       0.61423607      -8.68149642
Si      10.64907297      10.46387703       2.71978290      -0.48384763      -0.64191645       0.20004158      -0.64332314      -0.56687590       0.37111839      -8.71697323
Si      12.53211591      11.54198606       5.88956737       0.59618280      -1.14226870      -0.97914309       0.18806458       0.87332831       0.08668199      -8.73183013
Si      14.68201546      12.47116463       8.88079922      -0.78496606       0.95167645      -1.09260627       0.14855145      -0.33662831       0.10053761      -8.03319954
Si      10.58254861       3.93188699       2.79074903      -0.97450570       1.64612778       0.20297627      -0.34999805      -0.10339532      -0.02590445      -8.72880621
Si      12.54190630       4.98369075       5.96345095      -0.18328725      -0.43968364      -0.69536947       0.04746127      -0.13090861      -0.24111964      -8.72688101
Si      14.32500486       6.12912850       9.07675935      -0.01630546       0.05142619      -0.41364752       0.44153172      -0.24052747       0.25697487      -8.72876162
Si      12.64323173       7.17023111       2.74655036       1.15090459       0.48906834       0.51127576      -0.27151236       0.28398547       0.62567457      -8.73811715
Si      14.45688876       8.28537716       5.96930420       0.26027314      -0.20615144      -0.80190477      -0.06844267      -0.39309246      -0.10960777      -8.72783551
Si      16.35756743       9.54597362       9.07193823       0.14684278       0.93240198       0.90348853      -0.44432237      -0.29636389       0.57021251      -8.70147004
Si      14.41972606      10.60155389       2.84346346      -0.39426970      -0.24042283      -0.90354929       0.35168445      -0.47019802      -0.33769957      -8.71722009
Si      16.36437447      11.55995629       5.87463701      -0.32679253      -0.46793518      -1.24076264       0.27805828       1.17380697      -0.28966785      -8.70109171
Si      18.31696561      12.78983561       9.00148723      -1.10193082      -0.50970097      -0.93400101       0.59600041      -0.32860014       0.49324028      -8.70486444
Si      14.45951234       3.75897410       2.75016129      -0.80388020      -0.70628099       2.16320381      -0.57780039       1.31268502       0.23765206      -8.68049601
Si      16.38592162       4.94315590       5.90532638       2.46359622      -0.24766611       0.33589413       0.00384941      -0.44057767       0.12035695      -8.76794228
Si      18.09434375       6.27182146       9.08987412       0.68907049       0.08352269      -0.75238390      -0.30972942      -0.45401850      -1.04255005      -8.50519826
Si      16.30872245       7.17179220       2.74607791       0.23416209       0.58838047       0.07054837       0.63303583       0.17301494      -0.02784626      -8.72481190
Si      18.29677286       8.39316908       5.91520773      -0.52142148      -0.11858527       0.55388215      -1.12776258      -0.00822653      -0.44509552      -8.67592823
Si      20.15799016       9.51268237       9.02296761       0.44741822       1.64642641      -0.23934262      -0.01067321      -0.70403740      -0.50224064      -8.67293185
Si      18.31167964      10.61583264       2.78518313       0.96446307      -0.08236160      -0.62895416      -0.05698281      -0.44793651      -0.96872468      -8.71445398
Si      20.13765134      11.68602114       5.91111238      -1.03626337      -0.12371795      -0.19684559       1.27050804      -0.15203789      -0.35150096      -8.65234661
Si      22.10511719      12.77733905       9.03404878      -0.82178605      -0.20654769       1.32907826      -0.47272331       0.42006044      -0.07590287      -8.73288066
Si       0.78529423       0.66899135       0.36639635      -0.77462221      -0.60471288      -0.10349385       0.17728154       0.03028897       1.36597742      -8.26970527
Si       2.96142479       1.61535297       3.49656386      -0.16037163      -0.94909249       1.35010803      -0.05146324      -0.49002405       0.74145734      -8.74191088
Si       4.92586454       2.71450860       6.71455084       1.46939205      -0.93697989       0.34827586      -1.22941022       0.08602429      -0.45652224      -8.68308408
Si       2.70987378       3.89837939       0.41632853      -0.50324682       0.47578479       0.07517477       0.79163631       0.85764792       0.21622584      -8.56648096
Si       4.79698524       4.94373470       3.58037000      -0.47467835       0.16602332      -0.01034615      -0.32486783       0.27189145      -0.63354383      -8.73488226
Si       6.65422428       6.15729855       6.63126890       1.33887330       0.11281950      -0.64867353       0.88850217       0.16575929       0.62770967      -8.55334907
Si       4.72164617       7.28873100       0.37278808       1.15644864      -0.92929539       1.74173469       0.66705491      -0.96919973       0.48421907      -8.72629006
Si       6.67342498       8.38320091       3.50700966      -0.64676110       0.70672668      -2.02665587       0.05857282      -0.34515384       0.42780575      -8.70884847
Si       8.67836377       9.42871418       6.60786728      -0.47177632       0.77078239       0.05485960       0.12374208       0.29504700       0.78318214      -8.75153192
Si       4.89677622       0.45245046       0.38805049      -0.46222823      -0.22923339       1.25835155      -0.58423071       0.17766000       0.08843973      -8.52775716
Si       6.66235142       1.59989534       3.57256797       0.28525413       0.30109009       0.95530823       0.66197465       0.86911268      -0.35596351      -8.71488440
Si       8.72183211       2.77160460       6.51307281       0.82387832       0.73897105       1.12207914      -0.35214033      -0.35699499       0.26367575      -8.52854484
Si       6.58704542       3.82007689       0.40572210      -0.24436788       0.27463295      -0.31380601       0.18599992       0.62684998      -0.32131171      -8.68629107
Si       8.62618173       5.03346655       3.54535450       0.03407877       0.76685618      -1.86129714      -0.22646019      -0.34280023      -0.85107366      -8.69318512
Si      10.61261702       6.01859638       6.79403754      -0.31022938      -0.57482301       1.42901715      -0.01082794       0.53904030      -0.47129199      -8.63358101
Si       8.57353113       7.11067062       0.50812181       0.90106718       0.37166724       1.98401821      -0.04136375      -0.19750108      -0.60252182      -8.65577685
Si      10.69267361       8.22345899       3.55779041      -0.75621159      -0.36109886       0.44344634      -0.46918366       0.21745541      -0.10839204      -8.68670742
Si      12.51668507       9.39394535       6.67447087      -0.25346061      -0.57302954      -0.43012847      -0.24697535      -0.76052955       0.07130079      -8.74590050
Si       8.63952845       0.57148501       0.46786962       0.11338379      -0.11532747       1.21263792       0.18885949       0.09286084      -0.17480166      -8.69025485
Si      10.63799996       1.68140124       3.54526287       0.56634830      -0.85114660      -0.48820487      -0.54190379       0.22931390      -0.09889983      -8.72298081
Si      12.44271927       2.74995052       6.70724054      -2.03719154      -0.69436990      -1.01546460       0.20038161       0.02400064      -0.50663212      -8.74582663
Si      10.45506138       3.99022272       0.42758296      -0.43485439       1.06308334      -1.16814284      -0.53114916       0.28607337       0.36068561      -8.66306978
Si      12.49940450       4.98143596       3.58380662       0.75518796      -0.90023194      -0.49093891       0.82616807      -0.27151727      -0.06219161      -8.70099447
Si      14.51859458       6.02106251       6.76012821      -0.80415492      -0.33345673      -0.72380030      -0.69188276       0.54281521      -0.34429488      -8.71347394
Si      12.51125525       7.26474593       0.43609513      -0.92402693      -0.02593473      -1.26395810      -0.01432711       0.14523850      -0.32055826      -8.72381250
Si      14.52598786       8.35048886       3.61096736       0.50661030       0.05542634       0.13978883      -0.66640163       0.05406944      -0.09708502      -8.72869934
Si      16.27138998       9.49952645       6.77718305      -1.61677548       0.40782639       0.15511764       0.89799853      -1.11487872      -0.44987204      -8.68357645
Si       8.38196417       4.63937546       8.56122160       1.61905370       0.75957946       0.36287836      -0.06658178       0.35725149      -0.41294461      -7.66910485
55
Lattice="11.5478352 0.0 0.0 5.773917198490155 10.000722372470358 0.0 5.773916394327279 3.333571176804646 9.428767828939895" Properties=species:S:1:pos:R:3:momenta:R:3:forces:R:3:energies:R:1 spacegroup="_JSON {\"number\": 1, \"setting\": 1}" unit_cell=conventional occupancy="_JSON {\"0\": {\"Si\": 1.0}, \"1\": {\"Si\": 1.0}, \"2\": {\"Si\": 1.0}, \"3\": {\"Si\": 1.0}, \"4\": {\"Si\": 1.0}, \"5\": {\"Si\": 1.0}, \"6\": {\"Si\": 1.0}, \"7\": {\"Si\": 1.0}, \"8\": {\"Si\": 1.0}, \"9\": {\"Si\": 1.0}, \"10\": {\"Si\": 1.0}, \"11\": {\"Si\": 1.0}, \"12\": {\"Si\": 1.0}, \"13\": {\"Si\": 1.0}, \"14\": {\"Si\": 1.0}, \"15\": {\"Si\": 1.0}, \"16\": {\"Si\": 1.0}, \"17\": {\"Si\": 1.0}, \"18\": {\"Si\": 1.0}, \"19\": {\"Si\": 1.0}, \"20\": {\"Si\": 1.0}, \"21\": {\"Si\": 1.0}, \"22\": {\"Si\": 1.0}, \"23\": {\"Si\": 1.0}, \"24\": {\"Si\": 1.0}, \"25\": {\"Si\": 1.0}, \"26\": {\"Si\": 1.0}, \"27\": {\"Si\": 1.0}, \"28\": {\"Si\": 1.0}, \"29\": {\"Si\": 1.0}, \"30\": {\"Si\": 1.0}, \"31\": {\"Si\": 1.0}, \"32\": {\"Si\": 1.0}, \"33\": {\"Si\": 1.0}, \"34\": {\"Si\": 1.0}, \"35\": {\"Si\": 1.0}, \"36\": {\"Si\": 1.0}, \"37\": {\"Si\": 1.0}, \"38\": {\"Si\": 1.0}, \"39\": {\"Si\": 1.0}, \"40\": {\"Si\": 1.0}, \"41\": {\"Si\": 1.0}, \"42\": {\"Si\": 1.0}, \"43\": {\"Si\": 1.0}, \"44\": {\"Si\": 1.0}, \"45\": {\"Si\": 1.0}, \"46\": {\"Si\": 1.0}, \"47\": {\"Si\": 1.0}, \"48\": {\"Si\": 1.0}, \"49\": {\"Si\": 1.0}, \"50\": {\"Si\": 1.0}, \"51\": {\"Si\": 1.0}, \"52\": {\"Si\": 1.0}, \"53\": {\"Si\": 1.0}, \"54\": {\"Si\": 1.0}}" energy=-475.37797445661056 stress="-0.008959842020998044 0.0010676104611601705 0.0006610919186678765 0.0010676104611601705 -0.009369158117233373 -0.0009367043620490212 0.0006610919186678765 -0.0009367043620490212 -0.008799448940838566" free_energy=-475.37797445661056 pbc="T T T"
Si       6.73788550       3.81816232       2.70067859       1.25842795      -0.76040100       0.40957879      -0.57156792       0.59138131       0.49399774      -8.69851874
Si       8.60758216       5.06551062       5.88032244      -1.45093273      -0.54497320       0.85325750       0.96108525      -0.38420843      -0.23444797      -8.58002104
Si      10.42823728       6.04186071       9.13654987       0.69456248      -0.25299322       0.42911129      -0.12342255       0.14405012       0.23198376      -8.59741618
Si       8.61399794       7.29071143       2.83162014      -0.19119490       0.75713486       0.78083180       0.05914896       0.03814446       0.39570996      -8.72177360
Si      10.63362491       8.25122022       5.97532565       0.66591370       0.77738188       0.68412775      -1.04142733      -0.22854052      -0.41876660      -8.70000573
Si      12.45907060       9.39880997       9.00367242       0.86971281       0.16783987       0.53808738       0.10279498       0.23041417       0.57257716      -8.67340095
Si      10.60768782      10.41646331       2.75334735      -0.89923812      -0.96934023       1.18568945       0.11922655       0.19926503       0.75601342      -8.71088549
Si      12.57314018      11.51759325       5.85639465       0.95449003       0.17963217      -0.03962960       0.13003409       0.74745077       1.00736403      -8.70236874
Si      14.64484710      12.49927540       8.84246460      -0.67140030       0.04454161      -0.10421993      -0.00696295      -0.61639570       1.11017793      -8.03774426
Si      10.53066311       4.00103224       2.79233506      -0.72440681       0.76629884      -0.27564756       0.71324032      -0.96952231      -0.53720909      -8.66103000
Si      12.52803926       4.95505777       5.92005325      -0.44887780      -0.63928049      -0.90006162      -0.34636990      -0.07214603      -0.00403396      -8.71996490
Si      14.33688942       6.12304585       9.06299262       0.36784421      -0.24841250      -0.17698758       0.04766444      -0.10374185      -0.00299685      -8.72701171
Si      12.68326957       7.19996439       2.78590082       0.18913225       0.49829779       0.75461454      -0.98297669      -0.28149554      -0.28818368      -8.66732212
Si      14.46171480       8.25806826       5.92816615      -0.16493540      -0.82104845      -0.66943166      -0.39943873      -0.32939435       0.26676792      -8.74619549
Si      16.34185435       9.58016882       9.12702425      -0.79707747       0.32003081       0.89809494      -0.60370164      -0.48281190      -0.58548813      -8.71498940
Si      14.41402289      10.57347443       2.79613587       0.17470696      -0.74528867      -0.66002630       0.33916594      -0.13047222       0.57578763      -8.72489376
Si      16.35088904      11.57352284       5.80216152      -0.33353851       0.74587168      -1.41226579      -0.28116761       0.25173067       0.13143360      -8.72008053
Si      18.28203847      12.75940745       8.97296243      -0.28167223      -0.45494221      -0.17288783       0.39767842       0.43189461       0.41422507      -8.66916504
Si      14.40318440       3.76440803       2.85770397      -1.09788751       0.64378786       1.65284207       0.40015692       0.26092206      -0.88473667      -8.71115030
Si      16.49891607       4.91588405       5.92608536       1.55827383      -0.69110944       0.39476682      -1.10588299      -0.04375622      -0.10883894      -8.71505282
Si      18.11364760       6.26008304       9.01739590       0.02325215      -0.43794936      -1.77002191      -0.40437829      -0.08903934      -0.08350548      -8.54864174
Si      16.34045518       7.20150167       2.75403495       0.82451759       0.39870802       0.35062432       0.03946868      -0.39729194       0.41583951      -8.75007550
Si      18.23116596       8.39270525       5.92027108      -1.77053220       0.20829257      -0.43018500      -0.30173305       0.39576102      -0.71584148      -8.63181260
Si      20.18021975       9.56715450       8.99669166       0.40480635       0.38202843      -0.59566147       0.00608795      -0.88725060       0.15586324      -8.69015391
Si      18.35453989      10.59928428       2.71868629       0.56432635      -0.43227183      -1.70618288      -0.45744040       0.00558306      -0.15971635      -8.73477938
Si      20.13170744      11.67811739       5.89572623       0.72395535      -0.09347303      -0.18873880       0.92496298       0.17357354       0.43647967      -8.66654591
Si      22.04953252      12.77124236       9.09533157      -1.12104704      -0.24935894       0.91420821       0.22141444      -0.43574913      -0.44315074      -8.72122488
Si       0.76188846       0.64573640       0.40162746       0.01972647      -0.18457194       1.11657242       0.70274343       0.40428090       0.04281823      -8.29712556
Si       2.95337477       1.55287654       3.58699650      -0.13009620      -1.24682217       1.83558650       0.01003543       0.22301474      -0.28833419      -8.74509387
Si       4.95135477       2.67132155       6.71884085      -0.50647600      -0.66120805      -0.10442323      -1.24278209       0.27316947      -0.13633196      -8.66234871
Si       2.71772498       3.95377250       0.43381749       0.76728071       1.50359349       0.62834526       0.65437833       0.32890944       0.36334514      -8.50422241
Si       4.77261249       4.95752880       3.55957272      -0.21678854       0.26088821      -0.63724206       0.60063386      -0.12415068      -0.06863512      -8.68513985
Si       6.74786493       6.17210110       6.62506845       1.90027516       0.48945928       0.43258271      -0.40392919       0.31641633       0.68491857      -8.63260593
Si       4.80165168       7.21388874       0.46760889       1.70297669      -1.65746181       1.53454899      -0.08229012       0.07162926      -0.82194741      -8.72543482
Si       6.64610981       8.40555330       3.43209114      -0.30457803       0.14916293      -0.58970611       0.40335909      -0.31756894       1.36308862      -8.66078089
Si       8.66083907       9.47286057       6.63716617      -0.18994474       0.73534493       0.92833359       0.15198144      -0.38755060       0.24934076      -8.75082890
Si       4.85383840       0.44597564       0.44816502      -1.06544945      -0.06773523       0.87212159      -0.15854285      -0.01430072      -0.52255912      -8.52485628
Si       6.69652636       1.63790792       3.59444425       0.88765374       0.87862454      -0.32074234       0.15037037      -0.19093363      -1.08667313      -8.71336627
Si       8.74652316       2.79093208       6.56808187       0.04698383      -0.07724640       0.72138937      -0.62280367      -0.64659491      -0.71015370      -8.52659612
Si       6.58783643       3.85344677       0.37774212       0.39222574       0.85717301      -0.66025454       0.63507410       0.06955096       0.03596072      -8.68274392
Si       8.61377294       5.06084012       3.43784190      -0.58905226       0.30236527      -1.77817747      -0.51714881      -0.24299583       0.93125613      -8.67736137
Si      10.59576369       6.00968607       6.83744752      -0.33028410       0.22268543       0.01034405      -0.00442394       0.48169165      -1.28258524      -8.57903210
Si       8.61495102       7.12752715       0.57360894       0.57450430       0.35460192       0.32603281      -0.45041769       0.13494845      -1.29510355      -8.60488828
Si      10.64527111       8.21103475       3.58058754      -0.83859889      -0.15264442       0.51056132       0.36231667       0.05748067       0.22052323      -8.68227887
Si      12.50523413       9.34180866       6.65608745       0.06010613      -1.17935567      -0.21814537       0.68758741       0.14915523       0.27874847      -8.74907792
Si       8.64282526       0.56896012       0.50921967      -0.15568113       0.01741047       0.09981803      -0.47026911       0.08103524      -1.18037061      -8.70091043
Si      10.64361742       1.65317174       3.50781158      -0.36381614      -0.12019604      -1.08314903      -0.57984334       0.64112314      -0.64482121      -8.66255602
Si      12.35613095       2.71930748       6.63980620      -0.97864523      -0.37971262      -1.39362216       1.28786264       0.38230148       0.12489274      -8.72346495
Si      10.42045568       4.04763339       0.38468781      -0.70368321       0.91146888      -0.39721108       0.17345687      -0.54883482       0.62640981      -8.64678006
Si      12.55840878       4.93563591       3.55880581       1.14660575      -0.58507172      -0.38713359      -0.54024413       0.75063660       0.23206724      -8.75206975
Si      14.46560367       6.01679455       6.71000440      -0.91475693       0.00761089      -1.11921375       0.48142106      -0.10417019      -0.07840146      -8.70359116
Si      12.47499417       7.27095695       0.37488216      -0.22877985       0.25808878      -0.75010202       0.84896304       0.11839638       0.91490697      -8.70732780
Si      14.52927168       8.35866867       3.61050312      -0.29293341       0.28177416      -0.22482365      -0.32061552       0.14573064      -0.34937726      -8.74484910
Si      16.22603540       9.48313602       6.77416918      -0.07698987      -0.84393633      -0.17493002       1.00794299      -0.38638708      -0.07607360      -8.67124546
Si       8.45601439       4.69563269       8.57023913       1.06703448       1.37670642       0.07875282      -0.60047616       0.31566211      -0.02421377      -7.71917293
55
Lattice="11.5478352 0.0 0.0 5.773917198490155 10.000722372470358 0.0 5.773916394327279 3.333571176804646 9.428767828939895" Properties=species:S:1:pos:R:3:momenta:R:3:forces:R:3:energies:R:1 spacegroup="_JSON {\"number\": 1, \"setting\": 1}" unit_cell=conventional occupancy="_JSON {\"0\": {\"Si\": 1.0}, \"1\": {\"Si\": 1.0}, \"2\": {\"Si\": 1.0}, \"3\": {\"Si\": 1.0}, \"4\": {\"Si\": 1.0}, \"5\": {\"Si\": 1.0}, \"6\": {\"Si\": 1.0}, \"7\": {\"Si\": 1.0}, \"8\": {\"Si\": 1.0}, \"9\": {\"Si\": 1.0}, \"10\": {\"Si\": 1.0}, \"11\": {\"Si\": 1.0}, \"12\": {\"Si\": 1.0}, \"13\": {\"Si\": 1.0}, \"14\": {\"Si\": 1.0}, \"15\": {\"Si\": 1.0}, \"16\": {\"Si\": 1.0}, \"17\": {\"Si\": 1.0}, \"18\": {\"Si\": 1.0}, \"19\": {\"Si\": 1.0}, \"20\": {\"Si\": 1.0}, \"21\": {\"Si\": 1.0}, \"22\": {\"Si\": 1.0}, \"23\": {\"Si\": 1.0}, \"24\": {\"Si\": 1.0}, \"25\": {\"Si\": 1.0}, \"26\": {\"Si\": 1.0}, \"27\": {\"Si\": 1.0}, \"28\": {\"Si\": 1.0}, \"29\": {\"Si\": 1.0}, \"30\": {\"Si\": 1.0}, \"31\": {\"Si\": 1.0}, \"32\": {\"Si\": 1.0}, \"33\": {\"Si\": 1.0}, \"34\": {\"Si\": 1.0}, \"35\": {\"Si\": 1.0}, \"36\": {\"Si\": 1.0}, \"37\": {\"Si\": 1.0}, \"38\": {\"Si\": 1.0}, \"39\": {\"Si\": 1.0}, \"40\": {\"Si\": 1.0}, \"41\": {\"Si\": 1.0}, \"42\": {\"Si\": 1.0}, \"43\": {\"Si\": 1.0}, \"44\": {\"Si\": 1.0}, \"45\": {\"Si\": 1.0}, \"46\": {\"Si\": 1.0}, \"47\": {\"Si\": 1.0}, \"48\": {\"Si\": 1.0}, \"49\": {\"Si\": 1.0}, \"50\": {\"Si\": 1.0}, \"51\": {\"Si\": 1.0}, \"52\": {\"Si\": 1.0}, \"53\": {\"Si\": 1.0}, \"54\": {\"Si\": 1.0}}" energy=-475.0296976156578 stress="-0.008561311614067623 0.0021980108544052495 0.0016704053674268492 0.0021980108544052495 -0.010882086461975485 -0.00010932875957741588 0.0016704053674268492 -0.00010932875957741588 -0.006843478800126289" free_energy=-475.0296976156578 pbc="T T T"
Si       6.77161927       3.80789221       2.72599634      -0.12559626       0.43884580       0.28599021      -1.14894579       0.83564073      -0.54589103      -8.71057856
Si       8.58098888       5.02172572       5.90733492       0.53765767      -1.07290105       0.06869608       1.32343753      -0.16059607      -0.65126995      -8.54670017
Si      10.46052632       6.03937904       9.16535034       0.55918445       0.24551435       0.56157923      -0.04066669       0.47480234      -0.17750238      -8.57707845
Si       8.60457002       7.32666857       2.87826765      -0.17026670       0.49438502       0.78551495       0.05386090      -0.41908211      -0.41435988      -8.69678621
Si      10.62006531       8.27901421       5.99437713      -1.18788982       0.27053234       0.06882552      -1.03347468      -0.27245828      -0.30396575      -8.71467948
Si      12.51071206       9.41493407       9.04454095       1.10655333       0.39224119       0.80857818       0.11779595       0.00831201      -0.25084796      -8.69164109
Si      10.57302220      10.38199354       2.83734227      -0.28477576      -0.20586690       1.80079207       0.65532298       0.73088056      -0.08223140      -8.69342209
Si      12.61969341      11.54808633       5.88822858       0.60104778       0.81419088       1.05406498      -0.72821769       0.06789833       0.23713182      -8.70615363
Si      14.60612635      12.48957575       8.87885601      -0.86085308      -0.12850604       1.35849707      -0.22672327       0.49419330       0.58175807      -8.08568416
Si      10.52432940       4.00407841       2.75738605       0.45351177      -0.56966216      -0.99625255       0.59555950      -0.64142212      -0.29242663      -8.66576245
Si      12.49117576       4.92311460       5.87601501      -0.90915121      -0.46372942      -0.70060322      -0.15763149       0.37230508       0.30326367      -8.73023823
Si      14.35453002       6.10941749       9.04785235       0.26287702      -0.21087166      -0.50199304      -0.11474059       0.12628859      -0.39439740      -8.72265137
Si      12.65351166       7.21198179       2.80798366      -1.28682090      -0.05497918       0.00910236      -0.81903286      -0.33115342      -0.58966380      -8.66475059
Si      14.44165283       8.20763046       5.90402870      -0.46948411      -0.97678036      -0.26350313       0.10617148       0.15647914       0.21575254      -8.76377269
Si      16.28950108       9.58027335       9.14330973      -0.88835978      -0.26834614      -0.37248737       0.57837136      -0.29702398      -0.94309873      -8.69788967
Si      14.43249549      10.53599512       2.78143720       0.44204990      -0.54992195      -0.05424521      -0.00678511       0.38556488      -0.01546692      -8.74699859
Si      16.32093266      11.60882377       5.73691315      -0.75216076       0.39608348      -1.01348695      -0.05425412      -0.54785276       0.37458549      -8.70820457
Si      18.27600064      12.75836542       8.97378934      -0.07382420       0.47169857       0.08896177      -0.10078677       0.63148066      -0.03666176      -8.67114962
Si      14.37728381       3.79189540       2.90369386       0.33145291       0.18655840       0.03584778       1.20335787      -0.56367468      -1.10831041      -8.66872336
Si      16.53553864       4.88554803       5.93936087      -0.16364481      -0.32869594       0.06577606      -1.10046162       0.48282795      -0.28200281      -8.64495562
Si      18.10467496       6.24311112       8.94090103      -0.26887971      -0.03417643      -0.75855332      -0.02425142       0.58925459       1.41141987      -8.48603109
Si      16.37622847       7.20411299       2.78970066       0.39782600      -0.32018861       0.95725772      -0.50218740      -0.46969557       0.20585699      -8.73597887
Si      18.14453497       8.41794378       5.87490272      -1.16805810       0.68466443      -1.15636254       1.11573570       0.12800448      -0.13553918      -8.65095557
Si      20.20415921       9.55737473       8.98276802       0.54323373      -0.64681888       0.25480346       0.13604743      -0.45072891       0.87478181      -8.71284656
Si      18.36561495      10.58105542       2.64568727      -0.14781859      -0.20292330      -0.63991532      -0.48713889       0.24285436       1.48316215      -8.67889196
Si      20.19380584      11.68052522       5.91138245       1.38803987       0.15388525       0.87238363      -0.09521456       0.04047178       0.73620490      -8.72857311
Si      22.01002703      12.73744902       9.12514439      -0.21556035      -1.04059665       0.20508426       0.86321518      -0.43351974      -0.50624143      -8.67683747
Si       0.78605059       0.64829801       0.43708423       0.79744911       0.18340059      -0.20862644       0.30523214       0.01530451      -1.62880740      -8.29714081
Si       2.94346867       1.50503658       3.65729897      -0.31757303      -0.42389826       0.61372226      -0.25055229       0.82391193      -1.15665901      -8.68888004
Si       4.88810257       2.64784353       6.71289021      -1.61091355      -0.21018792      -0.02353911      -0.06529602       0.37045350       0.25648261      -8.71366563
Si       2.77298156       4.03244572       0.47669542       1.14531478       1.22421762       0.91490194      -0.10775240      -0.73656599       0.00508928      -8.44990491
Si       4.78845094       4.96278110       3.53326931       0.83380357      -0.12391675      -0.19565191       0.63944324      -0.36641386       0.59286677      -8.66502997
Si       6.81451832       6.20984295       6.66432860       0.40545689       0.89469669       0.79327011      -1.29790303       0.08132254      -0.37389517      -8.61481537
Si       4.87663507       7.14053427       0.50842093       0.95362887      -0.95511792      -0.02702755      -0.86128886       0.79034743      -0.99820323      -8.68185279
Si       6.64686061       8.40673935       3.45403760       0.31526268       0.00940383       1.35376388       0.32129954       0.11466806       1.04563681      -8.68487433
Si       8.65236851       9.49080995       6.68446818      -0.22667554      -0.12046591       0.66866898      -0.21428553      -0.65116141      -0.54222919      -8.69840716
Si       4.79722395       0.43834744       0.47599389      -0.98908816      -0.27166253       0.28182795       0.25508150      -0.19384841      -0.16613886      -8.54227532
Si       6.74466431       1.66345223       3.54665042       0.86601576      -0.10617764      -1.19766424      -0.18000607      -0.94830707       0.07780718      -8.69700731
Si       8.72702615       2.76393640       6.57903062      -0.70532866      -0.87928685      -0.19291679      -0.27216063      -0.34681707      -0.27673149      -8.59264318
Si       6.63440229       3.89262010       0.35338774       1.36389339       0.48627816      -0.11689511       0.54591241      -0.50737455       0.61484276      -8.65376355
Si       8.56917143       5.06951674       3.39170409      -0.90480058       0.04997458       0.16094558       0.28001700      -0.15801848       1.47953394      -8.62066227
Si      10.57834488       6.03605647       6.79237122      -0.32586002       0.68577768      -1.56032309       0.02931166       0.09326995      -0.61242735      -8.57010646
Si       8.62232882       7.15321602       0.55386211      -0.36733906       0.62459931      -0.74624432      -0.70428331       0.12047770      -0.00808315      -8.63117370
Si      10.62112610       8.20317383       3.61953529      -0.02082352      -0.17291442       1.00318384       0.58759136      -0.03676719       0.31722322      -8.70106657
Si      12.53883471       9.29846341       6.65929433       1.15895944      -0.28504312       0.39473104       0.42641122       0.87807279       0.47728957      -8.72132062
Si       8.61453929       0.57160801       0.47079809      -0.89693478       0.04131846      -1.42201564      -0.35175261      -0.08529146      -0.62029115      -8.73095944
Si      10.60811190       1.67026029       3.42535397      -0.84563976       0.71315617      -1.98626603      -0.00849921       0.39881753      -0.33648835      -8.66447833
Si      12.36057772       2.71358789       6.58002441       1.15233946       0.10005431      -0.74426507       1.27025989       0.13867510       0.67260969      -8.70553364
Si      10.39579992       4.06610566       0.38611188      -0.15335233      -0.31844222       0.37561247       0.49751132      -0.96200996       0.31217155      -8.63959395
Si      12.57880615       4.94285150       3.54970379      -0.60453920       0.92480441       0.03876375      -1.39954080       0.95418012       0.20750298      -8.73473922
Si      14.44193106       6.00510763       6.65352143       0.05843431      -0.58578939      -0.93502868       0.65883937      -0.60893530       0.30645956      -8.67620228
Si      12.49394021       7.28331198       0.37486386       0.82946150       0.10370117       0.74485426       0.37947008      -0.28857933       0.88251829      -8.69802293
Si      14.50712922       8.37378592       3.58639710      -0.47087982       0.15143392      -0.63420394      -0.00542807      -0.40869686      -0.11363056      -8.74263715
Si      16.24993172       9.43626428       6.76204555       0.71321971      -0.72352283      -0.30526453      -0.06651689       0.47995584      -0.14130255      -8.66459526
Si       8.48867091       4.77446322       8.57526614       0.19621826       1.50997385       0.12733372      -0.51947795      -0.14072121       0.03281338      -7.77041021
55
Lattice="11.5478352 0.0 0.0 5.773917198490155 10.000722372470358 0.0 5.773916394327279 3.333571176804646 9.428767828939895" Properties=species:S:1:pos:R:3:momenta:R:3:forces:R:3:energies:R:1 spacegroup="_JSON {\"number\": 1, \"setting\": 1}" unit_cell=conventional occupancy="_JSON {\"0\": {\"Si\": 1.0}, \"1\": {\"Si\": 1.0}, \"2\": {\"Si\": 1.0}, \"3\": {\"Si\": 1.0}, \"4\": {\"Si\": 1.0}, \"5\": {\"Si\": 1.0}, \"6\": {\"Si\": 1.0}, \"7\": {\"Si\": 1.0}, \"8\": {\"Si\": 1.0}, \"9\": {\"Si\": 1.0}, \"10\": {\"Si\": 1.0}, \"11\": {\"Si\": 1.0}, \"12\": {\"Si\": 1.0}, \"13\": {\"Si\": 1.0}, \"14\": {\"Si\": 1.0}, \"15\": {\"Si\": 1.0}, \"16\": {\"Si\": 1.0}, \"17\": {\"Si\": 1.0}, \"18\": {\"Si\": 1.0}, \"19\": {\"Si\": 1.0}, \"20\": {\"Si\": 1.0}, \"21\": {\"Si\": 1.0}, \"22\": {\"Si\": 1.0}, \"23\": {\"Si\": 1.0}, \"24\": {\"Si\": 1.0}, \"25\": {\"Si\": 1.0}, \"26\": {\"Si\": 1.0}, \"27\": {\"Si\": 1.0}, \"28\": {\"Si\": 1.0}, \"29\": {\"Si\": 1.0}, \"30\": {\"Si\": 1.0}, \"31\": {\"Si\": 1.0}, \"32\": {\"Si\": 1.0}, \"33\": {\"Si\": 1.0}, \"34\": {\"Si\": 1.0}, \"35\": {\"Si\": 1.0}, \"36\": {\"Si\": 1.0}, \"37\": {\"Si\": 1.0}, \"38\": {\"Si\": 1.0}, \"39\": {\"Si\": 1.0}, \"40\": {\"Si\": 1.0}, \"41\": {\"Si\": 1.0}, \"42\": {\"Si\": 1.0}, \"43\": {\"Si\": 1.0}, \"44\": {\"Si\": 1.0}, \"45\": {\"Si\": 1.0}, \"46\": {\"Si\": 1.0}, \"47\": {\"Si\": 1.0}, \"48\": {\"Si\": 1.0}, \"49\": {\"Si\": 1.0}, \"50\": {\"Si\": 1.0}, \"51\": {\"Si\": 1.0}, \"52\": {\"Si\": 1.0}, \"53\": {\"Si\": 1.0}, \"54\": {\"Si\": 1.0}}" energy=-475.57472919171335 stress="-0.008332484711356294 0.0012641595681320513 0.0016262511660921845 0.0012641595681320513 -0.011497979283942552 0.0007043194502738206 0.0016262511660921845 0.0007043194502738206 -0.004573895293701341" free_energy=-475.57472919171335 pbc="T T T"
Si       6.72678077       3.85321255       2.71857276      -1.34237185       1.02282014      -0.50723855      -0.17899008      -0.20120969      -0.30130002      -8.75429377
Si       8.64491450       4.96766807       5.89022467       1.54899746      -0.83510440      -0.59498970      -0.04504694       0.41829459      -0.14756707      -8.61694668
Si      10.49019843       6.06983464       9.18087040       0.60064908       0.85431543      -0.09162588       0.07571882       0.22694254      -0.64643390      -8.51865610
Si       8.60122086       7.33320643       2.89904295       0.11051039      -0.27832527      -0.01889995       0.30581964      -0.54254765      -0.50646435      -8.67904005
Si      10.53639581       8.28966786       5.99278150      -1.60294678       0.25869666      -0.00173078       0.51909485       0.19932832       0.19375750      -8.72643935
Si      12.56773978       9.43040408       9.07021914       0.90206289       0.08685759       0.08228567      -0.52071114      -0.41333516      -0.58314343      -8.70731523
Si      10.58429661      10.39757858       2.91807383       0.67673688       0.71213566       1.09407846       0.48527001       0.38304252      -0.79585821      -8.69387433
Si      12.61130871      11.58470124       5.93865072      -1.09039294       0.43208307       0.62340100      -1.33996992      -0.49887832      -0.71368826      -8.67666887
Si      14.54927794      12.51487574       8.95808353      -1.35039570       1.25632719       1.39613517      -0.39286018       1.09701175      -0.44641975      -8.17413465
Si      10.55906840       3.96162985       2.70200314       0.63007825      -0.78919358      -0.93413565      -0.34473020       0.37592701       0.41321588      -8.70365140
Si      12.44349193       4.91772547       5.85381821      -0.77099604       0.30268255      -0.10577009       0.38218209       0.52662435       0.44614002      -8.74601778
Si      14.36676498       6.10231310       9.00477330       0.27932406      -0.10924795      -1.12755427       0.17656630      -0.06630260      -0.33458790      -8.71639574
Si      12.56433323       7.20275642       2.78960843      -1.88280990      -0.15276435      -0.59244708       0.08629948       0.22318465      -0.12305058      -8.73786144
Si      14.42865327       8.16617178       5.89509643       0.07870065      -0.54822630      -0.13381739       0.49940294       0.37721153      -0.00355197      -8.75075034
Si      16.27361458       9.55677636       9.09449931       0.35259525      -0.58399309      -1.28091566       0.85170373      -0.11661831      -0.12772573      -8.67889295
Si      14.45160335      10.52327194       2.76377333       0.22568052       0.03157021      -0.84482259      -0.24251907       0.24698679      -0.87762519      -8.75080621
Si      16.29010184      11.60908428       5.69756698      -0.22088107      -0.32887841      -0.50091811       0.71780001      -0.31966460       0.31672072      -8.66414336
Si      18.26299864      12.79868993       8.97431867      -0.50950129       0.83759009      -0.09744683      -0.43730543      -0.25427679      -0.15013973      -8.70292474
Si      14.42932483       3.78871631       2.87243468       1.35252823      -0.08504901      -0.98911990       0.05433853       0.27811656      -0.16769787      -8.68157981
Si      16.49145640       4.88752437       5.93356382      -1.33483221       0.36746297      -0.23350439      -0.36017301       0.33075207      -0.07075798      -8.67742091
Si      18.09290617       6.26743426       8.96107908      -0.09646622       0.97413826       1.48014745       0.31816286       0.61855430       1.19364377      -8.43090036
Si      16.37993802       7.17381608       2.83887633      -0.17216768      -0.72042951       0.74044711      -0.17824320      -0.02229232      -0.47767455      -8.71813055
Si      18.13494418       8.45337943       5.82273005       0.86090771       0.57511390      -0.50878108       1.31094265      -0.22983650       1.12414943      -8.68555340
Si      20.23648630       9.51263715       9.02788245       0.62450165      -0.93087681       1.33938605      -0.12208790       0.05297900       0.38048883      -8.73484902
Si      18.33802518      10.57955462       2.66662650      -0.91750218       0.13141937       1.19391911      -0.50953044       0.18182727       0.55166286      -8.67880414
Si      20.25071284      11.68222835       5.97318242       0.57594179      -0.25386756       1.17149995      -0.86580894      -0.57978695      -0.45726579      -8.75364517
Si      22.02908462      12.67506634       9.11681884       0.82817441      -1.11396997      -0.50552734       0.41711533       0.44129197      -0.42520062      -8.66642089
Si       0.83638664       0.65089561       0.36825045       1.05682729      -0.23287877      -2.10635841       0.02822022      -0.55748062      -0.43996109      -8.37614487
Si       2.91711742       1.51691763       3.65098787      -0.64136309       0.88518801      -0.66138488      -0.06867067       0.83369241      -0.41320255      -8.71456161
Si       4.82020416       2.65416053       6.72598594      -0.63168175       0.50905791       0.57902856       1.24696116       0.57017434       0.45205232      -8.71962977
Si       2.82473835       4.05856025       0.52165247       0.76466337      -0.37724340       0.72607380      -0.36043079      -1.29418468      -0.29055825      -8.46552588
Si       4.84796409       4.94244725       3.54801333       1.19483502      -0.60226678       0.75500580      -0.31023117      -0.16111931       0.57128765      -8.73255487
Si       6.79280556       6.25099776       6.67914695      -1.05157659       0.49417246      -0.35528346      -0.58751244      -0.60740991      -0.84269387      -8.57163028
Si       4.89327904       7.12109303       0.47997172      -0.24980048       0.16082204      -0.80812213      -0.57580931       0.56915641      -0.02052596      -8.70665151
Si       6.66980361       8.41289409       3.54968212       0.44019625       0.20349784       1.90047959      -0.13661270       0.03202850      -0.49847975      -8.72961321
Si       8.62788830       9.46298135       6.69849413      -0.76519999      -0.83258634      -0.05394127      -0.42690683      -0.22046524      -0.22483265      -8.69687399
Si       4.75805980       0.41962899       0.49170629      -0.45105698      -0.33911788       0.43613705       0.45647649       0.20845791       0.29658186      -8.53739634
Si       6.78005505       1.62768520       3.50003286       0.42027925      -1.03090520      -0.37870115      -0.41674679      -0.07011107       0.86632749      -8.68231960
Si       8.68907470       2.71163653       6.57147357      -0.55028690      -0.96276174       0.13233110       0.45469951       0.23739317       0.59569559      -8.61539861
Si       6.72077393       3.89865968       0.37048307       1.76714362      -0.20551003       0.69842452      -0.09291051      -0.31000527       0.32796180      -8.65857383
Si       8.54346631       5.06389155       3.45189545       0.07197572      -0.32002849       1.94652088       0.83961078      -0.36530430       0.70807637      -8.63624279
Si      10.56347156       6.07040197       6.70170239      -0.21218189       0.53502669      -1.59168426       0.14049223      -0.24562780       0.58555157      -8.57467250
Si       8.58428907       7.18515568       0.52858950      -0.82822687       0.47711659      -0.02344505       0.28495408      -0.30957771       0.73929684      -8.64844396
Si      10.63575283       8.19542301       3.67876214       0.39768637      -0.03593154       1.09560998      -0.11801437       0.29906626      -0.30022283      -8.71855088
Si      12.59951014       9.31558344       6.69631090       0.83973718       0.85263729       0.93825435      -0.78127592       0.52970536       0.15722512      -8.69284167
Si       8.56416631       0.56785176       0.38548616      -0.78315075      -0.21816915      -1.58019110       0.57681979      -0.21094132       0.36009700      -8.71599021
Si      10.57054110       1.71590811       3.32056751      -0.46729258       0.85488095      -1.72435787       0.44809736      -0.28045895       0.76921624      -8.69469623
Si      12.45411862       2.71773446       6.56717100       2.03608116      -0.03462732       0.23377064      -0.21750397      -0.21128276       0.58351703      -8.71006640
Si      10.40582318       4.01769065       0.40848291       0.47404940      -1.35223155       0.27679838       0.24157185      -0.26657947      -0.46249378      -8.68056074
Si      12.50831371       5.01180103       3.55236057      -1.70263852       1.32288158      -0.07823110       0.06193250      -0.51152715      -0.32323025      -8.74138495
Si      14.46328131       5.95248669       6.61697507       0.56783574      -1.30049760      -0.46031576      -0.08820944      -0.12523519       0.29765525      -8.69424317
Si      12.54137926       7.27828305       0.43633789       0.77800599      -0.24489415       1.30779961      -0.40999616      -0.09949525      -0.26702236      -8.68537569
Si      14.48061648       8.35908333       3.55330106      -0.58320532      -0.78918542      -0.55017248      -0.16346159      -0.68804693       0.18460993      -8.72881618
Si      16.27268165       9.42073715       6.73720646      -0.00103690       0.15633632      -0.71763467      -0.65881787       0.56643185      -0.43137010      -8.67264876
Si       8.48411442       4.84791101       8.58075875      -0.24674308       1.31393081       0.01153461      -0.02916621      -0.04457958      -0.24418474      -7.74720347
55
Lattice="11.5478352 0.0 0.0 5.773917198490155 10.000722372470358 0.0 5.773916394327279 3.333571176804646 9.428767828939895" Properties=species:S:1:pos:R:3:momenta:R:3:forces:R:3:energies:R:1 spacegroup="_JSON {\"number\": 1, \"setting\": 1}" unit_cell=conventional occupancy="_JSON {\"0\": {\"Si\": 1.0}, \"1\": {\"Si\": 1.0}, \"2\": {\"Si\": 1.0}, \"3\": {\"Si\": 1.0}, \"4\": {\"Si\": 1.0}, \"5\": {\"Si\": 1.0}, \"6\": {\"Si\": 1.0}, \"7\": {\"Si\": 1.0}, \"8\": {\"Si\": 1.0}, \"9\": {\"Si\": 1.0}, \"10\": {\"Si\": 1.0}, \"11\": {\"Si\": 1.0}, \"12\": {\"Si\": 1.0}, \"13\": {\"Si\": 1.0}, \"14\": {\"Si\": 1.0}, \"15\": {\"Si\": 1.0}, \"16\": {\"Si\": 1.0}, \"17\": {\"Si\": 1.0}, \"18\": {\"Si\": 1.0}, \"19\": {\"Si\": 1.0}, \"20\": {\"Si\": 1.0}, \"21\": {\"Si\": 1.0}, \"22\": {\"Si\": 1.0}, \"23\": {\"Si\": 1.0}, \"24\": {\"Si\": 1.0}, \"25\": {\"Si\": 1.0}, \"26\": {\"Si\": 1.0}, \"27\": {\"Si\": 1.0}, \"28\": {\"Si\": 1.0}, \"29\": {\"Si\": 1.0}, \"30\": {\"Si\": 1.0}, \"31\": {\"Si\": 1.0}, \"32\": {\"Si\": 1.0}, \"33\": {\"Si\": 1.0}, \"34\": {\"Si\": 1.0}, \"35\": {\"Si\": 1.0}, \"36\": {\"Si\": 1.0}, \"37\": {\"Si\": 1.0}, \"38\": {\"Si\": 1.0}, \"39\": {\"Si\": 1.0}, \"40\": {\"Si\": 1.0}, \"41\": {\"Si\": 1.0}, \"42\": {\"Si\": 1.0}, \"43\": {\"Si\": 1.0}, \"44\": {\"Si\": 1.0}, \"45\": {\"Si\": 1.0}, \"46\": {\"Si\": 1.0}, \"47\": {\"Si\": 1.0}, \"48\": {\"Si\": 1.0}, \"49\": {\"Si\": 1.0}, \"50\": {\"Si\": 1.0}, \"51\": {\"Si\": 1.0}, \"52\": {\"Si\": 1.0}, \"53\": {\"Si\": 1.0}, \"54\": {\"Si\": 1.0}}" energy=-475.3191697732868 stress="-0.009446231875268612 0.0008912532475376689 0.0018641692723424975 0.0008912532475376689 -0.009029403595535581 -0.00016076273605547718 0.0018641692723424975 -0.00016076273605547718 -0.007876516692962396" free_energy=-475.3191697732868 pbc="T T T"
Si       6.67116303       3.88571170       2.69260758      -0.39792597       0.00960780      -0.21840807       1.26594092      -0.99052584       0.72624860      -8.68895701
Si       8.71056432       4.93929357       5.86418042       0.72452640      -0.29261603      -0.15481042      -0.94322554       0.24700438       0.79976436      -8.61019860
Si      10.52681175       6.11627529       9.15006725       0.84022327       0.76413965      -1.06109183       0.25221347      -0.36524197      -0.54688217      -8.46352176
Si       8.61871124       7.29991664       2.88600956       0.52274063      -0.93263436      -0.30502898       0.17140756      -0.30880474       0.16470762      -8.69839292
Si      10.48517897       8.31233786       6.00361249      -0.16688305       0.60169130       0.44884546       1.22228471       0.18801829       0.32230421      -8.67852901
Si      12.58780248       9.41804854       9.05819831      -0.21173990      -0.51997266      -0.35824934      -0.78919633      -0.25588502       0.12927160      -8.72945359
Si      10.62799762      10.44242516       2.94312711       0.74559596       0.86732323      -0.14163098      -0.46034117      -0.12185945      -0.79344063      -8.70405908
Si      12.51265466      11.59039120       5.94192407      -2.33063964      -0.11889298      -0.47274382      -0.01226183      -0.13591483      -0.60708154      -8.71996713
Si      14.46262839      12.61362567       9.01269734      -1.91347895       2.22454952       0.72111290      -0.21505691      -0.00340794      -0.31647698      -8.36809749
Si      10.57153496       3.94314487       2.67444485      -0.26183551       0.17441823      -0.05590751      -0.75838816       0.70403444       0.63559185      -8.69725008
Si      12.42312659       4.94757341       5.86246550       0.07043758       0.67334741       0.34698836       0.65844993      -0.10376878       0.09594301      -8.72935558
Si      14.39184433       6.08905376       8.93811124       0.70983968      -0.47739520      -1.27106443       0.29364315      -0.37374746       0.22804169      -8.69367999
Si      12.47735698       7.20728483       2.76218509      -1.29405128       0.34909384      -0.30341723       0.62578653       0.30827160       0.44712853      -8.75395905
Si      14.44741772       8.15210575       5.88752549       0.49156902       0.01671043      -0.15376157      -0.06712246       0.39040359      -0.00848362      -8.72053242
Si      16.31784490       9.52390197       9.03369569       1.16218040      -0.61951928      -0.85917262       0.17022991       0.07995720       0.55615695      -8.63545018
Si      14.45403717      10.52642885       2.68713891      -0.12761297      -0.05937905      -1.93926757      -0.22250772      -0.32154789      -0.32262688      -8.74249719
Si      16.30837858      11.58724477       5.68244442       0.89941273      -0.33177024      -0.08410784       0.63770415       0.35495008       0.27808466      -8.63186893
Si      18.21961302      12.82246156       8.96555305      -1.08118761      -0.08191378      -0.17069321      -0.17864827      -0.83144986       0.11103798      -8.70747811
Si      14.49059112       3.80324558       2.82688537       0.78424011       0.74752047      -0.51921900      -0.73796005       0.70067648       0.71571825      -8.64516281
Si      16.42048159       4.91213968       5.92277889      -1.11983636       0.41612592      -0.09434904       0.60292980      -0.26549319       0.25705482      -8.71819395
Si      18.10825557       6.33361021       9.06465844       0.83896759       1.30631146       2.04051882       0.89635788      -0.33000475      -0.47203024      -8.35177367
Si      16.36951106       7.13994036       2.85608809      -0.13967810      -0.49130814      -0.10972373       0.15627345       0.29211378      -0.57136873      -8.69109213
Si      18.21536766       8.47266250       5.84959726       1.80293152       0.09681391       1.54937992      -0.28128439      -0.48943612       1.12624693      -8.72416339
Si      20.25815713       9.46791718       9.10184318       0.07546439      -0.75838389       1.27362148      -0.59944905       0.11972033      -0.42567617      -8.71218065
Si      18.27537095      10.59108863       2.72950535      -1.29844097       0.25119573       0.84354731       0.17350485      -0.04437379      -0.85893695      -8.65939891
Si      20.25325571      11.64567543       6.00678663      -0.28023068      -1.06454561      -0.00978494      -0.11922642      -0.27915813      -0.92214189      -8.74009126
Si      22.08056168      12.64408111       9.07752750       0.98332219       0.09046902      -0.88074061      -0.18066646       1.03164564       0.02606917      -8.66668673
Si       0.88866829       0.61437338       0.26563515       0.84116330      -1.14661006      -1.36460552      -0.33599141      -0.48596753       1.28660625      -8.39294066
Si       2.88623794       1.58904810       3.61071649      -0.44033802       1.68361267      -0.70734238       0.29526213       0.11291891       0.24736170      -8.73072718
Si       4.83226408       2.69979899       6.76739287       0.88437211       1.11093058       0.80063157       0.44679540       0.10382880      -0.32135199      -8.74675050
Si       2.85155277       3.99249600       0.54401848       0.28597770      -1.98162418       0.03625150      -0.23414549      -0.64821314      -0.62224533      -8.55703203
Si       4.88514553       4.91204800       3.60334399       0.02122656      -0.40912881       1.17857870      -1.05666661       0.40095556      -0.13353766      -8.74467674
Si       6.72448213       6.25039709       6.63953420      -1.35505247      -0.52959084      -0.88440855       0.20846191      -0.64807238       0.20232007      -8.48089790
Si       4.86924494       7.14239106       0.44615375      -0.45086373       0.47548024      -0.33684894       0.25725033      -0.11217758       0.54116717      -8.71498208
Si       6.68583930       8.41977292       3.61315647       0.16193423      -0.03682735       0.31699812      -0.17383932      -0.33398491      -1.24759607      -8.72223624
Si       8.57625120       9.41852021       6.69979388      -1.00421349      -0.70232749       0.36609869       0.37476503       0.41057805       0.79771697      -8.71810211
Si       4.75142916       0.41755760       0.52659124       0.16196848       0.39423502       0.85182398       0.30355131       0.71989811       0.12248658      -8.50360844
Si       6.78689795       1.58541738       3.51306198      -0.10211874      -0.34294590       0.80399415      -0.18579700       0.84631612       0.56817055      -8.67659877
Si       8.67836976       2.67222274       6.60172172       0.08440617      -0.53854512       0.95009553       0.23924455       0.25041782       0.32246719      -8.60131098
Si       6.80269524       3.88151954       0.40947588       1.22946508      -0.35794662       0.56762467      -0.58129309       0.03786378      -0.52327522      -8.65044020
Si       8.57499436       5.03131804       3.56198103       0.99408277      -0.91797506       1.82016201       0.30692739      -0.33975640      -0.96389766      -8.65242775
Si      10.55886349       6.09030069       6.65038744       0.05248181       0.27469651      -0.22368125       0.20090515      -0.05243250       1.12044187      -8.57829071
Si       8.56583910       7.19809322       0.54942842       0.32705448       0.03610372       0.60512763       1.05867009      -0.24609055      -0.08866770      -8.65345708
Si      10.64256799       8.21096355       3.71721855      -0.28996251       0.72129825       0.25851400      -0.70483765       0.64833142      -0.72411154      -8.70192904
Si      12.60900557       9.37096004       6.74330103      -0.49833107       1.04465202       0.66394618      -0.86050513      -0.30507657      -0.57535089      -8.66605172
Si       8.55317743       0.54908615       0.32017592       0.44281201      -0.48039034      -0.89268025       0.86529818      -0.14876381       0.42027961      -8.68992805
Si      10.56136296       1.74225318       3.26990815       0.02428865       0.04401962      -0.05458942       0.07867271      -0.67182608       1.34465504      -8.71232416
Si      12.53486792       2.71045634       6.59745432       0.74155073      -0.16717691       0.81140916      -1.37126544       0.06918589       0.14190510      -8.69895158
Si      10.43125844       3.94922473       0.40051519       0.30601125      -1.00808528      -0.59374401      -0.48262407       0.70432819      -0.50497945      -8.67464534
Si      12.43634752       5.04946714       3.53485906      -0.79416648      -0.02947129      -0.56307040       1.03490586      -1.05789676      -0.22587749      -8.66538691
Si      14.47708106       5.89376109       6.60202547      -0.26238176      -0.64368582      -0.15303467      -0.92049713       1.00876343       0.11936652      -8.70176715
Si      12.56177047       7.26514825       0.47920504      -0.05897072      -0.20308898       0.07405004      -0.63470766       0.10554221      -1.22323029      -8.65843194
Si      14.44223471       8.29738269       3.53097837      -0.87484456      -1.38938542      -0.32850848      -0.13435841      -0.00936369       0.07887854      -8.71660384
Si      16.25405361       9.44447431       6.68065327      -0.51581367       0.59986812      -1.41620459       0.09149072      -0.01657835      -0.32164695      -8.72618429
Si       8.47659672       4.92238750       8.56661357       0.06035140       1.65892201      -0.64742900       0.35293607       0.46109591      -0.61227931      -7.70049476
55
Lattice="11.5478352 0.0 0.0 5.773917198490155 10.000722372470358 0.0 5.773916394327279 3.333571176804646 9.428767828939895" Properties=species:S:1:pos:R:3:momenta:R:3:forces:R:3:energies:R:1 spacegroup="_JSON {\"number\": 1, \"setting\": 1}" unit_cell=conventional occupancy="_JSON {\"0\": {\"Si\": 1.0}, \"1\": {\"Si\": 1.0}, \"2\": {\"Si\": 1.0}, \"3\": {\"Si\": 1.0}, \"4\": {\"Si\": 1.0}, \"5\": {\"Si\": 1.0}, \"6\": {\"Si\": 1.0}, \"7\": {\"Si\": 1.0}, \"8\": {\"Si\": 1.0}, \"9\": {\"Si\": 1.0}, \"10\": {\"Si\": 1.0}, \"11\": {\"Si\": 1.0}, \"12\": {\"Si\": 1.0}, \"13\": {\"Si\": 1.0}, \"14\": {\"Si\": 1.0}, \"15\": {\"Si\": 1.0}, \"16\": {\"Si\": 1.0}, \"17\": {\"Si\": 1.0}, \"18\": {\"Si\": 1.0}, \"19\": {\"Si\": 1.0}, \"20\": {\"Si\": 1.0}, \"21\": {\"Si\": 1.0}, \"22\": {\"Si\": 1.0}, \"23\": {\"Si\": 1.0}, \"24\": {\"Si\": 1.0}, \"25\": {\"Si\": 1.0}, \"26\": {\"Si\": 1.0}, \"27\": {\"Si\": 1.0}, \"28\": {\"Si\": 1.0}, \"29\": {\"Si\": 1.0}, \"30\": {\"Si\": 1.0}, \"31\": {\"Si\": 1.0}, \"32\": {\"Si\": 1.0}, \"33\": {\"Si\": 1.0}, \"34\": {\"Si\": 1.0}, \"35\": {\"Si\": 1.0}, \"36\": {\"Si\": 1.0}, \"37\": {\"Si\": 1.0}, \"38\": {\"Si\": 1.0}, \"39\": {\"Si\": 1.0}, \"40\": {\"Si\": 1.0}, \"41\": {\"Si\": 1.0}, \"42\": {\"Si\": 1.0}, \"43\": {\"Si\": 1.0}, \"44\": {\"Si\": 1.0}, \"45\": {\"Si\": 1.0}, \"46\": {\"Si\": 1.0}, \"47\": {\"Si\": 1.0}, \"48\": {\"Si\": 1.0}, \"49\": {\"Si\": 1.0}, \"50\": {\"Si\": 1.0}, \"51\": {\"Si\": 1.0}, \"52\": {\"Si\": 1.0}, \"53\": {\"Si\": 1.0}, \"54\": {\"Si\": 1.0}}" energy=-475.45309719298285 stress="-0.010004830156867914 -0.00023939570837302606 0.0004657803485639757 -0.00023939570837302606 -0.0060828295131980575 -0.0009659770602302686 0.0004657803485639757 -0.0009659770602302686 -0.00895596554070338" free_energy=-475.45309719298285 pbc="T T T"
Si       6.69854841       3.85110157       2.71748048       1.31351662      -1.18873766       1.22605606       0.76497031      -0.43173590       0.92241504      -8.69028120
Si       8.71041170       4.93010896       5.89495044      -0.71260579      -0.10148944       1.37314496      -0.85719188       0.06894784       0.94118481      -8.59017124
Si      10.58380241       6.13763878       9.08032313       1.37650041      -0.01284444      -1.40757350       0.41437932      -0.60524192       0.21209879      -8.45384479
Si       8.64821004       7.24191267       2.88208633       0.50064035      -1.21398796       0.20365344      -0.22499232      -0.04620666       0.33993627      -8.72562770
Si      10.51907641       8.34863802       6.03614151       1.28994946       0.71277262       0.68610169       0.53772153      -0.09259953      -0.09528791      -8.70388309
Si      12.55410092       9.38875373       9.05454487      -0.87624906      -0.43782842       0.34706591      -0.01723129       0.35836640       0.60838919      -8.74616867
Si      10.64081889      10.48390919       2.91037120      -0.35674443       0.77500559      -0.96730076      -0.83933380       0.11376314      -0.23244759      -8.72141011
Si      12.41132613      11.58446010       5.90200502      -1.15741574      -0.02926404      -0.85726420       1.44316114       0.17455236       0.15158727      -8.71223843
Si      14.36402446      12.71555554       9.04520299      -1.57333083       1.40926044       0.62078271       0.84137872      -0.98272025       0.07943450      -8.50390165
Si      10.53092476       3.96945411       2.69017886      -1.15686412       0.56588878       0.50254522      -0.21910734      -0.31753384       0.03202376      -8.72968739
Si      12.44714162       4.97100421       5.87821562       0.68187085       0.08615915       0.13812740       0.01762915      -0.62353656      -0.35431453      -8.71349247
Si      14.43597131       6.04980888       8.88777734       0.85039275      -0.97701196      -0.51387463      -0.17971908      -0.20418758       0.73650649      -8.68378739
Si      12.43211574       7.23143721       2.76256567      -0.49614290       0.43031778       0.23964029       0.36247731      -0.23739596       0.14547078      -8.76557002
Si      14.46067769       8.16832361       5.87818409      -0.16314243       0.61317840      -0.23050522      -0.74862747       0.43516651      -0.11585099      -8.68907238
Si      16.37589963       9.49605399       9.00695931       0.86007705      -0.41426340      -0.27631067      -0.57922991       0.18674983       0.10401160      -8.64514271
Si      14.43928266      10.50891727       2.59032533      -0.41997783      -0.60772270      -1.37625949      -0.15852753      -0.32052275       1.12463670      -8.68786110
Si      16.37241941      11.59051124       5.68970920       1.34974331       0.54500585       0.39094786      -0.12910224       0.68122451       0.39104387      -8.68586738
Si      18.16436355      12.78900635       8.96575926      -0.85659660      -1.07657229       0.25825313       0.47128805      -0.36253847       0.40828209      -8.71441431
Si      14.49892470       3.86706848       2.82808646      -0.52153771       1.57148629       0.49499898      -0.92836550       0.23325877       0.43486485      -8.68742589
Si      16.38560881       4.92120448       5.93061905      -0.29146534      -0.05970756       0.42037978       0.28878242      -0.21606357       0.34204347      -8.73077360
Si      18.18253486       6.37654219       9.14127894       1.74012645       0.11991965       0.71735067      -0.10763046      -1.14280144      -1.11025792      -8.21229948
Si      16.36794039       7.12640486       2.83236375       0.05321780      -0.01251750      -0.69145836       0.05632960       0.33834028      -0.15972019      -8.71771233
Si      18.27643747       8.45258243       5.94977546       0.19944145      -0.94851516       1.77391890      -1.47719394      -0.77816117      -0.76469436      -8.70489476
Si      20.23835142       9.43103284       9.14925036      -0.78234378      -0.66007080       0.52041554      -0.40001596       0.07539935      -0.46706258      -8.68604416
Si      18.22620716      10.59956670       2.73570219      -0.36650126       0.02412380      -0.62490326       0.96327398      -0.22413688      -0.90793722      -8.66258298
Si      20.24178268      11.59118908       5.97610581      -0.08714913      -0.76379223      -1.00590215       0.16639137       0.68093091      -0.30761938      -8.70457683
Si      22.12150368      12.68341210       9.04094967       0.52385592       1.22119335      -0.36468246      -0.38431004       0.28951365       0.58150642      -8.68641170
Si       0.91708811       0.54660049       0.25193157       0.18643500      -1.15445741       0.93503323      -0.55149157       0.61296846       1.63131630      -8.40628022
Si       2.87426232       1.67078557       3.58436437      -0.04454547       1.22748580      -0.30469077       0.18458719      -0.67970286       0.21713356      -8.70948038
Si       4.87718377       2.75407539       6.78525053       0.50197057       0.80356971      -0.29653372      -0.82634150      -0.51021879      -0.98614513      -8.71387853
Si       2.86460215       3.87876170       0.52398639       0.38882706      -2.02766022      -0.68579044       0.45866000       0.63501898      -0.16816871      -8.58135174
Si       4.85379487       4.90815642       3.64797231      -0.95693925       0.27156754       0.31454737      -0.05120202       0.44598815      -0.91608235      -8.73682427
Si       6.67036495       6.20276117       6.61131637      -0.54653073      -1.16518075      -0.03059861       0.82441598      -0.17114473       0.83220491      -8.41591975
Si       4.85818360       7.16002589       0.44799707       0.01332749       0.17903772       0.33471408       0.19648446      -0.18800891       0.25665173      -8.71867923
Si       6.69058250       8.40336300       3.59474315       0.08385652      -0.59284251      -0.72348084       0.07713592      -0.34626303      -0.11279042      -8.71421160
Si       8.55663170       9.40271360       6.75804594       0.54497341       0.14877973       1.90285358       1.42195211       0.57248312       0.93516260      -8.72292731
Si       4.76667654       0.46706309       0.56723851       0.32291517       1.46199796       0.48852541      -0.07086611       0.58457775      -0.69177780      -8.48459881
Si       6.78044483       1.59883043       3.56544279      -0.04744641       0.73941573       0.92550458       0.18426422       0.38292667      -0.47530808      -8.70204491
Si       8.68511000       2.65065532       6.65563246       0.05667814      -0.33023687       0.94599706      -0.21564761       0.06494508      -0.29637793      -8.52656496
Si       6.84482880       3.86318433       0.41443559       0.39725094      -0.38465281      -0.38039280      -0.49449034      -0.12359973      -0.51427270      -8.65185062
Si       8.63060644       4.97479004       3.60890188       0.95154413      -1.10971093      -0.09296224      -0.39073707       0.16826732      -1.16582499      -8.67923281
Si      10.56939332       6.10573276       6.67742013       0.34690132       0.34536177       1.08712665       0.18833757       0.06952084       0.44273532      -8.60000081
Si       8.62065068       7.19112521       0.56416619       1.63570886      -0.29626370      -0.24845063       0.55312267      -0.21165845      -0.86851298      -8.62685769
Si      10.60037685       8.27287247       3.70574751      -1.25320160       1.56553604      -0.59468013      -0.43782300       0.34817602      -0.32318849      -8.72136084
Si      12.55605939       9.40735378       6.75043069      -1.35126299       0.26041964      -0.42687310      -0.17498724      -0.61718316      -0.68674920      -8.68661862
Si       8.60167765       0.51750045       0.28184266       1.19586935      -0.73148419      -0.71390423       0.03783085      -0.17046691      -0.12642526      -8.70789434
Si      10.55622741       1.72353019       3.31523093      -0.37931813      -0.62950447       1.63386020      -0.52115423      -0.18419991       0.73751421      -8.73666124
Si      12.52246698       2.70620655       6.63856983      -1.06979957       0.01851224       0.62068528      -0.79132352       0.13101459      -0.37827393      -8.73200644
Si      10.42686628       3.92805886       0.35780980      -0.40538501       0.22364424      -0.86552833      -0.21469383       0.78253794       0.15433370      -8.66866913
Si      12.43665451       5.01473220       3.50081927       0.76810555      -1.08544787      -0.64574770       0.85079571      -0.23366638       0.12577200      -8.67186129
Si      14.43088195       5.90572491       6.59563535      -1.31212880       1.15577055      -0.14469923      -0.19095004       1.21319285      -0.08386708      -8.71503526
Si      12.53623195       7.25748381       0.44005831      -0.84640953      -0.13039281      -1.36780232      -0.35503239      -0.05798884      -0.43938345      -8.71170745
Si      14.39592038       8.23345337       3.51420702      -0.76662232      -0.87163977      -0.34983747       0.34675310       0.67913472      -0.07242436      -8.70156016
Si      16.24134798       9.46883564       6.60385078       0.20279510       0.22755014      -1.28245814       0.74565566      -0.40870751       0.56109181      -8.72090629
Si       8.49179597       5.02845078       8.50700028       0.46116574       2.31083940      -1.63176455       0.13954090       0.16122562      -0.62858652      -7.73296872
55
Lattice="11.5478352 0.0 0.0 5.773917198490155 10.000722372470358 0.0 5.773916394327279 3.333571176804646 9.428767828939895" Properties=species:S:1:pos:R:3:momenta:R:3:forces:R:3:energies:R:1 spacegroup="_JSON {\"number\": 1, \"setting\": 1}" unit_cell=conventional occupancy="_JSON {\"0\": {\"Si\": 1.0}, \"1\": {\"Si\": 1.0}, \"2\": {\"Si\": 1.0}, \"3\": {\"Si\": 1.0}, \"4\": {\"Si\": 1.0}, \"5\": {\"Si\": 1.0}, \"6\": {\"Si\": 1.0}, \"7\": {\"Si\": 1.0}, \"8\": {\"Si\": 1.0}, \"9\": {\"Si\": 1.0}, \"10\": {\"Si\": 1.0}, \"11\": {\"Si\": 1.0}, \"12\": {\"Si\": 1.0}, \"13\": {\"Si\": 1.0}, \"14\": {\"Si\": 1.0}, \"15\": {\"Si\": 1.0}, \"16\": {\"Si\": 1.0}, \"17\": {\"Si\": 1.0}, \"18\": {\"Si\": 1.0}, \"19\": {\"Si\": 1.0}, \"20\": {\"Si\": 1.0}, \"21\": {\"Si\": 1.0}, \"22\": {\"Si\": 1.0}, \"23\": {\"Si\": 1.0}, \"24\": {\"Si\": 1.0}, \"25\": {\"Si\": 1.0}, \"26\": {\"Si\": 1.0}, \"27\": {\"Si\": 1.0}, \"28\": {\"Si\": 1.0}, \"29\": {\"Si\": 1.0}, \"30\": {\"Si\": 1.0}, \"31\": {\"Si\": 1.0}, \"32\": {\"Si\": 1.0}, \"33\": {\"Si\": 1.0}, \"34\": {\"Si\": 1.0}, \"35\": {\"Si\": 1.0}, \"36\": {\"Si\": 1.0}, \"37\": {\"Si\": 1.0}, \"38\": {\"Si\": 1.0}, \"39\": {\"Si\": 1.0}, \"40\": {\"Si\": 1.0}, \"41\": {\"Si\": 1.0}, \"42\": {\"Si\": 1.0}, \"43\": {\"Si\": 1.0}, \"44\": {\"Si\": 1.0}, \"45\": {\"Si\": 1.0}, \"46\": {\"Si\": 1.0}, \"47\": {\"Si\": 1.0}, \"48\": {\"Si\": 1.0}, \"49\": {\"Si\": 1.0}, \"50\": {\"Si\": 1.0}, \"51\": {\"Si\": 1.0}, \"52\": {\"Si\": 1.0}, \"53\": {\"Si\": 1.0}, \"54\": {\"Si\": 1.0}}" energy=-475.55257339337885 stress="-0.011351663883754729 -0.0001089498301274644 -0.00022786473884831072 -0.0001089498301274644 -0.00726045611226024 -0.0009890215812880336 -0.00022786473884831072 -0.0009890215812880336 -0.007517707399544995" free_energy=-475.55257339337885 pbc="T T T"
Si       6.78152048       3.78615533       2.80305185       1.52407834      -0.98851392       1.67791693      -0.51489524       0.72943777      -0.46391882      -8.68938498
Si       8.64862989       4.92700903       5.98887163      -1.42298481      -0.03237417       1.85433219       0.01429234      -0.00430262      -0.44516231      -8.56430156
Si      10.67132565       6.11579381       9.02728247       1.89778981      -0.74324294      -0.38377161       0.16004831      -0.29030686       1.07868711      -8.47033659
Si       8.66207749       7.17968030       2.89796154      -0.02177481      -1.07493677       0.21214760      -0.41003895       0.28509787      -0.38853436      -8.74308644
Si      10.59007133       8.37674992       6.06042859       1.04081411       0.23343882       0.08118868      -0.91740369      -0.57027400      -0.70482970      -8.70962240
Si      12.51777750       9.38285105       9.08944425      -0.32459999       0.22917124       0.80166576       0.69721861       0.41581298      -0.08766558      -8.72731195
Si      10.59509019      10.53657056       2.85872730      -1.23670745       1.34713668      -0.87266205      -0.24690821       0.53875498       0.25843880      -8.73445259
Si      12.40996890      11.58975397       5.87169815       1.08552615       0.22159223      -0.16389691       1.34108508       0.13738304       0.65943223      -8.70782899
Si      14.32531335      12.75155226       9.08083124       0.22365782       0.03889563       0.71888058       1.30047753      -0.67500020       0.01934320      -8.54732062
Si      10.47936068       3.97301569       2.70892583      -0.45729699      -0.64554713       0.06924353       1.10322336      -1.13472617      -0.50753186      -8.69272519
Si      12.47367001       4.95094097       5.86937487       0.19126117      -0.80050427      -0.48628235      -0.50522143      -0.40501622      -0.38746059      -8.69866089
Si      14.46799381       5.99649257       8.88831248       0.28242658      -0.91275910       0.46823588      -0.51610157       0.35536705       0.47514983      -8.69916317
Si      12.41274186       7.24017611       2.77341887      -0.36650193      -0.14652707       0.05291486      -0.11680270      -0.42075777      -0.32216516      -8.71241853
Si      14.42196346       8.22034690       5.85982548      -1.26142277       1.43206414      -0.49288072      -0.53061324       0.65985986      -0.20451420      -8.71029312
Si      16.39338710       9.48108398       8.98656137      -0.24788887      -0.17319215      -0.67562454      -0.77153254       0.11680438      -0.56963123      -8.70401248
Si      14.41227551      10.46823073       2.57016393      -0.57858744      -0.85414032       0.65505724      -0.03189720       0.03455121       1.28743249      -8.65997244
Si      16.42615747      11.63926374       5.72764548       0.45083519       1.12387695       1.07916651      -1.08936735      -0.05981612       0.46678694      -8.73355482
Si      18.14100920      12.72973335       8.99308212       0.00341731      -0.94740906       0.69655686       0.61408858       0.55211755       0.07039596      -8.70011266
Si      14.44317836       3.94524728       2.85910058      -1.34500461       1.11175871       0.45502016       0.10541046      -0.91650906      -0.46886693      -8.71453404
Si      16.37048433       4.91835615       5.95966905      -0.45999186       0.13572522       0.52342461      -0.38526265       0.48941069      -0.28520024      -8.71564397
Si      18.24611334       6.33804430       9.14089616       0.30688003      -1.53935414      -0.57265787      -1.52869989      -0.93918742      -0.46689474      -8.18163829
Si      16.37062405       7.13856923       2.79597321       0.01359606       0.46914627      -0.57962120      -0.08081447       0.30490226       0.29433096      -8.75673954
Si      18.24649369       8.38026953       6.00536005      -0.88970467      -1.61195938       0.27314401       0.24187553      -0.03210942      -1.06684412      -8.69813059
Si      20.19058585       9.40095185       9.16671085      -0.85429302      -0.44470533       0.33871095       0.31680528       0.23267967       0.28072994      -8.67867734
Si      18.24143025      10.59322922       2.68148927       0.81401329      -0.23081541      -1.05510853       0.44708816      -0.09515158       0.63469899      -8.70692323
Si      20.23840798      11.58230143       5.92240306      -0.15747476       0.44352155      -0.82469640      -0.28375562       0.74144826       0.53506658      -8.67814800
Si      22.13716454      12.74373206       9.04057231       0.16425033       0.79083885       0.21058517      -0.02900416      -0.82790885       0.04729581      -8.70474102
Si       0.90586578       0.52141001       0.35533698      -0.55185061       0.33481630       2.69640633      -0.29029261       1.13773059       0.35743171      -8.49570640
Si       2.87520262       1.70737821       3.57221864      -0.00376601       0.19154110      -0.24766248      -0.15051075      -0.57788205      -0.12299121      -8.71733876
Si       4.86712258       2.77101938       6.73624932      -0.89305540      -0.24441044      -1.40612649      -0.84119692      -0.82427866      -0.34474945      -8.72685263
Si       2.91082496       3.80782592       0.49192027       1.43277041      -0.52318368      -0.37090340       0.65835415       1.21095981       0.46174702      -8.49685588
Si       4.81675433       4.93711796       3.63173387      -0.21672012       0.76013404      -0.80864746       0.86799238       0.15037636      -0.43529896      -8.69987127
Si       6.67234336       6.13930681       6.64263987       0.51594280      -1.17859435       1.20070045       0.39094680       0.13329643       0.72559643      -8.47736330
Si       4.85857354       7.16557487       0.46854493      -0.15252267       0.10522754       0.31686592      -0.39252007       0.09416080      -0.25852798      -8.70786557
Si       6.70021008       8.36154432       3.56176304       0.30846168      -0.93014776      -0.40465339       0.17488066      -0.06229858       0.40392931      -8.67874745
Si       8.62875794       9.42443783       6.87544995       1.87626209       0.50712855       2.10017846       0.17330015      -0.07929718      -0.88803454      -8.74725893
Si       4.77903471       0.55886404       0.55707018       0.13059683       1.83925691      -0.99206371      -0.14362613      -0.20766490      -1.11231335      -8.50979374
Si       6.78438499       1.63646376       3.58640996       0.15720180       0.35693433      -0.22258164       0.02792778      -0.92537562      -0.83149953      -8.71132352
Si       8.67805513       2.63472853       6.69164998      -0.33402977      -0.28675732       0.41942107      -0.24509197       0.02772436      -0.32172369      -8.49558176
Si       6.85135812       3.83583775       0.38637164      -0.03758219      -0.66429575      -0.43438603      -0.04949104      -0.13306452       0.47424183      -8.64510782
Si       8.65788404       4.93145537       3.57993428      -0.01619345      -0.38510733      -0.57284436      -0.75332841       0.75715409       0.51265873      -8.66520196
Si      10.59414241       6.12436509       6.73470282       0.56990714       0.30476336       0.75740519       0.08107277      -0.16314498      -0.86231092      -8.55491265
Si       8.71657028       7.16865086       0.52169560       1.76300585      -0.51573614      -1.21034813      -0.46898707      -0.03018134      -0.24442059      -8.62083287
Si      10.52654420       8.35991207       3.66962949      -1.37275158       1.56113098      -0.64722424       0.29622452      -0.39643708       0.20027802      -8.72096228
Si      12.49207211       9.40293053       6.71224932      -0.79259053      -0.26327513      -0.77114744       0.96035198       0.03185156       0.31119037      -8.70568059
Si       8.65390120       0.47315112       0.24058554       0.56820280      -0.92868086      -0.74134482      -0.84213666      -0.04908241       0.32461785      -8.70842628
Si      10.51829995       1.68687965       3.41424810      -0.95335516      -0.73273693       1.81881850      -0.08643512      -0.03537731      -0.51483905      -8.71597878
Si      12.45407858       2.71254926       6.65612014      -1.15253148       0.24348701       0.09815702       0.71449861       0.20395397      -0.18063673      -8.74489070
Si      10.40861425       3.96201374       0.32415382      -0.10444823       0.87613500      -0.32370300       0.49958461       0.01036888       0.51780841      -8.64258995
Si      12.49278850       4.96187598       3.47560027       0.94603893      -0.67412214      -0.23705443      -0.81080683       0.76598319       0.43078804      -8.68683775
Si      14.37024509       6.00546224       6.58570151      -0.75491930       2.42379615      -0.18556955       0.74380067       0.32134947       0.09703669      -8.72333075
Si      12.48411118       7.24371138       0.36933867      -1.01577158      -0.48911362      -0.98588165       0.12923714      -0.41845211       0.89034074      -8.72325011
Si      14.37396165       8.21722336       3.49288949      -0.01530455       0.27259140      -0.45116192       0.54474555       0.73747299      -0.02659321      -8.72130099
Si      16.27794420       9.46596851       6.56502541       1.04994581      -0.28509547      -0.11566260       0.18429377      -0.20572173       0.86969943      -8.70437479
Si       8.52085678       5.14466617       8.39994495       0.67474428       1.89312912      -2.33997556       0.24391774      -0.69668530      -0.17199437      -7.76460046
55
Lattice="11.5478352 0.0 0.0 5.773917198490155 10.000722372470358 0.0 5.773916394327279 3.333571176804646 9.428767828939895" Properties=species:S:1:pos:R:3:momenta:R:3:forces:R:3:energies:R:1 spacegroup="_JSON {\"number\": 1, \"setting\": 1}" unit_cell=conventional occupancy="_JSON {\"0\": {\"Si\": 1.0}, \"1\": {\"Si\": 1.0}, \"2\": {\"Si\": 1.0}, \"3\": {\"Si\": 1.0}, \"4\": {\"Si\": 1.0}, \"5\": {\"Si\": 1.0}, \"6\": {\"Si\": 1.0}, \"7\": {\"Si\": 1.0}, \"8\": {\"Si\": 1.0}, \"9\": {\"Si\": 1.0}, \"10\": {\"Si\": 1.0}, \"11\": {\"Si\": 1.0}, \"12\": {\"Si\": 1.0}, \"13\": {\"Si\": 1.0}, \"14\": {\"Si\": 1.0}, \"15\": {\"Si\": 1.0}, \"16\": {\"Si\": 1.0}, \"17\": {\"Si\": 1.0}, \"18\": {\"Si\": 1.0}, \"19\": {\"Si\": 1.0}, \"20\": {\"Si\": 1.0}, \"21\": {\"Si\": 1.0}, \"22\": {\"Si\": 1.0}, \"23\": {\"Si\": 1.0}, \"24\": {\"Si\": 1.0}, \"25\": {\"Si\": 1.0}, \"26\": {\"Si\": 1.0}, \"27\": {\"Si\": 1.0}, \"28\": {\"Si\": 1.0}, \"29\": {\"Si\": 1.0}, \"30\": {\"Si\": 1.0}, \"31\": {\"Si\": 1.0}, \"32\": {\"Si\": 1.0}, \"33\": {\"Si\": 1.0}, \"34\": {\"Si\": 1.0}, \"35\": {\"Si\": 1.0}, \"36\": {\"Si\": 1.0}, \"37\": {\"Si\": 1.0}, \"38\": {\"Si\": 1.0}, \"39\": {\"Si\": 1.0}, \"40\": {\"Si\": 1.0}, \"41\": {\"Si\": 1.0}, \"42\": {\"Si\": 1.0}, \"43\": {\"Si\": 1.0}, \"44\": {\"Si\": 1.0}, \"45\": {\"Si\": 1.0}, \"46\": {\"Si\": 1.0}, \"47\": {\"Si\": 1.0}, \"48\": {\"Si\": 1.0}, \"49\": {\"Si\": 1.0}, \"50\": {\"Si\": 1.0}, \"51\": {\"Si\": 1.0}, \"52\": {\"Si\": 1.0}, \"53\": {\"Si\": 1.0}, \"54\": {\"Si\": 1.0}}" energy=-475.4026150010216 stress="-0.011122904077859484 0.0006924678493664785 0.00034290538274826023 0.0006924678493664785 -0.009507282681033558 -0.0006639237941850517 0.00034290538274826023 -0.0006639237941850517 -0.0077333228135002905" free_energy=-475.4026150010216 pbc="T T T"
Si       6.82999361       3.76952672       2.85885780       0.15599356       0.37900248       0.25531221      -1.15050031       0.80868761      -1.20866458      -8.66137179
Si       8.58688664       4.92136739       6.04917527      -0.71609494      -0.26556520       0.07285107       0.83529871      -0.31228920      -1.86211585      -8.40727436
Si      10.76974942       6.07478325       9.04525971       1.68330501      -0.59700238       0.87474199      -0.50096517       0.58400385       0.32517780      -8.47759176
Si       8.64804620       7.13903393       2.88656990      -0.42260358      -0.38166296      -0.74799420      -0.05302675       0.63543521      -0.77712678      -8.72941381
Si      10.60131969       8.36591867       6.03492044      -0.60461001      -0.58902288      -1.04061012      -0.87196065      -0.33838374      -0.64297372      -8.73493491
Si      12.52938869       9.40550058       9.12068171       0.73310156       0.51150630       0.28390053       0.54757049      -0.06227522      -0.49843147      -8.68732609
Si      10.53026485      10.62411398       2.81985312      -1.04393176       1.81877903      -0.70493098       0.49611847      -0.13550475      -0.10047338      -8.72287171
Si      12.50385391      11.60483738       5.88463735       2.11353044       0.29991172       0.51677766      -0.16687444      -0.07835886       0.11068203      -8.73298992
Si      14.37652912      12.73922697       9.11870862       1.46352639      -0.28889323       0.69681823       0.25885507       0.18398319      -0.10067944      -8.54937065
Si      10.49796856       3.89959513       2.69645025       1.02277383      -1.96511773      -0.41201007       0.56039669      -0.40113772      -0.00023822      -8.70658176
Si      12.46894497       4.90469992       5.83392051      -0.24042405      -0.70834949      -0.73880802      -0.00327744       0.57663767       0.10939441      -8.69454108
Si      14.46431479       5.96859928       8.92472560      -0.36314686      -0.06336095       0.80144104      -0.27762932       0.67922145       0.00853789      -8.70774509
Si      12.38813215       7.22137171       2.76393152      -0.55491565      -0.43186467      -0.36952368      -0.06123535       0.12025915      -0.14324485      -8.67981767
Si      14.34769294       8.32065228       5.82654518      -1.27500471       2.30093185      -0.74971101       0.62401879       0.28020395      -0.09795517      -8.73320260
Si      16.35788117       9.47379987       8.92781933      -0.91734042      -0.16633057      -1.49261942      -0.04319887      -0.12568916      -0.26289641      -8.73846921
Si      14.38320189      10.43009836       2.63938718      -0.46550224      -0.48971724       1.63064404       0.22211631       0.46046873      -0.09892667      -8.70597277
Si      16.40253064      11.68474126       5.79922092      -1.34047197       0.43602176       1.55925536      -1.00636567      -0.72661191       0.11370787      -8.73619981
Si      18.16248352      12.70651248       9.02615305       0.74462491       0.07807790       0.46376191       0.32449836       0.59842783      -0.31792267      -8.69977845
Si      14.39579257       3.96002172       2.85942612      -0.19767813      -0.59016737      -0.47689564       1.08374291      -1.04376480      -0.58902985      -8.69348968
Si      16.33162860       4.94777731       5.96952348      -0.96518852       0.96750031      -0.23525892      -0.17132418       0.41088897      -0.62567440      -8.69266635
Si      18.20886753       6.22930007       9.10738530      -1.50692597      -2.41402207      -0.42548707      -0.68474923      -0.16753040       0.61678514      -8.29853485
Si      16.36858905       7.17427811       2.77905611      -0.07149063       0.86558255      -0.05476320      -0.00512213       0.19063472       0.33003397      -8.77142069
Si      18.22846827       8.30114602       5.98330732       0.46860576      -1.28822029      -0.97969360       1.27739006       0.43748111      -0.51431153      -8.62721336
Si      20.16353574       9.38791748       9.20092471      -0.10152945      -0.02598684       0.95887442       0.60740829       0.33453058       0.23556003      -8.69788142
Si      18.29025456      10.57776354       2.67933190       0.83171705      -0.37691753       1.42527177      -0.41207208      -0.16436886       2.28475526      -8.65268795
Si      20.21375046      11.62446863       5.90373308      -0.86715881       0.93214962       0.11904304      -0.60148892      -0.16847016       0.54928920      -8.70094527
Si      22.14933649      12.74794664       9.04471759       0.33375062      -0.64535510      -0.18293111       0.09200489      -0.87039093      -0.46330509      -8.70752686
Si       0.87432944       0.57413938       0.47914349      -0.49813709       1.43537191       1.44827238       0.30287858       0.18697588      -1.78262005      -8.54018979
Si       2.86440806       1.70348474       3.55449068      -0.48675862      -0.16397454      -0.36532631      -0.44468875       0.10980500       0.12784327      -8.75160784
Si       4.79922818       2.73165941       6.65963919      -1.40462012      -1.06691635      -1.32165731       0.29847699      -0.07852967       0.41748472      -8.75590605
Si       2.99979779       3.82032921       0.48796973       1.70026177       0.79889527       0.13287978      -0.33052796       0.42051894       0.13002557      -8.46161117
Si       4.83709440       4.97706899       3.58180838       0.88228886       0.65166739      -0.92825264       0.43664425      -0.27718437       0.22107061      -8.67580454
Si       6.69930697       6.08469163       6.72703514       0.20999344      -0.85598487       1.83089356      -0.76498729       0.31058878      -0.02166546      -8.53729461
Si       4.83373403       7.17689696       0.47222537      -0.75664333       0.33890092      -0.19982624      -0.23556771       0.13764204      -0.34270999      -8.71379307
Si       6.72188446       8.31449056       3.55540403       0.47809816      -0.77982007       0.12541922       0.01957830       0.26419824       0.25985917      -8.69033411
Si       8.71854006       9.44500020       6.93310416       1.26831148       0.24917992      -0.11953774      -0.93602490      -0.19984501      -1.71205384      -8.64409907
Si       4.78140256       0.63330552       0.47046161      -0.01422759       0.70281782      -2.05404585      -0.03548996      -1.34542224      -0.11436269      -8.56283798
Si       6.78948546       1.61198538       3.55183365      -0.04810829      -1.27816875      -0.87159709      -0.30483879      -0.84622825       0.03726561      -8.73582829
Si       8.65450091       2.62286744       6.70699704      -0.46798890      -0.09008470       0.30535065       0.13238470       0.32795188       0.22798104      -8.54413211
Si       6.85490061       3.80295221       0.39108097       0.30963153      -0.40833886       0.74535786       0.47785792       0.56609250       0.97961755      -8.62347866
Si       8.63913508       4.93845160       3.57909013      -0.40060853       0.53418558       0.60781219       0.37226434       0.29907431       0.78380145      -8.63291804
Si      10.62535781       6.13050596       6.73610801       0.58067928      -0.13777808      -0.68408275      -0.07777423      -0.42110502      -0.78566018      -8.50491250
Si       8.77844463       7.14470797       0.46071864       0.38004766      -0.30884190      -0.89473908      -1.28632098       0.30791992       0.60642846      -8.63372382
Si      10.47114903       8.42079715       3.64364367      -0.66673136       0.68385925      -0.38524362       0.57889475      -0.68731357       0.03487013      -8.68749465
Si      12.49121239       9.39978320       6.69394629       0.66475384       0.27424433       0.21037527       0.56931424       0.53780688       0.84304989      -8.71836597
Si       8.64876633       0.42493617       0.22571050      -0.70870433      -0.84753756       0.36581432      -0.60107034       0.19986959       1.05458336      -8.70226657
Si      10.47406860       1.64540203       3.48203223      -0.56292468      -0.87583636       0.69921561       0.57690202      -0.13859993      -0.76420710      -8.67955047
Si      12.43295546       2.73344460       6.66180982       0.45521799       0.51652337       0.23836625       1.10347453       0.05186438       0.27490786      -8.74269378
Si      10.42257721       3.99750235       0.32668020       0.59628618       0.28815005       0.37805685       0.34459600      -0.71721072       0.34648601      -8.62641389
Si      12.49324963       4.96109478       3.48073927      -1.09520049       0.63487436       0.39526843      -1.41026891       0.70045130       0.26318158      -8.71146602
Si      14.35620851       6.13055729       6.58263744       0.10080084       2.07944280       0.10512317       0.28940283      -0.70343453       0.23466631      -8.69995683
Si      12.43789358       7.20065817       0.35811837      -0.73455548      -1.11603329       0.58464506       0.17911102      -0.26691677       0.97939573      -8.71397875
Si      14.38818254       8.25222992       3.47016808       0.40157062       0.85990685      -0.36321562      -0.06125905      -0.05793222       0.17572336      -8.75361341
Si      16.32761046       9.44740026       6.58620623       0.63159198      -0.35611851       0.72598228      -0.62415056       0.04932878       0.07516004      -8.70566690
Si       8.57048864       5.21708427       8.28393463       1.28876374       0.93550701      -1.75876488       0.51156045      -0.43645443       1.06992407      -7.70485623
55
Lattice="11.5478352 0.0 0.0 5.773917198490155 10.000722372470358 0.0 5.773916394327279 3.333571176804646 9.428767828939895" Properties=species:S:1:pos:R:3:momenta:R:3:forces:R:3:energies:R:1 spacegroup="_JSON {\"number\": 1, \"setting\": 1}" unit_cell=conventional occupancy="_JSON {\"0\": {\"Si\": 1.0}, \"1\": {\"Si\": 1.0}, \"2\": {\"Si\": 1.0}, \"3\": {\"Si\": 1.0}, \"4\": {\"Si\": 1.0}, \"5\": {\"Si\": 1.0}, \"6\": {\"Si\": 1.0}, \"7\": {\"Si\": 1.0}, \"8\": {\"Si\": 1.0}, \"9\": {\"Si\": 1.0}, \"10\": {\"Si\": 1.0}, \"11\": {\"Si\": 1.0}, \"12\": {\"Si\": 1.0}, \"13\": {\"Si\": 1.0}, \"14\": {\"Si\": 1.0}, \"15\": {\"Si\": 1.0}, \"16\": {\"Si\": 1.0}, \"17\": {\"Si\": 1.0}, \"18\": {\"Si\": 1.0}, \"19\": {\"Si\": 1.0}, \"20\": {\"Si\": 1.0}, \"21\": {\"Si\": 1.0}, \"22\": {\"Si\": 1.0}, \"23\": {\"Si\": 1.0}, \"24\": {\"Si\": 1.0}, \"25\": {\"Si\": 1.0}, \"26\": {\"Si\": 1.0}, \"27\": {\"Si\": 1.0}, \"28\": {\"Si\": 1.0}, \"29\": {\"Si\": 1.0}, \"30\": {\"Si\": 1.0}, \"31\": {\"Si\": 1.0}, \"32\": {\"Si\": 1.0}, \"33\": {\"Si\": 1.0}, \"34\": {\"Si\": 1.0}, \"35\": {\"Si\": 1.0}, \"36\": {\"Si\": 1.0}, \"37\": {\"Si\": 1.0}, \"38\": {\"Si\": 1.0}, \"39\": {\"Si\": 1.0}, \"40\": {\"Si\": 1.0}, \"41\": {\"Si\": 1.0}, \"42\": {\"Si\": 1.0}, \"43\": {\"Si\": 1.0}, \"44\": {\"Si\": 1.0}, \"45\": {\"Si\": 1.0}, \"46\": {\"Si\": 1.0}, \"47\": {\"Si\": 1.0}, \"48\": {\"Si\": 1.0}, \"49\": {\"Si\": 1.0}, \"50\": {\"Si\": 1.0}, \"51\": {\"Si\": 1.0}, \"52\": {\"Si\": 1.0}, \"53\": {\"Si\": 1.0}, \"54\": {\"Si\": 1.0}}" energy=-475.4397236864377 stress="-0.009693080429657846 -0.00026435359938398146 0.00027912060117147973 -0.00026435359938398146 -0.008354147527678707 -0.0004955266065823187 0.00027912060117147973 -0.0004955266065823187 -0.007563129107651547" free_energy=-475.4397236864377 pbc="T T T"
Si       6.80043962       3.80814248       2.83280965      -1.05671038       0.84201828      -1.01000164      -0.26739210      -0.16498447      -0.25842737      -8.71481193
Si       8.58033315       4.89563132       5.98265759       0.37157848      -0.65360197      -2.34903010       0.47386984      -0.07449571      -0.82016197      -8.40425093
Si      10.83431161       6.07527132       9.08852331       0.73868735       0.70551567       0.54884254      -0.64072614       0.91124027      -0.55015589      -8.42392072
Si       8.63023799       7.14321351       2.82069031      -0.14226629       0.48751578      -1.62742786       0.38761163       0.41825120      -0.23038634      -8.73292745
Si      10.55406871       8.33135447       5.96319281      -0.84633125      -0.56341565      -1.51739776       0.47991338       0.30290697       0.05141602      -8.74939129
Si      12.57777965       9.42511294       9.11839689       0.85290832       0.15927635      -0.29345725      -0.46182336      -0.36332488      -0.18984994      -8.67083554
Si      10.49769672      10.69992610       2.77430248      -0.20773994       0.80412494      -1.07553444       0.44635288      -1.16240736      -0.26761638      -8.66595931
Si      12.58621029      11.61382554       5.90585738       0.65822767      -0.00385589       0.13097522      -1.56970841      -0.23862340      -0.50202070      -8.69304649
Si      14.44850611      12.73620201       9.14776914       0.98698109       0.22210484       0.33415670      -0.89783825       0.37575368      -0.38994379      -8.51828301
Si      10.55801789       3.79524133       2.68339630       0.99071400      -1.75120797       0.05254466      -0.52399157       0.62164197       0.53807223      -8.69212223
Si      12.46326907       4.89757024       5.80618544       0.14981762       0.51235475      -0.20011302       0.49217195       0.86133278       0.56353607      -8.69311512
Si      14.44059648       5.98711271       8.96498584      -0.41795049       0.64074627       0.70761512       0.20221265       0.17976011      -0.09706988      -8.68457215
Si      12.35874400       7.21106577       2.74576321      -0.52396600       0.15738192      -0.17760197       0.10417452       0.56992011       0.42037142      -8.70899210
Si      14.31755121       8.43871144       5.78676023       0.28584537       1.91629636      -0.67207459       1.21106108      -0.80879764       0.28239242      -8.70944245
Si      16.31515153       9.45737893       8.85730348      -0.62679324      -0.49473748      -0.79792628       0.29340590      -0.26041899       1.24442385      -8.71060020
Si      14.37108386      10.42442776       2.70481009       0.06527054       0.27714570       0.61074883       0.44926331       0.46418041      -1.06654203      -8.73704318
Si      16.31145558      11.68123131       5.88025286      -1.72252685      -0.49768309       1.41211179       0.57228078      -0.44517204      -0.34871697      -8.71206212
Si      18.20777436      12.72205533       9.03855239       0.85214171       0.25824832       0.03898190      -0.17291518      -0.39079399      -0.19857090      -8.70107242
Si      14.41666826       3.90534611       2.81997781       0.73360335      -1.12283036      -0.84382961       0.09624206       0.39263634       0.11796082      -8.68344316
Si      16.28025445       5.00462021       5.93482776      -0.87670338       0.99128622      -1.01887919       0.28074742      -0.39646083      -0.34894940      -8.68326336
Si      18.11833681       6.10791229       9.11361068      -1.66000011      -1.94189496       0.65734277       0.44778086       0.89147021       0.58333826      -8.32915250
Si      16.36620480       7.22359221       2.78478870       0.00357569       0.92271848       0.18099592       0.08095082      -0.17001412      -0.02841901      -8.75092129
Si      18.29742460       8.25322407       5.92471238       1.97102466      -0.50047216      -0.98374603       0.53092688       0.57098841       0.53671519      -8.63136758
Si      20.17868884       9.40006770       9.24567033       0.57410332       0.48247268       0.44282411       0.18752810       0.29470876      -0.93042729      -8.72094710
Si      18.30885444      10.54867338       2.82332903      -0.27729191      -0.76810580       3.47185685      -0.98687610      -0.29254246       0.04105444      -8.69963003
Si      20.14828728      11.65596000       5.92244142      -1.46613844       0.10017668       0.41386365       0.05190093      -0.81337662      -0.14596388      -8.73621710
Si      22.16400910      12.69251730       9.01706676       0.09474562      -1.18142176      -0.84141362      -0.39983861       0.24828654      -0.34092264      -8.71132263
Si       0.86298102       0.63776728       0.49575762       0.10930523       0.56716979      -0.42558195       0.46955354      -1.46589124      -0.33558937      -8.55369855
Si       2.82448416       1.70460410       3.54940421      -0.91215340       0.25622692       0.33355900       0.03313537       0.29525741       0.73530604      -8.76674239
Si       4.75089888       2.68665002       6.61055599      -0.24804405      -0.41601511      -0.50586373       1.01415336       0.81807412       0.57738263      -8.69384526
Si       3.06981281       3.86515423       0.49393242       0.87883489       0.67432190      -0.01495709      -0.69591892      -0.49704891      -0.30147736      -8.41489367
Si       4.88837670       4.99979044       3.54463956       0.82256272       0.23637308      -0.45820796      -0.54475977      -0.19045059       0.34021611      -8.69616505
Si       6.67736657       6.05098713       6.80866084      -0.99435197      -0.46219102       1.01793937      -0.56405806       0.18539485      -1.02971281      -8.55886449
Si       4.79533321       7.19623783       0.45302716      -0.47858314       0.30780963      -0.41835262       0.64886138      -0.21073284       0.09790250      -8.72830259
Si       6.74557924       8.28523144       3.56835577       0.39051861      -0.33028703       0.29590544      -0.11355180       0.27659245      -0.02386509      -8.75061251
Si       8.74076297       9.45104015       6.87227125      -0.53073433      -0.01242115      -1.90743901      -1.33501560      -0.17578074      -0.57343474      -8.64654536
Si       4.78299464       0.61396326       0.37271737       0.17785644      -1.36290927      -1.43065157       0.37069065      -1.00890629       0.82991152      -8.58684169
Si       6.77234635       1.53333013       3.51736561      -0.63309402      -1.27817041      -0.28915297      -0.39945942       0.85270522       0.63049070      -8.71128768
Si       8.63988397       2.63797774       6.73948063      -0.04377845       0.78658293       1.03033073       0.28711144       0.76998666       0.58068684      -8.57938080
Si       6.89069204       3.81156876       0.46475131       1.01061120       0.84606792       1.90501356       0.30089508       0.97673923       0.33272118      -8.65801472
Si       8.64162159       4.96728839       3.62988606       0.56657390       0.37805849       1.01008414       0.66065330      -0.42629614      -0.49076233      -8.64195993
Si      10.65009169       6.10630814       6.68177700       0.28733077      -0.75962455      -1.15074270      -0.37367577      -0.30994276       0.13741017      -8.49781643
Si       8.75148536       7.14197739       0.43891198      -1.25067067       0.21372474       0.02330553      -0.66588592       0.34640843       0.44227764      -8.68434625
Si      10.45695823       8.43359537       3.61706280       0.08146035      -0.10273925      -0.77756343       0.40085594      -0.31800019      -0.53722516      -8.66930680
Si      12.52723573       9.43256405       6.73423374       0.34830935       0.87988674       1.19404286      -0.80454946       0.15389756       0.30618120      -8.71190824
Si       8.60490643       0.39295441       0.28549943      -0.61835255      -0.26422642       1.83800450       0.72410993       0.60878309       0.74024801      -8.69287600
Si      10.47017424       1.59358361       3.49937715       0.43572539      -1.08463896       0.19624711       0.64581644      -0.07271709       0.14754742      -8.69516095
Si      12.48361052       2.75739748       6.68422391       1.08864498       0.32391973       0.57158073      -0.39382653      -0.21648697       0.10654838      -8.75370222
Si      10.46176701       3.98407014       0.35444543       0.77620509      -0.76025696       0.57488837      -0.13927402      -0.55810218      -0.05951793      -8.64330776
Si      12.40159877       5.00644322       3.50222171      -1.94319293       0.79236958       0.24601040       0.34475151      -0.45549659      -0.41171397      -8.74017819
Si      14.36427027       6.21102854       6.59542883       0.06237474       1.00797590       0.33375743      -0.27363245      -0.63533272       0.04670160      -8.65998890
Si      12.40402610       7.13970860       0.41444952      -0.57939470      -1.04139229       1.26837786       0.09615978       0.37615491      -0.17159732      -8.70768583
Si      14.39894024       8.28420883       3.46007733      -0.11797779       0.19381395       0.00036778      -0.55278098      -0.68715578       0.25159715      -8.72537263
Si      16.33841878       9.42921839       6.60936636      -0.11337510      -0.37801677      -0.17075808      -0.21001129      -0.10151003      -1.15757275      -8.69455661
Si       8.65674490       5.25838920       8.24044475       1.92258294       0.78843171       0.11542959       0.20236699       0.14819191       1.12420339      -7.70764879
55
Lattice="11.5478352 0.0 0.0 5.773917198490155 10.000722372470358 0.0 5.773916394327279 3.333571176804646 9.428767828939895" Properties=species:S:1:pos:R:3:momenta:R:3:forces:R:3:energies:R:1 spacegroup="_JSON {\"number\": 1, \"setting\": 1}" unit_cell=conventional occupancy="_JSON {\"0\": {\"Si\": 1.0}, \"1\": {\"Si\": 1.0}, \"2\": {\"Si\": 1.0}, \"3\": {\"Si\": 1.0}, \"4\": {\"Si\": 1.0}, \"5\": {\"Si\": 1.0}, \"6\": {\"Si\": 1.0}, \"7\": {\"Si\": 1.0}, \"8\": {\"Si\": 1.0}, \"9\": {\"Si\": 1.0}, \"10\": {\"Si\": 1.0}, \"11\": {\"Si\": 1.0}, \"12\": {\"Si\": 1.0}, \"13\": {\"Si\": 1.0}, \"14\": {\"Si\": 1.0}, \"15\": {\"Si\": 1.0}, \"16\": {\"Si\": 1.0}, \"17\": {\"Si\": 1.0}, \"18\": {\"Si\": 1.0}, \"19\": {\"Si\": 1.0}, \"20\": {\"Si\": 1.0}, \"21\": {\"Si\": 1.0}, \"22\": {\"Si\": 1.0}, \"23\": {\"Si\": 1.0}, \"24\": {\"Si\": 1.0}, \"25\": {\"Si\": 1.0}, \"26\": {\"Si\": 1.0}, \"27\": {\"Si\": 1.0}, \"28\": {\"Si\": 1.0}, \"29\": {\"Si\": 1.0}, \"30\": {\"Si\": 1.0}, \"31\": {\"Si\": 1.0}, \"32\": {\"Si\": 1.0}, \"33\": {\"Si\": 1.0}, \"34\": {\"Si\": 1.0}, \"35\": {\"Si\": 1.0}, \"36\": {\"Si\": 1.0}, \"37\": {\"Si\": 1.0}, \"38\": {\"Si\": 1.0}, \"39\": {\"Si\": 1.0}, \"40\": {\"Si\": 1.0}, \"41\": {\"Si\": 1.0}, \"42\": {\"Si\": 1.0}, \"43\": {\"Si\": 1.0}, \"44\": {\"Si\": 1.0}, \"45\": {\"Si\": 1.0}, \"46\": {\"Si\": 1.0}, \"47\": {\"Si\": 1.0}, \"48\": {\"Si\": 1.0}, \"49\": {\"Si\": 1.0}, \"50\": {\"Si\": 1.0}, \"51\": {\"Si\": 1.0}, \"52\": {\"Si\": 1.0}, \"53\": {\"Si\": 1.0}, \"54\": {\"Si\": 1.0}}" energy=-475.02103666689413 stress="-0.008367146206954928 -0.0012474911761541571 -0.0006626547874568545 -0.0012474911761541571 -0.005088995002247057 -0.0012707029677551294 -0.0006626547874568545 -0.0012707029677551294 -0.011306601730534944" free_energy=-475.02103666689413 pbc="T T T"
Si       6.74958559       3.83922404       2.79120654      -0.64666250       0.25695262      -0.16712333       0.64621683      -0.50110525       1.30264938      -8.66829245
Si       8.60954548       4.86486115       5.86196317       0.58592349      -0.40053245      -1.62183867      -0.14636972       0.39699098       1.57487451      -8.40867237
Si      10.85590734       6.13826249       9.09794318       0.26485470       1.48615769      -0.11550070       0.05972694       0.09867429      -0.27255140      -8.33669818
Si       8.63880944       7.17765229       2.73958584       0.45650190       0.68085132      -1.20233125       0.33698559      -0.14926894       0.77657445      -8.71380373
Si      10.53455902       8.31578510       5.89306909       0.14178368      -0.01031553      -1.03098395       0.63733360       0.38297390       0.53503588      -8.68541297
Si      12.59401456       9.41968832       9.10308676      -0.38081081      -0.32445107      -0.14991867      -1.02021993      -0.18715175       0.34502536      -8.67813970
Si      10.49487088      10.69428649       2.71175221      -0.07086398      -0.99726330      -1.18555477      -0.20606991      -1.06116752       0.21841043      -8.66146261
Si      12.56314863      11.61014549       5.89658233      -1.35914759       0.00734825      -0.35623344      -0.88171402       0.30424061      -0.01096897      -8.72212972
Si      14.45657475      12.75927228       9.15015668      -0.76682771       0.59350988      -0.20027865      -1.19929004       0.13147298      -0.21542433      -8.57850596
Si      10.58346863       3.73140674       2.70745391      -0.09616443      -0.65457880       0.83214360      -0.81151446       0.72816355       0.40589047      -8.67199880
Si      12.49274839       4.95010098       5.81721847       0.97273325       1.29706499       0.57013269       0.46415572       0.10500365       0.36352971      -8.71679762
Si      14.42952766       6.02036674       8.99922374       0.01976138       0.50548774       0.60854951       0.29204973      -0.29722834      -0.06047206      -8.65062694
Si      12.33715813       7.23823962       2.75629104      -0.25325831       0.74981463       0.57896053       0.28466824       0.05940442       0.40048596      -8.75032586
Si      14.36737801       8.50119694       5.76926580       1.28308499       0.36970450       0.11538260      -0.06985631      -1.18922006       0.69081884      -8.70985484
Si      16.29085231       9.42229397       8.86890039      -0.36022000      -0.80800913       1.17739476       0.06174716      -0.11998681       1.00892478      -8.69224715
Si      14.38947022      10.45149662       2.70194460       0.54723820       0.63998678      -0.46245628       0.10456461       0.01890358      -0.05097888      -8.76630413
Si      16.25572929      11.64508791       5.93723562      -0.26086086      -0.71767545       0.71985665       1.12143322       0.19847739      -0.49621105      -8.65950894
Si      18.24546870      12.71248472       9.03750915       0.63645769      -0.70631632       0.02222179       0.02134111      -0.71134529       0.19341493      -8.70816976
Si      14.44915778       3.87434332       2.78606355       0.35057979       0.10407859      -0.36709348      -0.52311780       1.02279565       0.44098548      -8.62606142
Si      16.24676006       5.03514313       5.87456777      -0.40229459       0.09542671      -1.13013355       0.26976650      -0.69202776       0.23462899      -8.69205684
Si      18.05957295       6.04709882       9.15881576      -0.36371237      -0.38756429       0.82938802       1.29320134       0.81636173      -0.32666756      -8.31253497
Si      16.36839708       7.26043928       2.78998986       0.04168520       0.39372042      -0.02118949      -0.06881055      -0.50876183      -0.17892111      -8.71751926
Si      18.40395036       8.24434921       5.90107118       1.70006589       0.02158184       0.13259543      -1.01475590       0.00761432       0.71679646      -8.65865197
Si      20.20714068       9.43239277       9.22525234       0.35396583       0.64179303      -1.29777517      -0.41286285      -0.12466514      -1.22095761      -8.68166222
Si      18.26152563      10.50020347       2.97916139      -1.30224095      -0.98449592       2.02205233      -0.10345289       0.07313451      -1.73253634      -8.65940371
Si      20.08977752      11.63298327       5.93467433      -0.48343004      -0.83168020       0.03562728       1.11412846      -0.23804547      -0.20770233      -8.75635613
Si      22.15219115      12.65277382       8.96570877      -0.52629343      -0.14679553      -0.96108393      -0.32433857       0.96776395       0.27480662      -8.69516634
Si       0.88482994       0.59671231       0.48140715       0.64014112      -2.21717689       0.16622624       0.12468721      -1.74223831       0.80645458      -8.49714578
Si       2.78624928       1.72286729       3.59318797      -0.42488518       0.28296519       1.20266500       0.50158404      -0.30330354       0.20727039      -8.73816548
Si       4.76899933       2.69666411       6.60107660       0.70734840       0.74752446       0.02053759       0.12120806       0.62629680       0.09715641      -8.68594344
Si       3.08792057       3.87920957       0.47860887      -0.21878812      -0.10952346      -0.59724572      -0.80691590      -0.38209386      -0.40282998      -8.42137188
Si       4.90147518       5.00978054       3.53070653      -0.44180214       0.23159149      -0.14836134      -0.99352709       0.14275039       0.04324652      -8.70886313
Si       6.61658279       6.03205933       6.81930813      -1.05543974      -0.27389584      -0.59381274       0.48121490       0.12230339      -0.95468556      -8.53591927
Si       4.80235081       7.20114354       0.43928603       0.80567726      -0.15193131      -0.06005735       0.85720097      -0.32600989       0.26718537      -8.72788158
Si       6.76228520       8.27391718       3.58169798       0.26512822      -0.21188931       0.21739438      -0.04356108      -0.15471563      -0.00392721      -8.76343514
Si       8.67007877       9.44279957       6.76481537      -1.87164171      -0.30906658      -1.90644890      -0.16464679      -0.18703163       0.55554539      -8.71177046
Si       4.81257450       0.52592510       0.33169586       1.00210683      -1.55897014      -0.13831757       0.54407668       0.66549680       0.80015615      -8.58434912
Si       6.72833773       1.50966634       3.52441974      -0.92039637       0.46927219       0.45000355       0.07618650       1.21654458       0.20476927      -8.67844290
Si       8.64116152       2.70503065       6.80738829      -0.06615791       1.60230524       1.29374719      -0.30968643       0.11209386      -0.44706719      -8.61745083
Si       6.94764263       3.88918390       0.55793417       1.01206691       1.95775578       1.24023694      -0.27701878       0.35720770      -1.21577174      -8.64716911
Si       8.68998076       4.96896737       3.63881838       1.12316688      -0.30412752      -1.09917383       0.05196488      -0.39272228      -2.08064485      -8.60018539
Si      10.64575080       6.06142901       6.63302588      -0.52968500      -0.79030118      -0.62326669      -0.65194986       0.31697421       0.47203196      -8.51275663
Si       8.67516953       7.16549377       0.44602583      -1.38560723       0.65540117       0.01178400       0.39881316       0.22877974      -0.47270090      -8.68729793
Si      10.47303314       8.42232759       3.55349768       0.45261990      -0.20801904      -1.60452194       0.08388483       0.14980445      -0.36045205      -8.70402893
Si      12.51403882       9.47501189       6.79346519      -0.77303003       0.54861459       0.74558817      -0.51852454      -0.57562601      -0.91922415      -8.68325379
Si       8.60757582       0.40466324       0.39605143       0.74988266       0.70264031       2.00382934       0.84236396       0.56908261      -0.73150331      -8.68647980
Si      10.51043664       1.53820798       3.52592628       0.89164869      -0.90666895       0.97048875      -0.17418074       0.39772928       0.74873782      -8.71637546
Si      12.50992070       2.76889071       6.71407874      -0.27954140       0.17105112       0.46694198      -1.13280943      -0.01268065      -0.28830541      -8.71553797
Si      10.49049860       3.93007467       0.38183501       0.19690264      -1.13828087       0.49884913      -0.60482534       0.06732014       0.05128417      -8.66663171
Si      12.32922747       5.02491567       3.49843329      -0.55454298      -0.12065795      -0.34545078       1.37556851      -0.58945715      -0.24021146      -8.66642418
Si      14.35605920       6.24438497       6.61277814      -0.33627783       0.34488722       0.30507478      -0.11415103      -0.31145368      -0.03746392      -8.65708997
Si      12.37989765       7.10415632       0.46138927      -0.26922019      -0.25349597       0.33877194       0.36743665       0.60875440      -0.87222138      -8.69093930
Si      14.37167761       8.27181548       3.46672532      -0.86416029      -0.52442413       0.18434211      -0.31876163      -0.13879437      -0.00756697      -8.71254568
Si      16.33661468       9.40390805       6.55984699       0.29702350      -0.59645782      -1.45666070       0.77328587      -0.13623932      -0.15676215      -8.68842980
Si       8.75765892       5.30764088       8.27783644       1.76561468       1.08707723       1.08202658      -0.41386369       0.13922663       0.22803961      -7.73678740
55
Lattice="11.5478352 0.0 0.0 5.773917198490155 10.000722372470358 0.0 5.773916394327279 3.333571176804646 9.428767828939895" Properties=species:S:1:pos:R:3:momenta:R:3:forces:R:3:energies:R:1 spacegroup="_JSON {\"number\": 1, \"setting\": 1}" unit_cell=conventional occupancy="_JSON {\"0\": {\"Si\": 1.0}, \"1\": {\"Si\": 1.0}, \"2\": {\"Si\": 1.0}, \"3\": {\"Si\": 1.0}, \"4\": {\"Si\": 1.0}, \"5\": {\"Si\": 1.0}, \"6\": {\"Si\": 1.0}, \"7\": {\"Si\": 1.0}, \"8\": {\"Si\": 1.0}, \"9\": {\"Si\": 1.0}, \"10\": {\"Si\": 1.0}, \"11\": {\"Si\": 1.0}, \"12\": {\"Si\": 1.0}, \"13\": {\"Si\": 1.0}, \"14\": {\"Si\": 1.0}, \"15\": {\"Si\": 1.0}, \"16\": {\"Si\": 1.0}, \"17\": {\"Si\": 1.0}, \"18\": {\"Si\": 1.0}, \"19\": {\"Si\": 1.0}, \"20\": {\"Si\": 1.0}, \"21\": {\"Si\": 1.0}, \"22\": {\"Si\": 1.0}, \"23\": {\"Si\": 1.0}, \"24\": {\"Si\": 1.0}, \"25\": {\"Si\": 1.0}, \"26\": {\"Si\": 1.0}, \"27\": {\"Si\": 1.0}, \"28\": {\"Si\": 1.0}, \"29\": {\"Si\": 1.0}, \"30\": {\"Si\": 1.0}, \"31\": {\"Si\": 1.0}, \"32\": {\"Si\": 1.0}, \"33\": {\"Si\": 1.0}, \"34\": {\"Si\": 1.0}, \"35\": {\"Si\": 1.0}, \"36\": {\"Si\": 1.0}, \"37\": {\"Si\": 1.0}, \"38\": {\"Si\": 1.0}, \"39\": {\"Si\": 1.0}, \"40\": {\"Si\": 1.0}, \"41\": {\"Si\": 1.0}, \"42\": {\"Si\": 1.0}, \"43\": {\"Si\": 1.0}, \"44\": {\"Si\": 1.0}, \"45\": {\"Si\": 1.0}, \"46\": {\"Si\": 1.0}, \"47\": {\"Si\": 1.0}, \"48\": {\"Si\": 1.0}, \"49\": {\"Si\": 1.0}, \"50\": {\"Si\": 1.0}, \"51\": {\"Si\": 1.0}, \"52\": {\"Si\": 1.0}, \"53\": {\"Si\": 1.0}, \"54\": {\"Si\": 1.0}}" energy=-475.2676242638146 stress="-0.009057036232089312 -0.0016917402629713853 -0.0014446545391570917 -0.0016917402629713853 -0.005337852630893473 -0.001654500588370184 -0.0014446545391570917 -0.001654500588370184 -0.009002893801477205" free_energy=-475.2676242638146 pbc="T T T"
Si       6.73993744       3.83756852       2.83350833       0.20725387      -0.18056295       1.59897853       0.36497745       0.05290789       0.60429063      -8.68192338
Si       8.62992905       4.86384936       5.83603851       0.11456418       0.44566606       0.39127917      -0.44818979       0.71166480       0.68548087      -8.49154262
Si      10.87987588       6.21233601       9.08590902       0.73997970       1.20332473      -0.26755541       0.40549251      -0.43953877       0.02866268      -8.19280121
Si       8.67149345       7.20280479       2.70892775       0.68706104       0.19822497      -0.02091951      -0.07005459      -0.46193387       0.55956268      -8.70560776
Si      10.55844033       8.32766799       5.85875903       0.57673669       0.39600400      -0.32998669      -0.11572014       0.11195157       0.32632768      -8.64679247
Si      12.54020674       9.40381428       9.10738211      -1.47876028      -0.09168862       0.19742175      -0.25916069       0.53820156      -0.11494273      -8.72174497
Si      10.48172032      10.61358214       2.66620914      -0.40791469      -1.76404706      -0.39964161      -0.12691705       0.18885115       0.79337129      -8.68689359
Si      12.47399826      11.62637503       5.88593467      -1.72562808       0.63437763       0.07224059       0.35675168       0.39070408       0.45350987      -8.72694039
Si      14.38540490      12.79364406       9.13716615      -1.53751222       0.66726669      -0.21763481       0.38732655      -0.07105424       0.06527505      -8.65933000
Si      10.55367190       3.71889699       2.76053585      -0.82095403       0.02962796       1.04864206       0.06446591       0.14182850      -0.15320998      -8.70185652
Si      12.55136807       5.01199304       5.85479363       1.00023449       0.87445614       0.73462392      -0.54820072      -0.63250801      -0.13737950      -8.71053314
Si      14.43784382       6.03453331       9.02730879       0.20264367       0.04821654       0.40632054      -0.07501735      -0.24004723      -0.27631238      -8.64883741
Si      12.33744666       7.26733896       2.79104826       0.30534197       0.11952058       0.49832203       0.43545869      -0.86267112      -0.55131790      -8.74515091
Si      14.41569979       8.47622470       5.79935840       0.33958283      -1.23526006       0.94082102      -0.90783829      -0.81934704       0.33931608      -8.71520553
Si      16.27263511       9.37857291       8.95303486      -0.33820050      -0.77949259       1.70898886       0.04956223       0.19133388      -0.25186398      -8.66104328
Si      14.41567947      10.48258298       2.69792301       0.33229750       0.50279790       0.64687713      -0.36526537      -0.14922703       1.21153376      -8.72699174
Si      16.27745747      11.62210471       5.96069599       0.88678194      -0.06936591       0.29451475       0.32546632       0.53234789      -0.02367785      -8.68592639
Si      18.28608733      12.65470689       9.04874024       0.99651070      -1.29789425       0.40338972       0.33886026       0.07883977       0.17365498      -8.72211987
Si      14.44447756       3.91234107       2.78219923      -0.55433671       1.12738823       0.15256868      -0.60728555       0.16663624       0.16943124      -8.67616426
Si      16.23155177       5.01753086       5.83023525      -0.26028715      -0.64106937      -0.46843135      -0.04545200      -0.18967248       0.58504340      -8.70529912
Si      18.09462248       6.03979975       9.18473261       1.67453780      -0.22083854       0.10907490       1.15780951      -0.44800950      -0.52511843      -8.37100807
Si      16.36501807       7.26154870       2.78343971      -0.21733815      -0.31492704      -0.19072373      -0.24628422      -0.35783559      -0.03506807      -8.71194196
Si      18.43505123       8.23391659       5.92473754      -0.78104654      -0.60872749       0.53817294      -1.97721902      -0.68928603      -0.16077713      -8.67539394
Si      20.20983075       9.45676367       9.11692731      -0.19993421       0.22014307      -2.62250161      -0.21777101      -0.38683183      -0.37987868      -8.66268298
Si      18.20733033      10.45557644       3.01342936      -0.47800500      -0.65119669      -0.72027743       0.98082676       0.33590612      -1.71914178      -8.65981417
Si      20.10535328      11.59471232       5.93553384       0.95023914      -0.35626139       0.14068160       0.62424698       0.80513903       0.33174161      -8.73957264
Si      22.11793097      12.67886722       8.93512446      -0.64430532       1.00329269      -0.05530872       0.20892596       0.42614315       0.83928979      -8.69727314
Si       0.91198244       0.43810751       0.52063833       0.14582764      -3.25090796       1.27621110      -0.83491273       0.50031920       0.59833741      -8.53750974
Si       2.78223539       1.72134340       3.64911923       0.23343809      -0.38344331       0.62772938       0.35201594      -0.46987653      -0.95613545      -8.69374679
Si       4.79732515       2.75375315       6.60146656       0.14194315       1.29534367      -0.04242100      -0.77928597       0.09080576      -0.03927555      -8.72049090
Si       3.04457923       3.86832859       0.43548265      -1.41579557      -0.09808897      -0.93627844      -0.71650666       0.42667630       0.03278614      -8.46274772
Si       4.84530215       5.02773201       3.52044493      -1.52962415       0.42509103      -0.29687104      -0.32337493       0.03537437      -0.15908977      -8.73441122
Si       6.58810585       6.02231991       6.76040562       0.08107109      -0.11911273      -1.45060805       0.90793014       0.02364605      -0.15814443      -8.51906776
Si       4.86541388       7.18447724       0.44166743       1.26093160      -0.37312530       0.04104290      -0.46901716       0.11126426      -0.14803387      -8.73357813
Si       6.77511587       8.25187034       3.59651697       0.21740676      -0.68755246       0.40398048      -0.07229530      -0.37704307       0.20109874      -8.73257837
Si       8.59069731       9.42300325       6.69554168      -0.70618243      -0.36722382      -0.61552466       1.52991806       0.08922755       0.98199865      -8.71442272
Si       4.87675239       0.47803172       0.34777069       1.22630285      -0.18386248       0.57379587      -0.28490345       1.00524154       0.10362790      -8.53583089
Si       6.68721819       1.57107757       3.54578463      -0.59718442       1.60354875       0.19730737       0.27660724       0.15234303      -0.43007743      -8.70202512
Si       8.62281083       2.77899022       6.84253217      -0.65142671       0.94031523      -0.18230522      -0.38633799      -0.96248030      -1.31502470      -8.58931275
Si       6.98629664       3.99151197       0.57379669       0.40143424       1.62634393      -0.49406324      -0.50976698      -0.88194081      -0.67780449      -8.61787915
Si       8.74214318       4.94276073       3.51302893       0.67017197      -0.56419079      -3.21404370      -0.71745369       0.13751420      -0.23775234      -8.65537980
Si      10.59728006       6.03905148       6.61669517      -1.15775967       0.05034520      -0.05195387      -0.02185863       0.75878233       0.26814480      -8.53215054
Si       8.62197045       7.20574678       0.42199750      -0.61028618       0.80353661      -0.96487428       0.53506907      -0.06970201      -0.60855028      -8.67640741
Si      10.49613987       8.41950237       3.46756513       0.36802523       0.09572335      -1.39231232      -0.14253273       0.11494245       0.72295380      -8.73328663
Si      12.46204394       9.47855489       6.79046131      -1.03724723      -0.41572237      -0.88071985       0.16671672      -0.57790211      -0.99114449      -8.68789032
Si       8.66938841       0.45750332       0.45345642       1.38103896       1.17754129      -0.06653439      -0.04841973       0.03910928      -1.64555378      -8.68846271
Si      10.53814168       1.51277493       3.60433230      -0.00897853       0.03630118       1.91429827      -0.81846029       0.76167664       0.32340374      -8.72254360
Si      12.46159909       2.77678853       6.72297444      -1.27797775       0.10796351      -0.17564717      -0.02361969      -0.08248828      -0.45629073      -8.71663726
Si      10.47894236       3.87713974       0.41452281      -0.52139458      -0.84286657       0.81196265      -0.13978449       0.21340404       0.29244944      -8.70070766
Si      12.35470937       5.00197525       3.47820865       1.46077833      -0.62029071      -0.28425812       1.08822525      -0.06489970       0.31430789      -8.66756804
Si      14.34307108       6.25195367       6.63017885       0.03170591      -0.05083589       0.43441968       0.61532552      -0.29004938       0.25544521      -8.67670475
Si      12.38312690       7.11121668       0.45038056       0.43170681       0.41422434      -0.60767743       0.51191564       0.16905011      -0.29110675      -8.71918378
Si      14.32318484       8.24897903       3.47551601      -0.78241670      -0.17210130       0.16980528       0.46640591       0.53786804       0.06322530      -8.70474716
Si      16.38849191       9.36933976       6.49969483       1.67280621      -0.66868059      -0.45762242       0.69659707       0.07276100       1.32126944      -8.65026904
Si       8.83118790       5.36493865       8.33714652       1.00214246       0.96275194       1.07322486      -0.54799114      -0.38811684      -0.20286756      -7.71169286
55
Lattice="11.5478352 0.0 0.0 5.773917198490155 10.000722372470358 0.0 5.773916394327279 3.333571176804646 9.428767828939895" Properties=species:S:1:pos:R:3:momenta:R:3:forces:R:3:energies:R:1 spacegroup="_JSON {\"number\": 1, \"setting\": 1}" unit_cell=conventional occupancy="_JSON {\"0\": {\"Si\": 1.0}, \"1\": {\"Si\": 1.0}, \"2\": {\"Si\": 1.0}, \"3\": {\"Si\": 1.0}, \"4\": {\"Si\": 1.0}, \"5\": {\"Si\": 1.0}, \"6\": {\"Si\": 1.0}, \"7\": {\"Si\": 1.0}, \"8\": {\"Si\": 1.0}, \"9\": {\"Si\": 1.0}, \"10\": {\"Si\": 1.0}, \"11\": {\"Si\": 1.0}, \"12\": {\"Si\": 1.0}, \"13\": {\"Si\": 1.0}, \"14\": {\"Si\": 1.0}, \"15\": {\"Si\": 1.0}, \"16\": {\"Si\": 1.0}, \"17\": {\"Si\": 1.0}, \"18\": {\"Si\": 1.0}, \"19\": {\"Si\": 1.0}, \"20\": {\"Si\": 1.0}, \"21\": {\"Si\": 1.0}, \"22\": {\"Si\": 1.0}, \"23\": {\"Si\": 1.0}, \"24\": {\"Si\": 1.0}, \"25\": {\"Si\": 1.0}, \"26\": {\"Si\": 1.0}, \"27\": {\"Si\": 1.0}, \"28\": {\"Si\": 1.0}, \"29\": {\"Si\": 1.0}, \"30\": {\"Si\": 1.0}, \"31\": {\"Si\": 1.0}, \"32\": {\"Si\": 1.0}, \"33\": {\"Si\": 1.0}, \"34\": {\"Si\": 1.0}, \"35\": {\"Si\": 1.0}, \"36\": {\"Si\": 1.0}, \"37\": {\"Si\": 1.0}, \"38\": {\"Si\": 1.0}, \"39\": {\"Si\": 1.0}, \"40\": {\"Si\": 1.0}, \"41\": {\"Si\": 1.0}, \"42\": {\"Si\": 1.0}, \"43\": {\"Si\": 1.0}, \"44\": {\"Si\": 1.0}, \"45\": {\"Si\": 1.0}, \"46\": {\"Si\": 1.0}, \"47\": {\"Si\": 1.0}, \"48\": {\"Si\": 1.0}, \"49\": {\"Si\": 1.0}, \"50\": {\"Si\": 1.0}, \"51\": {\"Si\": 1.0}, \"52\": {\"Si\": 1.0}, \"53\": {\"Si\": 1.0}, \"54\": {\"Si\": 1.0}}" energy=-475.11438223759114 stress="-0.010745160425439241 -0.00030891651146802804 -0.0004416071820110168 -0.00030891651146802804 -0.010675562863291842 -0.001039313587271714 -0.0004416071820110168 -0.001039313587271714 -0.003778935616871108" free_energy=-475.11438223759114 pbc="T T T"
Si       6.75503012       3.84170144       2.91799665       0.15756476       0.52612227       1.21265941      -0.46014062       0.75590422      -0.98786675      -8.63836812
Si       8.61834408       4.91366723       5.86326826      -0.52237666       1.36712661       0.33461994      -0.29626950       0.35691602      -0.55308708      -8.54263990
Si      10.92828838       6.25487489       9.07401270       0.92668277       0.35152204      -0.18329499      -0.28929497      -0.69673368       0.03978926      -8.09978421
Si       8.69908138       7.19520001       2.71644311       0.26093101      -0.45450145       0.06359570      -0.47050948      -0.31659819      -0.38622490      -8.71252758
Si      10.57479446       8.34723700       5.84771933      -0.10127326       0.24078293      -0.21015692      -0.67851090      -0.31007639      -0.13828047      -8.66525033
Si      12.46869288       9.42372111       9.09953619      -0.94476974       0.83162485      -0.72234425       0.89833849       0.46163767      -0.96495916      -8.70899704
Si      10.46048708      10.54657079       2.67558351      -0.29099532      -0.48693769       0.68801973       0.31199881       1.33942351       0.52125841      -8.69343943
Si      12.40580978      11.66877772       5.90355811      -0.77238531       0.83698064       0.47755959       0.74191514      -0.17741012      -0.01654625      -8.72553558
Si      14.33833354      12.82375735       9.12323470      -0.02586592       0.46970201      -0.42107627       1.26928018      -0.10865276      -0.32863901      -8.63917980
Si      10.53127895       3.71850546       2.80504934       0.25896912      -0.13147643       0.60468245       1.15654455      -0.17470172      -0.31711875      -8.67933332
Si      12.57230899       5.03036036       5.88478739      -0.31838449      -0.17683977       0.37800270      -0.98929073      -0.63155571      -0.25389391      -8.67160100
Si      14.44203364       6.03299152       9.03460901      -0.08028804       0.00962786      -0.16334868      -0.21565292       0.21174246      -0.39335550      -8.67497155
Si      12.36949132       7.23751249       2.78866897       0.88865553      -1.21626959      -0.65561937       0.33180426      -0.69486353      -0.80327318      -8.72597940
Si      14.40648989       8.39291428       5.85582354      -0.47128983      -1.65449313       1.09191083      -0.07036605       0.29199892      -0.13359272      -8.71953584
Si      16.26069162       9.34828010       9.02422042      -0.02633079      -0.33093073       0.88358040       0.39655430       0.35724148      -0.72427821      -8.65072374
Si      14.41623445      10.50490792       2.76906643      -0.33977497       0.39834209       1.76062146      -0.47204946       0.04479870       0.05799277      -8.72671695
Si      16.32450555      11.63333955       5.98278711       0.68362250       0.34143362       0.67332047      -0.54732945      -0.06931008       0.45812510      -8.71565077
Si      18.34820321      12.60517983       9.06936518       1.26302221      -0.29589975       0.23265194      -0.08246778       1.20235941      -0.39653535      -8.69400654
Si      14.39840219       3.96108308       2.78883250      -1.00512680       0.40194527      -0.06432589       0.17054648      -1.11444194      -0.46977126      -8.69801181
Si      16.21609195       4.98727154       5.82626899      -0.28946976      -0.30205761       0.24270019       0.10931020       0.62137699       0.29267939      -8.70358237
Si      18.21020463       6.00707133       9.17323614       2.34145381      -1.03583300      -0.47723729      -0.36922278      -0.50048371      -0.25002689      -8.38143838
Si      16.34460872       7.23760640       2.77324651      -0.53110347      -0.45799950      -0.18542442      -0.13145671       0.18740416       0.01558822      -8.71852585
Si      18.33719163       8.18211016       5.94280681      -2.38529446      -1.15434300       0.11884466       0.17879137       0.10349831      -0.30804228      -8.74674191
Si      20.19674789       9.45402597       8.98209160      -0.19613226      -0.28923115      -2.13860608       0.18173529      -0.24312870       1.09779876      -8.65948797
Si      18.21498540      10.43496633       2.92684566       0.58336660      -0.13586686      -2.11032711       0.27508112       0.32346286       0.14750910      -8.72503204
Si      20.16686223      11.60995741       5.95583896       1.13677415       0.89822449       0.55604597      -0.39671634       0.64202762       0.02853106      -8.72266519
Si      22.09849929      12.73658369       8.96169546      -0.00311591       0.97537306       0.94481117       0.55532638      -0.44319836       0.35886363      -8.68385985
Si       0.88234524       0.30777400       0.60230315      -1.22615658      -1.41990243       1.57817366      -0.60888858       1.67142176      -0.45119167      -8.53242931
Si       2.80496441       1.68683480       3.63997349       0.56346627      -0.83189971      -0.97355392       0.06936752      -0.07042263      -0.93630151      -8.68709158
Si       4.77275209       2.81851155       6.60414192      -1.02931829       1.03610289       0.29598771      -0.56871343      -0.44351229       0.53809169      -8.75400959
Si       2.94891431       3.88761535       0.39461638      -2.06713047       0.93233516      -0.50053752      -0.06683090       0.79542330       0.49824398      -8.45525454
Si       4.76418164       5.04689680       3.50177544      -1.35120073       0.20909075      -0.32682909       0.50044117      -0.33764827       0.17544647      -8.71969123
Si       6.62297541       6.01104432       6.68756774       1.09957834      -0.43904151      -1.14649434       0.31618047      -0.45931019       0.55383258      -8.53576629
Si       4.89225079       7.17717986       0.43559102      -0.58917861       0.22882852      -0.29132968      -1.80079976       0.61080814      -0.23347684      -8.66710824
Si       6.78102027       8.20479326       3.62255948      -0.04957965      -0.99925605       0.48310020      -0.28947676       0.04270854      -0.20986210      -8.70989977
Si       8.60900544       9.40432350       6.68847299       1.16952859      -0.42013998       0.00489879       0.64305721      -0.16570554      -0.32881021      -8.74676818
Si       4.92487635       0.50310668       0.37391034       0.55567892       1.03254567       0.30474966      -0.49947571       0.57431478      -0.35708205      -8.49021433
Si       6.66479912       1.64406506       3.54200351      -0.29739972       0.87847421      -0.23267752       0.12044035      -0.99649617      -0.01925824      -8.69061981
Si       8.57647058       2.78656416       6.78714997      -1.03190181      -0.64743362      -1.75390707      -0.04598853      -0.92585758      -0.63269551      -8.59857695
Si       6.98843172       4.03300804       0.54108846      -0.28543418      -0.11260602      -0.43407116      -0.37322579      -1.11855125       0.56211341      -8.58345395
Si       8.74251672       4.92841621       3.36516546      -0.69869965       0.17572252      -1.94082026      -0.83845400       0.72207468       1.65506704      -8.58560187
Si      10.54760953       6.07200852       6.62136780      -0.52889260       1.18383552       0.18303060       0.77576156       0.65448713       0.07973769      -8.53385578
Si       8.60751327       7.24129163       0.35674636       0.00039199       0.48167521      -1.32322317       0.30395669      -0.33976269       0.16399590      -8.67488979
Si      10.51242525       8.41928280       3.43257485       0.32581272      -0.31998347       0.18637395       0.13027851      -0.69909924       1.20040182      -8.71783028
Si      12.42125549       9.44203029       6.71778607      -0.38990305      -0.79637159      -1.62982737       0.65957985       0.12601590       0.02055444      -8.70796192
Si       8.72856182       0.51471465       0.40489768       0.65763089       0.88928902      -1.30850210      -0.89217492      -0.40725237       0.17600026      -8.70834362
Si      10.51435046       1.53911903       3.70329431      -0.66880660       0.81940916       1.55595815       0.05416559       0.18521377      -0.83894515      -8.73028860
Si      12.41119400       2.78044863       6.70246169      -0.32934328       0.07129679      -0.44569218       1.19418123       0.06379565       0.16249145      -8.69490551
Si      10.45986811       3.83734559       0.46619496       0.03630593      -0.74052639       1.07004804       0.79073322      -0.03956242      -0.05476604      -8.67846206
Si      12.45528927       4.97281248       3.48073147       1.94451743      -0.38255068       0.47253799      -0.58709011       0.36290945       0.67250253      -8.69386892
Si      14.37168794       6.23397940       6.66643509       1.02936384      -0.73517949       0.97398199       0.48475223      -0.66473599       0.34120222      -8.71210943
Si      12.42307641       7.12840710       0.41570534       1.01654193       0.03194058      -0.58366213       0.21724073      -0.62381933       0.21534339      -8.71340550
Si      14.30653959       8.26193528       3.49050283       0.21430875       0.62731366       0.46583766       0.71769260       0.38039097       0.30858613      -8.72256163
Si      16.47994232       9.34162263       6.53262368       1.26936745      -0.27021985       1.76837567      -1.39221166       0.52887067       1.53199414      -8.61857406
Si       8.86680800       5.39311944       8.38272595       0.46338674      -0.00887697       0.61620807      -0.12244767      -0.84533624      -0.38585988      -7.72725301
55
Lattice="11.5478352 0.0 0.0 5.773917198490155 10.000722372470358 0.0 5.773916394327279 3.333571176804646 9.428767828939895" Properties=species:S:1:pos:R:3:momenta:R:3:forces:R:3:energies:R:1 spacegroup="_JSON {\"number\": 1, \"setting\": 1}" unit_cell=conventional occupancy="_JSON {\"0\": {\"Si\": 1.0}, \"1\": {\"Si\": 1.0}, \"2\": {\"Si\": 1.0}, \"3\": {\"Si\": 1.0}, \"4\": {\"Si\": 1.0}, \"5\": {\"Si\": 1.0}, \"6\": {\"Si\": 1.0}, \"7\": {\"Si\": 1.0}, \"8\": {\"Si\": 1.0}, \"9\": {\"Si\": 1.0}, \"10\": {\"Si\": 1.0}, \"11\": {\"Si\": 1.0}, \"12\": {\"Si\": 1.0}, \"13\": {\"Si\": 1.0}, \"14\": {\"Si\": 1.0}, \"15\": {\"Si\": 1.0}, \"16\": {\"Si\": 1.0}, \"17\": {\"Si\": 1.0}, \"18\": {\"Si\": 1.0}, \"19\": {\"Si\": 1.0}, \"20\": {\"Si\": 1.0}, \"21\": {\"Si\": 1.0}, \"22\": {\"Si\": 1.0}, \"23\": {\"Si\": 1.0}, \"24\": {\"Si\": 1.0}, \"25\": {\"Si\": 1.0}, \"26\": {\"Si\": 1.0}, \"27\": {\"Si\": 1.0}, \"28\": {\"Si\": 1.0}, \"29\": {\"Si\": 1.0}, \"30\": {\"Si\": 1.0}, \"31\": {\"Si\": 1.0}, \"32\": {\"Si\": 1.0}, \"33\": {\"Si\": 1.0}, \"34\": {\"Si\": 1.0}, \"35\": {\"Si\": 1.0}, \"36\": {\"Si\": 1.0}, \"37\": {\"Si\": 1.0}, \"38\": {\"Si\": 1.0}, \"39\": {\"Si\": 1.0}, \"40\": {\"Si\": 1.0}, \"41\": {\"Si\": 1.0}, \"42\": {\"Si\": 1.0}, \"43\": {\"Si\": 1.0}, \"44\": {\"Si\": 1.0}, \"45\": {\"Si\": 1.0}, \"46\": {\"Si\": 1.0}, \"47\": {\"Si\": 1.0}, \"48\": {\"Si\": 1.0}, \"49\": {\"Si\": 1.0}, \"50\": {\"Si\": 1.0}, \"51\": {\"Si\": 1.0}, \"52\": {\"Si\": 1.0}, \"53\": {\"Si\": 1.0}, \"54\": {\"Si\": 1.0}}" energy=-475.1819537855357 stress="-0.011865425667446857 -0.0007163517912396107 -0.0004109054663227226 -0.0007163517912396107 -0.009718165435563654 -0.0017486090339334148 -0.0004109054663227226 -0.0017486090339334148 -0.005176690805625677" free_energy=-475.1819537855357 pbc="T T T"
Si       6.73732174       3.89329334       2.93689797      -0.93000615       1.23913356      -0.53429700      -0.81384477      -0.01283590      -1.15060046      -8.63357042
Si       8.58924964       4.98705066       5.85464859      -0.35450875       1.17224936      -0.71641524       0.59700567      -0.64155985      -0.75987909      -8.51976929
Si      10.95516650       6.24645125       9.06405781      -0.06887484      -0.62809944      -0.22693166      -0.92317227      -0.49966264      -0.07108657      -8.06376232
Si       8.69370839       7.16703084       2.69968106      -0.44954907      -0.43794004      -0.74660922      -0.40280455       0.38509871      -0.55716583      -8.72162688
Si      10.54770900       8.34629423       5.82904607      -0.74650260      -0.26435241      -0.50309350       0.04475184      -0.25740729      -0.14108982      -8.73336268
Si      12.45398399       9.47607725       9.02794516       0.26585193       0.99898277      -1.83412850       0.45081062      -0.18482857      -0.29486900      -8.72349799
Si      10.46365202      10.56677726       2.72315649       0.52989093       0.99296293       0.95334979       0.75874232       0.31699498      -0.15829163      -8.73553654
Si      12.38583687      11.69827445       5.92013819      -0.19883788       0.15283765       0.02519741      -0.06472218      -0.69640622      -0.51411213      -8.71930994
Si      14.37584952      12.84730679       9.08715312       1.20243227       0.46758589      -0.95533916       0.29369507       0.03688184      -0.34004188      -8.60121261
Si      10.58322292       3.71303994       2.82934179       1.49301817       0.11927850       0.41422713       0.28658499       0.56074061       0.03396184      -8.70305262
Si      12.52538036       5.00475491       5.89883698      -1.26437669      -0.62153044       0.25393199      -0.18495928       0.06005449       0.12132390      -8.67527799
Si      14.43303985       6.04537955       9.01816281      -0.17350072       0.48941104      -0.25613991       0.12672847       0.31165251       0.41548716      -8.71178674
Si      12.42840837       7.15965232       2.73129345       1.34252671      -1.47342129      -1.31523640       0.26154135       0.38897224       0.04815075      -8.73230606
Si      14.38924342       8.32545095       5.90517234      -0.03088836      -0.83180740       0.76597953       0.54134613       0.62941746      -0.22340197      -8.69385201
Si      16.27755128       9.34222764       9.04729576       0.69243658       0.03010399       0.16336610       0.47924468       0.08265236      -0.04721316      -8.71105204
Si      14.38317042      10.53050991       2.84816354      -0.83062436       0.60801988       1.00025389      -0.11133379       0.15391651      -0.94458564      -8.70266668
Si      16.33574845      11.64144279       6.03511813      -0.24810751      -0.12071302       1.24389011      -0.51247735      -0.41084213       0.15189279      -8.73268340
Si      18.40367689      12.63730934       9.06446009       0.69621279       1.41956281      -0.39765952      -0.69282233       0.80471838      -0.31181021      -8.68433283
Si      14.36401285       3.93175605       2.76311615      -0.16496249      -1.54192425      -0.92070036       0.69197904      -1.16935209      -0.46649129      -8.69996136
Si      16.21140957       4.99765626       5.84448052       0.24312285       0.64090447       0.35162997       0.61681303       0.38791464      -0.09843998      -8.70312319
Si      18.30181320       5.93765538       9.14161677       0.87591547      -1.49698031      -0.67320856      -1.43333115      -0.03817972      -0.03189277      -8.38733911
Si      16.31400887       7.22540932       2.76336691      -0.59191880       0.04006015      -0.21072797       0.03935328       0.36401841      -0.06244616      -8.73329453
Si      18.24217953       8.13560594       5.93934365      -0.97165989      -0.43777972      -0.17163301       1.22705008       0.81963632       0.01461075      -8.71226860
Si      20.19465014       9.43423865       8.92220198       0.11147486      -0.35838634      -0.10408535       0.16311365       0.17419106       1.21994850      -8.70482115
Si      18.24510918      10.43758090       2.85195142       0.38003472       0.16854087      -0.26769928      -0.46152414       0.05398504       1.93784863      -8.66643702
Si      20.20084973      11.66851990       5.97485127       0.00967803       1.04483438      -0.05286380      -0.95480229      -0.47847313      -0.82779759      -8.70195977
Si      22.11382510      12.76496987       9.01546780       0.38437602       0.05001656       0.93206203      -0.23542377      -0.65665263      -0.31576838      -8.68884842
Si       0.81629354       0.29607975       0.64580462      -0.84020336       0.90478204      -0.26479082       1.13300027       1.39471526      -1.71448263      -8.48776111
Si       2.83230338       1.64764857       3.56513849       0.37296953      -0.52049396      -1.60133217      -0.34021880       0.47235350       0.15179313      -8.70734186
Si       4.71081442       2.85344346       6.64533145      -1.02865345       0.29720774       1.30722035       0.59675249      -0.43945830       0.65093420      -8.74435986
Si       2.84698147       3.95965640       0.38751681      -1.65116218       1.56574398       0.19110047       0.58450414      -0.18595887       0.34612333      -8.40370977
Si       4.71502123       5.04234703       3.49498767      -0.52699697      -0.39251935       0.10612948       0.48301121      -0.36775421       0.31907439      -8.71131407
Si       6.67983851       5.96981621       6.65475599       0.80604158      -1.05263480      -0.00993584      -0.69751654      -0.14221365       0.91236584      -8.54327742
Si       4.79730677       7.20908494       0.41123040      -2.74398569       0.84138609      -0.63616457      -0.67991048       0.05296733      -0.20963813      -8.69695385
Si       6.76602488       8.16046365       3.63206247      -0.52634737      -0.57477025      -0.24788631      -0.30287335       0.49616599      -0.69342709      -8.69018560
Si       8.67485441       9.37822182       6.66203079       0.95103045      -0.47324731      -1.13596737      -0.89723693       0.22036800      -0.79157483      -8.67797743
Si       4.93775086       0.57188375       0.37727263       0.00529450       1.42642409      -0.12313382      -0.22104693      -0.07763706      -0.15049007      -8.50839048
Si       6.65178054       1.65372326       3.53635730      -0.22987398      -0.34233924       0.13204841      -0.00104062      -0.34660941       0.42818196      -8.70990130
Si       8.52905482       2.73106148       6.68358340      -0.58621504      -1.14207588      -1.93705967       0.68406412       0.34360961       0.38073968      -8.59884433
Si       6.96193929       3.99974586       0.54173198      -0.67326914      -0.80624203       0.41303039      -0.17228394       0.22918580       0.38326732      -8.59378773
Si       8.68972804       4.96021068       3.33185042      -0.96028301       0.86220026       0.69328835       0.49928573       0.05635272       1.73767692      -8.58923462
Si      10.55063480       6.15113391       6.63360894       0.60000809       1.61841721       0.28648438       0.60248223      -0.19229314       0.08909432      -8.54280238
Si       8.61790974       7.25317273       0.30050873       0.38317218      -0.01317154      -0.71780324       0.24553920      -0.27654462       0.56810111      -8.67993315
Si      10.53716318       8.37222786       3.47915596       0.63313514      -1.44211554       1.29689938       0.19310660      -0.58160385       0.04563414      -8.71712138
Si      12.42617485       9.41258128       6.64141472       0.51827407      -0.22427000      -1.17056084       0.42303777       0.52100143       0.45960760      -8.70966500
Si       8.72572776       0.54410934       0.36284680      -0.73369598       0.23710934      -0.00689331      -0.75177594      -0.37573384       1.31338611      -8.66460212
Si      10.49161649       1.58012625       3.74635402      -0.04518992       0.57860523       0.06513482       0.65504570      -0.46288433      -0.91577874      -8.70545324
Si      12.44207671       2.78722207       6.69194101       1.41240687       0.16281403       0.12818013       0.80595317      -0.03006869       0.48695967      -8.72868516
Si      10.49481222       3.79628200       0.51224001       1.28517342      -0.81119809       0.52506205       0.75209779       0.01334900      -0.67069299      -8.60463985
Si      12.51812622       4.96768130       3.53187420       0.27559218       0.14299281       1.41586854      -1.24312630       0.17928033       0.40750526      -8.71383775
Si      14.43119522       6.16907667       6.72354258       0.94334508      -1.66054781       1.01075208      -0.66633791      -0.34555427      -0.40321185      -8.73042712
Si      12.47989903       7.10681157       0.39126191       1.04813662      -0.73341259      -0.43365819      -0.18678198      -0.15194724      -0.10592340      -8.71952726
Si      14.33996391       8.30097499       3.52737147       0.92295685       0.69095858       0.92041499       0.18317332      -0.27254291       0.22822747      -8.74938829
Si      16.47720160       9.35077516       6.67725364      -1.46848065       0.58382366       3.47257558      -1.74907183       0.37591707       0.41190024      -8.66609963
Si       8.89334712       5.36114838       8.40096578       0.65416697      -1.14497681       0.10387724       0.28062546      -0.59110700      -0.29159371      -7.79001985
55
Lattice="11.5478352 0.0 0.0 5.773917198490155 10.000722372470358 0.0 5.773916394327279 3.333571176804646 9.428767828939895" Properties=species:S:1:pos:R:3:momenta:R:3:forces:R:3:energies:R:1 spacegroup="_JSON {\"number\": 1, \"setting\": 1}" unit_cell=conventional occupancy="_JSON {\"0\": {\"Si\": 1.0}, \"1\": {\"Si\": 1.0}, \"2\": {\"Si\": 1.0}, \"3\": {\"Si\": 1.0}, \"4\": {\"Si\": 1.0}, \"5\": {\"Si\": 1.0}, \"6\": {\"Si\": 1.0}, \"7\": {\"Si\": 1.0}, \"8\": {\"Si\": 1.0}, \"9\": {\"Si\": 1.0}, \"10\": {\"Si\": 1.0}, \"11\": {\"Si\": 1.0}, \"12\": {\"Si\": 1.0}, \"13\": {\"Si\": 1.0}, \"14\": {\"Si\": 1.0}, \"15\": {\"Si\": 1.0}, \"16\": {\"Si\": 1.0}, \"17\": {\"Si\": 1.0}, \"18\": {\"Si\": 1.0}, \"19\": {\"Si\": 1.0}, \"20\": {\"Si\": 1.0}, \"21\": {\"Si\": 1.0}, \"22\": {\"Si\": 1.0}, \"23\": {\"Si\": 1.0}, \"24\": {\"Si\": 1.0}, \"25\": {\"Si\": 1.0}, \"26\": {\"Si\": 1.0}, \"27\": {\"Si\": 1.0}, \"28\": {\"Si\": 1.0}, \"29\": {\"Si\": 1.0}, \"30\": {\"Si\": 1.0}, \"31\": {\"Si\": 1.0}, \"32\": {\"Si\": 1.0}, \"33\": {\"Si\": 1.0}, \"34\": {\"Si\": 1.0}, \"35\": {\"Si\": 1.0}, \"36\": {\"Si\": 1.0}, \"37\": {\"Si\": 1.0}, \"38\": {\"Si\": 1.0}, \"39\": {\"Si\": 1.0}, \"40\": {\"Si\": 1.0}, \"41\": {\"Si\": 1.0}, \"42\": {\"Si\": 1.0}, \"43\": {\"Si\": 1.0}, \"44\": {\"Si\": 1.0}, \"45\": {\"Si\": 1.0}, \"46\": {\"Si\": 1.0}, \"47\": {\"Si\": 1.0}, \"48\": {\"Si\": 1.0}, \"49\": {\"Si\": 1.0}, \"50\": {\"Si\": 1.0}, \"51\": {\"Si\": 1.0}, \"52\": {\"Si\": 1.0}, \"53\": {\"Si\": 1.0}, \"54\": {\"Si\": 1.0}}" energy=-475.3610839298895 stress="-0.01104602105026281 -0.001811065845103249 -0.0011798723960628858 -0.001811065845103249 -0.005988103946924736 -0.0013082236096905973 -0.0011798723960628858 -0.0013082236096905973 -0.009472123667273076" free_energy=-475.3610839298895 pbc="T T T"
Si       6.66671377       3.94573969       2.87439954      -1.48790170       0.57708561      -1.58329439       0.23965072      -0.72794177      -0.10200236      -8.67995992
Si       8.60010252       5.01752035       5.79348569       0.78466678      -0.05535204      -1.39187684       0.65565644      -0.81356983       0.15376294      -8.49797714
Si      10.91924143       6.20497916       9.05126031      -1.15927469      -0.69579091      -0.19258252      -0.37537805       0.50202864       0.19597027      -8.07060637
Si       8.65917465       7.16440906       2.64501711      -0.76624535       0.37429529      -1.16202532      -0.00829264       0.51996312       0.13687984      -8.73552632
Si      10.52466981       8.32863165       5.80244959       0.07999805      -0.27154709      -0.39516116       0.84477591       0.27631605       0.29737123      -8.73895169
Si      12.47201081       9.51798594       8.93505759       0.20034733       0.55449908      -1.42225950      -0.41042955      -0.35778965       0.81771313      -8.63556807
Si      10.51930913      10.61002450       2.76132268       1.46795146       0.29599010       0.41479922       0.26418649      -1.08483862      -0.49706689      -8.68884417
Si      12.36494052      11.67968365       5.90309312      -0.65793054      -0.78116351      -0.57566595      -0.29370461      -0.36967032      -0.11902491      -8.71922570
Si      14.43952960      12.87117359       9.02491649       1.05230447       0.38186413      -1.37833089      -0.39203376      -0.19632385      -0.17671618      -8.55254259
Si      10.65787580       3.74506514       2.85321707       1.08043457       1.09314744       0.47464918      -0.78905298       0.51993475      -0.04628731      -8.71805776
Si      12.46267943       4.98039520       5.92181896      -0.93551228      -0.23903047       0.69222822       0.56340296       0.32220057       0.38388277      -8.68440645
Si      14.43255790       6.07868868       9.03242108       0.20538567       0.68125614       0.94964772       0.32141154      -0.07087904       0.97589253      -8.72441259
Si      12.50723152       7.10634732       2.67708790       1.60947021      -0.44450566      -0.52993357       0.05216059       0.83366418       0.89972738      -8.70572725
Si      14.40820722       8.30059481       5.94023421       0.69023549      -0.24145719       0.63432949       0.28291779       0.13731679       0.01419568      -8.71441864
Si      16.32847895       9.34209760       9.07312956       1.14977701      -0.12610921       1.17975308       0.09108718      -0.27315884       1.28723393      -8.70866215
Si      14.34259882      10.56472431       2.86235839      -0.57067960       0.60059169      -0.41839890       0.45120864      -0.21023284      -0.76507557      -8.71645470
Si      16.31274237      11.62237282       6.09711959      -0.42042756      -0.52459157       0.93312355       0.29515455      -0.09703852      -0.57510057      -8.71045593
Si      18.40812630      12.72723749       9.03839006      -0.59244127       1.70314075      -0.44650283      -0.92989873      -0.38584962       0.27839575      -8.66372264
Si      14.37308804       3.82327345       2.70829459       0.31177285      -2.17619860      -0.91390684      -0.06475277       0.45546424       0.51387263      -8.71520103
Si      16.25038864       5.03252120       5.85826623       1.20898303       0.42059723       0.18460160       0.46003737      -0.64291139      -0.05772956      -8.70852735
Si      18.29386792       5.86829477       9.10520738      -1.05771026      -0.88352693      -0.73348377      -0.95192257       1.00402553      -0.10527155      -8.51112223
Si      16.28499429       7.23655307       2.74804217      -0.51031970       0.25698853      -0.40724608       0.05605480      -0.13085633      -0.18893433      -8.74266924
Si      18.22814336       8.14729021       5.93779784       0.18728763       0.87055682       0.20844156       0.25025732       0.75806077       0.37097876      -8.67956850
Si      20.20267033       9.42547622       8.94244837       0.08886579       0.03816320       0.42023192      -0.25160909       0.21247831      -0.53360386      -8.73185554
Si      18.24342411      10.44419570       2.89987169      -0.47201794       0.01781195       1.65664067      -0.55040181      -0.19363593       0.27487224      -8.71625560
Si      20.17245375      11.69670716       5.93518435      -0.83804123      -0.04863339      -1.48045018       0.02168656      -0.78247945      -0.89496753      -8.69240056
Si      22.11228813      12.74936902       9.05147484      -0.59430615      -0.44437509       0.49777651      -0.80255301       0.13401409      -0.08846605      -8.74297817
Si       0.82684123       0.38783551       0.57906023       1.30415890       2.29632368      -1.87760413       1.35549123       0.17692005      -0.18840245      -8.53619248
Si       2.83687856       1.63854509       3.49813833      -0.17940055       0.08333230      -0.77827572      -0.25912115       0.10565697       0.83315157      -8.74172986
Si       4.68628537       2.85537625       6.72993352       0.11481470      -0.18894311       1.66343892       0.68408493      -0.30404104      -0.34799453      -8.72037737
Si       2.78484922       4.01543630       0.40514468      -0.70365963       0.22027425       0.35151204       0.64373619      -1.48985565      -0.17122720      -8.30857169
Si       4.69894306       5.01275797       3.50948270      -0.23537049      -0.61601419       0.35903303      -0.09499051       0.09411199      -0.01972035      -8.72077132
Si       6.69216909       5.92050439       6.68673889      -0.26705155      -0.61279471       1.10377101      -0.41929668       0.69207583       0.40545742      -8.58625413
Si       4.65417978       7.24620550       0.37404279      -2.18051988       0.43294738      -0.65598057       1.39828277      -0.50008250       0.27266524      -8.66271236
Si       6.72902269       8.15145910       3.59388556      -0.82253865       0.24407671      -1.11070022      -0.05919035       0.53850860      -0.30913982      -8.72624780
Si       8.67868039       9.36856274       6.58542022      -0.91467000       0.19796989      -1.49337116      -1.29223631       0.57236757       0.31920872      -8.66634613
Si       4.93359896       0.63529685       0.37002196      -0.09188975       0.82438311      -0.05356559       0.05919874      -0.72523699       0.24111769      -8.52534103
Si       6.64020524       1.64010203       3.55961013      -0.17678453       0.13832150       0.70148620       0.13693859       0.87396712       0.20994081      -8.73187630
Si       8.52879704       2.69694666       6.60356349       0.56544518       0.00906872      -1.03427552       0.62920190       0.99317721       0.68604728      -8.55743619
Si       6.92004714       3.97793216       0.56623338      -0.92466510       0.13244032       0.24694568      -0.16179629       0.85638952      -0.68524673      -8.60846049
Si       8.66426444       4.99816608       3.42486951      -0.00886124       0.44829886       2.52121034       0.52517555      -0.47111030       0.38242387      -8.67210878
Si      10.59741950       6.21596884       6.65339270       1.01049620       0.63127982       0.48481724      -0.08251358      -1.04406503       0.14858817      -8.51741017
Si       8.64725772       7.24478768       0.28365800       0.71090958      -0.24977307       0.02139687       0.13876893      -0.05579218       0.35220718      -8.68365227
Si      10.57535708       8.28291162       3.52727260       0.76760102      -1.78075810       0.15237093      -0.02152961       0.13574623      -1.43229004      -8.65038818
Si      12.46170639       9.41797481       6.59498363       0.68801379       0.33421909      -0.66836438      -0.15272666       0.14594355       0.19941049      -8.71688981
Si       8.67052470       0.54816702       0.41275607      -1.12064239       0.04656753       1.82058162       0.21027956       0.11867755       0.94680972      -8.68299904
Si      10.51372277       1.59014409       3.72501227       0.81599013      -0.19006474      -0.65897576       0.36392711      -0.42678114      -0.05851040      -8.72380726
Si      12.52698528       2.79097509       6.71455915       1.40191644      -0.07319105       0.64341441      -0.82617496      -0.23599405       0.12827626      -8.76503124
Si      10.58554144       3.75728041       0.51178041       2.02816177      -0.60189498      -0.51452718       0.16393328       0.30318013      -0.54601005      -8.60127560
Si      12.49994285       4.97355241       3.60939717      -0.61252436      -0.05457679       1.27802823       0.13118220      -0.33002897      -0.59423264      -8.72804701
Si      14.44410021       6.08063062       6.75279901      -0.57855483      -1.48306522       0.01575556      -1.13844394       0.53565615      -0.73165791      -8.70384361
Si      12.52363223       7.07675548       0.35981845       0.55087435      -0.14004435      -0.79685896      -0.44472412       0.90986337      -0.21578803      -8.69327825
Si      14.38882224       8.32456013       3.58027069       0.82171366       0.21933928       0.99671748      -0.28180467      -0.23340584      -0.15959318      -8.74220756
Si      16.35218714       9.38467576       6.84569609      -2.86788536       0.50755249       2.35603537      -0.06710940      -0.39748001      -1.83332386      -8.69648067
Si       8.93584793       5.28356367       8.39605201       0.85025051      -1.70898090      -0.28911970      -0.16816203      -0.17665921      -0.28266962      -7.78524906
55
Lattice="11.5478352 0.0 0.0 5.773917198490155 10.000722372470358 0.0 5.773916394327279 3.333571176804646 9.428767828939895" Properties=species:S:1:pos:R:3:momenta:R:3:forces:R:3:energies:R:1 spacegroup="_JSON {\"number\": 1, \"setting\": 1}" unit_cell=conventional occupancy="_JSON {\"0\": {\"Si\": 1.0}, \"1\": {\"Si\": 1.0}, \"2\": {\"Si\": 1.0}, \"3\": {\"Si\": 1.0}, \"4\": {\"Si\": 1.0}, \"5\": {\"Si\": 1.0}, \"6\": {\"Si\": 1.0}, \"7\": {\"Si\": 1.0}, \"8\": {\"Si\": 1.0}, \"9\": {\"Si\": 1.0}, \"10\": {\"Si\": 1.0}, \"11\": {\"Si\": 1.0}, \"12\": {\"Si\": 1.0}, \"13\": {\"Si\": 1.0}, \"14\": {\"Si\": 1.0}, \"15\": {\"Si\": 1.0}, \"16\": {\"Si\": 1.0}, \"17\": {\"Si\": 1.0}, \"18\": {\"Si\": 1.0}, \"19\": {\"Si\": 1.0}, \"20\": {\"Si\": 1.0}, \"21\": {\"Si\": 1.0}, \"22\": {\"Si\": 1.0}, \"23\": {\"Si\": 1.0}, \"24\": {\"Si\": 1.0}, \"25\": {\"Si\": 1.0}, \"26\": {\"Si\": 1.0}, \"27\": {\"Si\": 1.0}, \"28\": {\"Si\": 1.0}, \"29\": {\"Si\": 1.0}, \"30\": {\"Si\": 1.0}, \"31\": {\"Si\": 1.0}, \"32\": {\"Si\": 1.0}, \"33\": {\"Si\": 1.0}, \"34\": {\"Si\": 1.0}, \"35\": {\"Si\": 1.0}, \"36\": {\"Si\": 1.0}, \"37\": {\"Si\": 1.0}, \"38\": {\"Si\": 1.0}, \"39\": {\"Si\": 1.0}, \"40\": {\"Si\": 1.0}, \"41\": {\"Si\": 1.0}, \"42\": {\"Si\": 1.0}, \"43\": {\"Si\": 1.0}, \"44\": {\"Si\": 1.0}, \"45\": {\"Si\": 1.0}, \"46\": {\"Si\": 1.0}, \"47\": {\"Si\": 1.0}, \"48\": {\"Si\": 1.0}, \"49\": {\"Si\": 1.0}, \"50\": {\"Si\": 1.0}, \"51\": {\"Si\": 1.0}, \"52\": {\"Si\": 1.0}, \"53\": {\"Si\": 1.0}, \"54\": {\"Si\": 1.0}}" energy=-474.89099154381654 stress="-0.009174170827753377 -0.002289449314324578 -0.0021664380113837573 -0.002289449314324578 -0.006390414752687128 -0.0008392232005903483 -0.0021664380113837573 -0.0008392232005903483 -0.0121596477372596" free_energy=-474.89099154381654 pbc="T T T"
Si       6.61088885       3.94916763       2.80317344      -0.45736204      -0.36182741      -0.88593658       0.95546243      -0.38681998       0.83446854      -8.67149164
Si       8.65622501       4.99070966       5.75244006       1.15526878      -0.79159702       0.31236049      -0.11714824      -0.11835922       1.95447957      -8.45137967
Si      10.85373070       6.19862798       9.05446533      -1.19514554       0.58020246       0.41524287       0.17282220       0.97629302       0.57806787      -8.10531972
Si       8.62248347       7.19703381       2.60165536      -0.57050389       0.71910733      -0.27936271       0.23649989      -0.06091832       0.94526594      -8.71590621
Si      10.55521675       8.32920001       5.79403163       0.88065364       0.31461859       0.02760495       0.06037442       0.34940053       0.11634852      -8.73662001
Si      12.46506516       9.53516573       8.89873680      -0.44086328       0.15797324       0.09646998      -0.31748562      -0.12807059       1.03515462      -8.59577145
Si      10.59297946      10.57956958       2.76491610       1.10994466      -1.44289172      -0.22351800      -0.62018528      -1.02413530      -0.27795851      -8.65140714
Si      12.32828733      11.63675581       5.87978888      -0.53259250      -0.61005242      -0.10545930       0.50524355       0.57839604       0.66861338      -8.70916170
Si      14.47802963      12.87944541       8.95057813       0.41861392      -0.15575012      -1.33451224      -0.37959888      -0.54874581       0.30004078      -8.54192051
Si      10.67696751       3.81151180       2.87203831      -0.42726432       1.20387166       0.15989237      -1.06175581      -0.38877884      -0.36051251      -8.69541328
Si      12.43839982       4.97539494       5.96925470       0.02027192      -0.08319758       0.98327520       0.59588240      -0.18753489      -0.13497097      -8.71709477
Si      14.45411523       6.10852541       9.11191574       0.55473951       0.41590209       1.85050247       0.07548389      -0.22600485       0.08418909      -8.70628387
Si      12.59031426       7.11118437       2.68374536       1.47975853       0.51404383       0.69991543      -0.25639024       0.38317023       0.57212694      -8.70472227
Si      14.44443776       8.28629530       5.97283933       0.44588229      -0.43109043       0.53585658      -0.66757055      -0.36130671      -0.26497808      -8.73804824
Si      16.38641546       9.32345147       9.17804749       0.93020212      -0.56651783       2.47513803      -0.41135053      -0.18443168      -0.00983535      -8.70450976
Si      14.33303343      10.58491620       2.82646443       0.22310297       0.13796907      -0.56368269       0.51731742      -0.32990409       0.74819990      -8.72346374
Si      16.30827639      11.59505607       6.11800088       0.31040877      -0.44510423      -0.21850004       0.52497741       0.18655184      -0.88894493      -8.67713124
Si      18.34759592      12.79419853       9.03279619      -1.51928013       0.75507989       0.33971501      -0.15983160      -0.76354258       0.67530850      -8.67107436
Si      14.38111630       3.74461750       2.68790665      -0.08410755      -0.56597457       0.22768944      -0.38009436       1.43541762       0.86827816      -8.66957436
Si      16.31779821       5.02432518       5.86891371       1.06374586      -0.77282911       0.27554562      -0.67609105      -0.79710216       0.14911197      -8.70452309
Si      18.21727580       5.87456905       9.06014175      -1.52163272       1.26865726      -0.98966870       0.39757224       1.49350156      -0.09976155      -8.54072769
Si      16.25989424       7.23876122       2.71993757      -0.44747015      -0.26545825      -0.62133909       0.05583220      -0.48976096      -0.01584206      -8.74147592
Si      18.23259251       8.21237133       5.95843931      -0.30452375       1.38843801       0.44124953      -0.86839443      -0.10704243      -0.15708713      -8.60431233
Si      20.19221221       9.42820742       8.93172237      -0.54505082      -0.07758116      -0.92998456      -0.45787603      -0.32178052      -0.92515565      -8.71425247
Si      18.20603730      10.43937922       2.97174164      -0.73255678      -0.14510712       0.65672193       0.30131948       0.02182434      -1.40828801      -8.68761565
Si      20.14233184      11.67159619       5.83408791      -0.14650280      -0.71416763      -2.06986675       0.66362800      -0.02332119       0.30729318      -8.70489903
Si      22.05874905      12.74410517       9.08363959      -1.23045975       0.43691928       0.87317268       0.03262009       0.86594713       0.45285725      -8.73436154
Si       0.93120640       0.48776807       0.49316603       2.31011685       1.04895787      -1.09340267      -0.06828749      -1.55922206       0.99384222      -8.46297609
Si       2.82452750       1.63238879       3.48807432      -0.15502907      -0.57822533       0.29145219       0.27058651      -0.87576787       0.40987650      -8.75247945
Si       4.70916537       2.83177758       6.78881300       0.56217511      -0.74348821       0.35357644      -0.08052292      -0.42052039      -1.20827485      -8.69141110
Si       2.77146453       3.96822427       0.40894171       0.17372925      -1.92731009      -0.35125529       0.55914168      -1.12399686      -0.72037421      -8.33649553
Si       4.67925247       4.98818198       3.52341135      -0.52491792      -0.26791791       0.11152510      -0.13004602       0.30205621      -0.25214707      -8.70704643
Si       6.67817476       5.92080342       6.74587581       0.02114610       0.70416929       0.84731026       0.67732405       0.99731760      -0.78421946      -8.57402202
Si       4.60738833       7.24834632       0.35519145       0.52125567      -0.36324457      -0.02960136       1.86153420      -0.54599473       0.38629130      -8.65622917
Si       6.68690273       8.18105377       3.53443076      -0.72837671       0.77719636      -0.93931389       0.15089101       0.11446946       0.53524962      -8.73265799
Si       8.59646368       9.39837017       6.52663409      -1.81978467       0.85793605      -0.65624575       0.25307286       0.26005605       0.68670023      -8.72650879
Si       4.93135401       0.64766421       0.37970606      -0.02435946      -0.34099951       0.45590472      -0.06806598      -0.66266815       0.36488488      -8.52342579
Si       6.63987674       1.68417370       3.59494176       0.21557311       1.48628703       0.43698976       0.32276349       0.64410054      -0.58744426      -8.74244759
Si       8.57182650       2.73060319       6.57071475       0.86295069       1.09895255      -0.33258510      -0.18762522       0.29828299       0.24592608      -8.54571287
Si       6.86737311       4.01663018       0.54196647      -1.00911480       1.27270736      -1.27937759       0.13138954       0.57265627      -1.07347218      -8.64603454
Si       8.67521837       5.00598791       3.53823995       0.24975084      -0.06885922       1.15237801      -0.17094270      -0.16141795      -2.06426964      -8.62489996
Si      10.63891902       6.20907830       6.68301571       0.42362817      -0.80025976       0.59689239      -0.65628577      -0.67437882      -0.03400410      -8.51060281
Si       8.68550203       7.23050759       0.29256363       0.64536878      -0.28893163       0.21308492      -0.25728050      -0.03034905      -0.05207264      -8.64666677
Si      10.61289733       8.20177976       3.47943065       0.62872378      -1.18003991      -1.83237428      -0.15870015       0.65561762      -0.87136017      -8.65925801
Si      12.48948109       9.43387000       6.56596410       0.35298642       0.14159104      -0.42421828      -0.22940558      -0.35703056       0.25413429      -8.72710581
Si       8.62437561       0.55802413       0.52847163      -0.61416384       0.34541224       2.18842583       0.31871049       0.19008967      -0.63285980      -8.72277449
Si      10.56005060       1.57224854       3.69564914       0.72166223      -0.29862251      -0.35138390      -0.52108450       0.32305089       0.37159370      -8.70666904
Si      12.55859918       2.77759297       6.74574599      -0.27012661      -0.45008091       0.39616758      -1.11493102      -0.28796808      -0.44734968      -8.74001140
Si      10.68621845       3.74199961       0.47567027       1.52331640       0.11436568      -0.58133001      -0.96474597       0.66945426       0.55274376      -8.64781615
Si      12.48721102       4.96024092       3.64837915       0.33193808      -0.37259858       0.17632882       0.92368442      -0.03227951      -0.72697906      -8.68100006
Si      14.38109967       6.02772805       6.73442179      -1.49852769      -0.48350519      -0.48253659       0.12971878       0.73714594       0.17715395      -8.69650800
Si      12.53713544       7.11162295       0.31770426       0.03439529       1.53350321      -0.61511916      -0.17092966       1.13960128       0.52743477      -8.67618782
Si      14.41913623       8.33269139       3.62244607       0.32471488       0.19725063       0.55096150      -0.31449349       0.17823579      -0.39275138      -8.72317212
Si      16.21908647       9.39403135       6.89814649      -1.81208888      -0.13962075      -0.12300113       1.48501987      -0.35915754      -0.97383059      -8.67192475
Si       8.96494257       5.19089490       8.36782497       0.11578104      -1.73826130      -0.82777442      -0.71175294       0.16567481      -0.43089160      -7.74048533
55
Lattice="11.5478352 0.0 0.0 5.773917198490155 10.000722372470358 0.0 5.773916394327279 3.333571176804646 9.428767828939895" Properties=species:S:1:pos:R:3:momenta:R:3:forces:R:3:energies:R:1 spacegroup="_JSON {\"number\": 1, \"setting\": 1}" unit_cell=conventional occupancy="_JSON {\"0\": {\"Si\": 1.0}, \"1\": {\"Si\": 1.0}, \"2\": {\"Si\": 1.0}, \"3\": {\"Si\": 1.0}, \"4\": {\"Si\": 1.0}, \"5\": {\"Si\": 1.0}, \"6\": {\"Si\": 1.0}, \"7\": {\"Si\": 1.0}, \"8\": {\"Si\": 1.0}, \"9\": {\"Si\": 1.0}, \"10\": {\"Si\": 1.0}, \"11\": {\"Si\": 1.0}, \"12\": {\"Si\": 1.0}, \"13\": {\"Si\": 1.0}, \"14\": {\"Si\": 1.0}, \"15\": {\"Si\": 1.0}, \"16\": {\"Si\": 1.0}, \"17\": {\"Si\": 1.0}, \"18\": {\"Si\": 1.0}, \"19\": {\"Si\": 1.0}, \"20\": {\"Si\": 1.0}, \"21\": {\"Si\": 1.0}, \"22\": {\"Si\": 1.0}, \"23\": {\"Si\": 1.0}, \"24\": {\"Si\": 1.0}, \"25\": {\"Si\": 1.0}, \"26\": {\"Si\": 1.0}, \"27\": {\"Si\": 1.0}, \"28\": {\"Si\": 1.0}, \"29\": {\"Si\": 1.0}, \"30\": {\"Si\": 1.0}, \"31\": {\"Si\": 1.0}, \"32\": {\"Si\": 1.0}, \"33\": {\"Si\": 1.0}, \"34\": {\"Si\": 1.0}, \"35\": {\"Si\": 1.0}, \"36\": {\"Si\": 1.0}, \"37\": {\"Si\": 1.0}, \"38\": {\"Si\": 1.0}, \"39\": {\"Si\": 1.0}, \"40\": {\"Si\": 1.0}, \"41\": {\"Si\": 1.0}, \"42\": {\"Si\": 1.0}, \"43\": {\"Si\": 1.0}, \"44\": {\"Si\": 1.0}, \"45\": {\"Si\": 1.0}, \"46\": {\"Si\": 1.0}, \"47\": {\"Si\": 1.0}, \"48\": {\"Si\": 1.0}, \"49\": {\"Si\": 1.0}, \"50\": {\"Si\": 1.0}, \"51\": {\"Si\": 1.0}, \"52\": {\"Si\": 1.0}, \"53\": {\"Si\": 1.0}, \"54\": {\"Si\": 1.0}}" energy=-475.1223450502064 stress="-0.00828611610885082 -0.000992024620840689 -0.0004899233063540934 -0.000992024620840689 -0.008715969737835887 -0.0006105318343224995 -0.0004899233063540934 -0.0006105318343224995 -0.006966464229721274" free_energy=-475.1223450502064 pbc="T T T"
Si       6.62122749       3.92769406       2.78327185       0.74902726      -0.18582848      -0.07396895       0.55012747       0.66134228       0.06898466      -8.68570255
Si       8.70749299       4.95613276       5.83410389       0.71951463      -0.29137469       2.33138185      -0.44548098       0.79127819       0.17718849      -8.49882449
Si      10.79399594       6.25744585       9.09809474      -1.17430076       1.40806667       1.18572561      -0.15416482      -0.00980155       0.32983846      -8.21668695
Si       8.60200183       7.22775681       2.62254840      -0.21757691       0.38613106       0.97865029       0.20664265      -0.32212030       0.57002019      -8.71298397
Si      10.59049436       8.35171003       5.79232462       0.23568331       0.38176654      -0.22493407      -0.82866739      -0.27047590      -0.39090080      -8.64853217
Si      12.43748735       9.54402396       8.93421567      -0.42225015       0.29163518       1.00689733       0.42718657       0.30576238       0.05609253      -8.67690707
Si      10.62709226      10.47675606       2.74904177       0.23395867      -2.17359178      -0.25338277      -0.46271976       0.17342364       0.21859362      -8.66846280
Si      12.32842514      11.63226143       5.89906642       0.67509503       0.46694651       0.73009855       1.03443047       0.68446385       0.24674078      -8.70089788
Si      14.48976676      12.84546254       8.89901391       0.11939820      -1.20922461      -0.50238424      -0.03049688      -0.80354735       0.80085864      -8.52329181
Si      10.62294556       3.85354628       2.86647719      -1.37731113       0.33502999      -0.33164813      -0.07170951      -0.64177421      -0.19704060      -8.69912684
Si      12.45572100       4.95704547       6.00596694       0.49609866      -0.69832406       0.25876824       0.04749367      -0.49163083      -0.73679996      -8.72582288
Si      14.48003350       6.12410924       9.19895860       0.30769929       0.24845972       1.22753049      -0.41420878       0.04589517      -0.86055870      -8.64012474
Si      12.65442494       7.14530734       2.73144315       0.89223213       0.64665091       0.89811229      -0.53671430      -0.16720847      -0.28833361      -8.69755890
Si      14.43504691       8.24849647       5.98550833      -0.82491559      -0.95318614      -0.11042007      -0.72907436      -0.12679907      -0.47627404      -8.75450126
Si      16.41612834       9.29724743       9.28450517       0.18708766      -0.16588339       1.21586494      -0.47037461       0.84523404      -1.45909021      -8.64461390
Si      14.36057580      10.58277123       2.84353381       0.72607789      -0.13307017       1.39302825       0.11567339       0.01147190       1.39309925      -8.71181046
Si      16.33843541      11.58014115       6.07444030       0.67499175      -0.12521971      -1.35516072      -0.11378659       0.17233444      -0.53737181      -8.71092696
Si      18.27516834      12.80740258       9.07158511      -1.00370822      -0.14321674       0.96077048       0.76082791      -0.31948843      -0.01819257      -8.69715602
Si      14.36333365       3.76151875       2.72772679      -0.51882510       0.91695731       1.10703120      -0.06782799       0.29280355       0.13804467      -8.70690439
Si      16.34119956       4.96027207       5.88922256      -0.20331672      -1.47302978       0.48065531      -0.80457944      -0.02375106       0.07826447      -8.69238263
Si      18.16889077       5.97682555       9.01231921      -0.08448234       2.12864626      -0.66907739       1.28918761      -0.39687973       0.51869259      -8.51962053
Si      16.24010070       7.20712976       2.69230593      -0.26575903      -0.87741412      -0.32229839       0.21540113      -0.23969898       0.40301127      -8.74611087
Si      18.17828424       8.27369971       5.96767514      -1.72171011       0.86904050      -0.21522978      -0.67005246      -0.42062889      -0.65030081      -8.63458272
Si      20.15228842       9.41203904       8.86074899      -0.82037876      -0.48613730      -1.43899765       0.14423391      -0.13060409       0.38538482      -8.68438842
Si      18.18795595      10.43654571       2.94538179       0.13282986       0.10956241      -1.68640397       0.64273816       0.30006921      -1.49036558      -8.68706996
Si      20.15596218      11.64324224       5.75753957       0.54640092      -0.21002865      -0.50494565       0.19673126       0.58517570       1.60777045      -8.69513183
Si      22.00663178      12.79491988       9.14259094      -0.54578165       1.29740148       1.21670765       0.85967738       0.08158294      -0.15219440      -8.67759897
Si       1.03317803       0.49047053       0.47153892       1.27591017      -0.65727179       0.13738159      -1.24426944      -0.48913330       0.48773928      -8.44425866
Si       2.83059918       1.56979703       3.50384310       0.43557145      -1.66943364       0.01761679       0.46227437      -0.34577664      -0.69013361      -8.73574705
Si       4.72801792       2.77763676       6.76749431       0.03360641      -1.26761439      -0.93037919      -0.55626860      -0.20612047      -0.29482668      -8.72321728
Si       2.80090122       3.84018274       0.36379384       0.90454802      -2.58280542      -1.26138634       0.36977948       0.34604895      -0.28766522      -8.48448522
Si       4.65376509       4.98405784       3.52146577      -0.29345263       0.05727225      -0.11405319       0.45749036       0.09038480       0.02849876      -8.71959141
Si       6.70532329       5.99318275       6.74861982       0.90387769       1.93196529      -0.88660857       0.25520931       0.50310252      -1.32036905      -8.56628093
Si       4.68942042       7.21115763       0.35997370       2.16287720      -0.94021498       0.03801813       0.12166114      -0.08238754      -0.26562254      -8.74173180
Si       6.65349635       8.21944324       3.51207044      -0.58214088       0.56945068       0.16048352       0.01092708      -0.33368212       0.81545484      -8.70304530
Si       8.52775066       9.44725839       6.51580264      -0.57865376       0.85854907       0.14119182       1.11297822      -0.32735879       0.27823808      -8.74303962
Si       4.92043453       0.61482863       0.41444912      -0.53654613      -0.68139577       0.77614740      -0.61580808       0.22201194      -0.00066023      -8.50523947
Si       6.66069887       1.76910675       3.59186966       0.49716594       1.34245355      -0.52127160       0.01245203      -0.94283240      -0.45896342      -8.72755928
Si       8.60585088       2.78345404       6.55928204       0.39730388       0.58210285      -0.13237111      -0.33968859      -0.99418313       0.12436403      -8.51416218
Si       6.82584953       4.09593557       0.44720422      -0.44612282       1.51427716      -1.97888265       0.62356742      -0.36395692       0.29318261      -8.66609291
Si       8.67482880       5.00117201       3.52149880      -0.36977507      -0.02894509      -1.47526910      -0.57458611       0.17807254      -0.89950075      -8.64220636
Si      10.63536439       6.15370114       6.71086997      -0.49758360      -1.06139744       0.43499532      -0.40301757       0.30359629      -0.15222123      -8.53521819
Si       8.70504843       7.21315344       0.30159188       0.02896883      -0.38861347       0.17001876      -0.53202093      -0.08842536       0.09596410      -8.61044791
Si      10.63931996       8.16759668       3.37014400       0.37536547      -0.12085780      -1.92279182      -0.17175215       0.64694050       0.73908083      -8.68954426
Si      12.50062082       9.42681672       6.55912282       0.08846912      -0.37291321       0.27017004      -0.17089325      -0.20916120       0.65428454      -8.72280748
Si       8.59956177       0.58131790       0.60101837      -0.42815581       0.49777831       0.38105003      -0.05273680       0.01286403      -1.35765265      -8.73050790
Si      10.57209656       1.57587807       3.68996506      -0.27789872       0.51170312       0.05491410      -0.56773380       0.61186107       0.05373525      -8.70048253
Si      12.51264238       2.74233978       6.74732914      -1.21906348      -0.87872001      -0.31312711      -0.08384070      -0.21862489      -0.35801312      -8.72095377
Si      10.71536593       3.77475027       0.47964693      -0.57999505       1.07074877       0.90908565      -1.57425505       0.39624925       1.20849462      -8.65727841
Si      12.53438594       4.94333556       3.63488187       1.23722478      -0.20447354      -0.57020139       0.02363201       0.24439120      -0.24374366      -8.70085430
Si      14.32742418       6.02808373       6.72845558      -0.22794018       0.39778241       0.45290505       1.35718140       0.32670763       0.94187828      -8.64773420
Si      12.53772318       7.22430989       0.31352328       0.07611130       2.41474459       0.56797616       0.17751179      -0.23333652       0.96697483      -8.69370337
Si      14.42802289       8.35152835       3.63711982       0.10482268       0.50882361       0.04546011       0.03826676       0.12477107      -0.24636304      -8.72175656
Si      16.19109296       9.37680037       6.87612044       0.78361933      -0.45875847      -0.39151808       1.59914622      -0.12999849       0.30779346      -8.65605263
Si       8.94542349       5.10962681       8.30865372      -0.78389291      -1.30500158      -1.36192503      -0.42570027       0.37154752      -0.15511013      -7.76062412
55
Lattice="11.5478352 0.0 0.0 5.773917198490155 10.000722372470358 0.0 5.773916394327279 3.333571176804646 9.428767828939895" Properties=species:S:1:pos:R:3:momenta:R:3:forces:R:3:energies:R:1 spacegroup="_JSON {\"number\": 1, \"setting\": 1}" unit_cell=conventional occupancy="_JSON {\"0\": {\"Si\": 1.0}, \"1\": {\"Si\": 1.0}, \"2\": {\"Si\": 1.0}, \"3\": {\"Si\": 1.0}, \"4\": {\"Si\": 1.0}, \"5\": {\"Si\": 1.0}, \"6\": {\"Si\": 1.0}, \"7\": {\"Si\": 1.0}, \"8\": {\"Si\": 1.0}, \"9\": {\"Si\": 1.0}, \"10\": {\"Si\": 1.0}, \"11\": {\"Si\": 1.0}, \"12\": {\"Si\": 1.0}, \"13\": {\"Si\": 1.0}, \"14\": {\"Si\": 1.0}, \"15\": {\"Si\": 1.0}, \"16\": {\"Si\": 1.0}, \"17\": {\"Si\": 1.0}, \"18\": {\"Si\": 1.0}, \"19\": {\"Si\": 1.0}, \"20\": {\"Si\": 1.0}, \"21\": {\"Si\": 1.0}, \"22\": {\"Si\": 1.0}, \"23\": {\"Si\": 1.0}, \"24\": {\"Si\": 1.0}, \"25\": {\"Si\": 1.0}, \"26\": {\"Si\": 1.0}, \"27\": {\"Si\": 1.0}, \"28\": {\"Si\": 1.0}, \"29\": {\"Si\": 1.0}, \"30\": {\"Si\": 1.0}, \"31\": {\"Si\": 1.0}, \"32\": {\"Si\": 1.0}, \"33\": {\"Si\": 1.0}, \"34\": {\"Si\": 1.0}, \"35\": {\"Si\": 1.0}, \"36\": {\"Si\": 1.0}, \"37\": {\"Si\": 1.0}, \"38\": {\"Si\": 1.0}, \"39\": {\"Si\": 1.0}, \"40\": {\"Si\": 1.0}, \"41\": {\"Si\": 1.0}, \"42\": {\"Si\": 1.0}, \"43\": {\"Si\": 1.0}, \"44\": {\"Si\": 1.0}, \"45\": {\"Si\": 1.0}, \"46\": {\"Si\": 1.0}, \"47\": {\"Si\": 1.0}, \"48\": {\"Si\": 1.0}, \"49\": {\"Si\": 1.0}, \"50\": {\"Si\": 1.0}, \"51\": {\"Si\": 1.0}, \"52\": {\"Si\": 1.0}, \"53\": {\"Si\": 1.0}, \"54\": {\"Si\": 1.0}}" energy=-474.91011110343265 stress="-0.009966539767825702 3.3596401852977735e-05 0.0005915916067778814 3.3596401852977735e-05 -0.0105399634939191 0.0006673554355993109 0.0005915916067778814 0.0006673554355993109 -0.0033473022112807446" free_energy=-474.91011110343265 pbc="T T T"
Si       6.67153651       3.94959091       2.76995033       0.95108732       0.99864756      -0.60248793      -0.30973734       0.55529094      -0.58592097      -8.69247364
Si       8.72462165       4.97452059       5.93056310      -0.13147822       0.93125880       0.81044938      -0.68515976       0.55066467      -1.91783974      -8.45522358
Si      10.72861846       6.31666494       9.16482130      -1.17266659       0.60002316       1.18119723       0.41263049      -0.98912479      -0.36508827      -8.27400640
Si       8.59625860       7.23663754       2.68592067      -0.05112467      -0.00271430       1.25495737       0.01133943      -0.14412676      -0.14371326      -8.70551359
Si      10.56928776       8.35707551       5.76535339      -0.99429605      -0.21779547      -0.75070597      -0.62865473      -0.43363527      -0.18289376      -8.59901542
Si      12.44276495       9.57294233       8.97486891       0.78589386       0.77766168       0.31712321       1.01930553       0.16512622      -0.80689890      -8.70152654
Si      10.62683166      10.38684683       2.74667164      -0.13671935      -0.94130203       0.17405632      -0.03387480       1.37795492       0.26306190      -8.67465696
Si      12.40137563      11.67464294       5.93578953       1.94750581       0.94000628       0.47337426       0.38580777      -0.13639329      -0.52236953      -8.71670617
Si      14.49642405      12.75432240       8.90601643       0.12517926      -2.13117829       0.77781647      -0.06609175      -0.26965082       0.82200987      -8.51332153
Si      10.56051581       3.85112955       2.84963616      -0.81979186      -0.29145748      -0.11339065       0.64374003      -0.10037770       0.57384896      -8.70217649
Si      12.48143459       4.90768876       5.99298260       0.48528540      -1.00732532      -0.65404449       0.03660176       0.18532340      -0.34852211      -8.71877753
Si      14.47638838       6.14251277       9.22532803      -0.48169752       0.48710696      -0.25627984      -0.53985698       0.16706543      -0.97926621      -8.66960686
Si      12.67908002       7.17000791       2.76184564       0.03796565       0.27136970       0.21312206      -0.56863079      -0.26407246      -0.46638904      -8.69928932
Si      14.37818343       8.20486243       5.96646807      -1.03827489      -0.50882656      -0.48437685       0.44098032       0.63617776       0.03887013      -8.74510480
Si      16.41285039       9.33085203       9.28911648      -0.20248704       1.50336157      -0.99846297      -0.04331876       1.04191197      -1.27834964      -8.65277491
Si      14.39651081      10.58155037       2.94942559       0.51542809       0.16921772       2.14650667      -0.38040210       0.32259259      -0.51464587      -8.72826897
Si      16.36125277      11.57527620       5.99187383       0.07319227      -0.17464916      -1.58746834      -0.57953757      -0.26767418       0.26681079      -8.71251824
Si      18.25277978      12.79990935       9.10878323       0.09043171       0.08384773       0.25521963       0.53355960       0.52750702      -0.79397808      -8.70022285
Si      14.34512558       3.79968143       2.77597925       0.05821253       0.17869953       0.46089054       0.80971682      -1.08999923      -0.90419530      -8.63469928
Si      16.30816051       4.89416128       5.91495653      -0.85938455      -0.83844702       0.45346247      -0.03057707       0.78326223      -0.10025992      -8.66996001
Si      18.20472648       6.06161205       8.99864488       1.16069812       0.98069031       0.11628156       0.18311035      -0.91431977       0.39643799      -8.51651972
Si      16.23653725       7.15865240       2.69197516       0.15989318      -0.83012232       0.29045066       0.32815660       0.30688513       0.33017026      -8.73606980
Si      18.08335294       8.30787820       5.92985845      -1.42450827       0.53209579      -1.22279799       1.15651295      -0.04511702      -0.62381950      -8.71687317
Si      20.12147702       9.38553822       8.81666771      -0.24822833      -0.45794948       0.01332622       0.56121861       0.13207677       1.36714819      -8.57755431
Si      18.21228478      10.45376254       2.81388962       0.62089657       0.50559795      -2.93478773      -0.02302342       0.14283083       0.05978211      -8.72954194
Si      20.18360560      11.65300373       5.78767288       0.32668371       0.47322581       1.39161511      -0.51325711       0.15313932       0.60526398      -8.72841027
Si      22.01524272      12.85201201       9.19007171       0.86257787       0.64214889       0.41623992       0.78757139      -0.84198072      -0.84154265      -8.61618340
Si       1.04834995       0.45144073       0.48330572      -0.67037076      -0.61942849      -0.00512241      -1.12683209       0.35818170      -0.76310530      -8.48964455
Si       2.86959285       1.48295278       3.47975066       0.97903028      -1.36336427      -0.77463440       0.16871581       0.74388475      -0.08789240      -8.71083473
Si       4.71086624       2.70939904       6.72420582      -0.53998867      -1.18718750      -0.42317432       0.03529771       0.37330425       0.86469481      -8.73858698
Si       2.85548891       3.73769506       0.30082913       0.99071704      -0.95657838      -0.84386853      -0.36107719       1.78025414       0.86116960      -8.51090353
Si       4.65980439       4.98576352       3.52251956       0.54525104      -0.08850611       0.25467641       0.53815167      -0.28326769       0.41330993      -8.72416847
Si       6.74866946       6.10171579       6.66066090       0.48537162       1.94408780      -2.19040753      -0.76611336      -0.52416502      -0.24879062      -8.55421819
Si       4.78150342       7.17042957       0.35124771       0.89982134      -0.39389940      -0.31534211      -1.60179133       0.75019603      -0.07046975      -8.67659160
Si       6.62105609       8.23756009       3.54606962      -0.67710206       0.19102953       0.94971133      -0.07203737      -0.06645878       0.07287774      -8.69813167
Si       8.53383926       9.47143341       6.52482410       0.62880264      -0.06505080       0.04975008       0.41034206      -0.81498985      -0.30314578      -8.72570555
Si       4.86700247       0.59385501       0.44838052      -1.45636979      -0.06023418       0.38648889      -0.44096572       0.45391962      -0.50643309      -8.48851987
Si       6.68331472       1.78977506       3.55730500       0.29728844      -0.66208466      -0.60566944      -0.25644123      -1.34120954       0.27898408      -8.66617344
Si       8.61736676       2.76965518       6.55912522       0.15330090      -1.06998039       0.16955758       0.10966980      -0.83065680       0.29621927      -8.52380600
Si       6.82812083       4.14824345       0.37001610       0.50003324       0.28122819      -0.74611640       0.48200346      -1.11121590       1.14209143      -8.60807965
Si       8.63606728       5.00825954       3.43555032      -0.97842151       0.31272946      -1.36522283      -0.06034643       0.23001708       0.83079425      -8.59039375
Si      10.60565875       6.11761543       6.72810370      -0.39048332      -0.20176508       0.22738287       0.53623934       0.74080927      -0.13230841      -8.52561807
Si       8.68632925       7.18994606       0.31981305      -0.70000124      -0.47187761       0.63008552      -0.35149903       0.00440222       0.50591806      -8.63454725
Si      10.65278654       8.17738155       3.31130179       0.13991598       0.28962355      -0.12173649      -0.16514895      -0.13538827       1.51428778      -8.67157404
Si      12.49630931       9.40607305       6.59812501      -0.30902402      -0.28252057       1.14510779      -0.37686465       0.31400823       0.36234647      -8.70568340
Si       8.57381155       0.60601341       0.58532208      -0.52286022       0.40740678      -0.60959795       0.07364072      -0.12696007       0.04843127      -8.73612673
Si      10.54826044       1.62193481       3.68551520      -0.35528495       1.12611416      -0.40680989       0.49433467       0.14665605      -0.64663868      -8.71381490
Si      12.45841277       2.69239879       6.72431647      -0.63328781      -0.91760446      -0.42107103       0.74894113       0.19864931       0.19546247      -8.71022373
Si      10.63763236       3.83405318       0.56281620      -2.03449445       0.99656699       1.90875334      -0.23642557      -0.32481115      -0.16874576      -8.70657728
Si      12.58068914       4.94515848       3.60281525       0.19334473       0.31495666      -0.52477876      -1.24701030       0.37999302       0.24315927      -8.69058729
Si      14.36482807       6.04973082       6.78700159       1.48399868       0.20111873       1.65540197       0.70358401      -0.53242267       0.44430950      -8.69534473
Si      12.55025555       7.31807955       0.37961000       0.41660634       0.76338192       1.86578862       0.23240415      -1.73991155       0.60173899      -8.68115536
Si      14.43867326       8.37615034       3.63346378       0.34775549       0.27250011      -0.12322487       0.21964729      -0.47912171      -0.00729117      -8.72337546
Si      16.27136661       9.34939546       6.86790091       1.74932034      -0.51289086       0.03765712      -0.44768075       0.16864687       0.16204487      -8.65833623
Si       8.89203444       5.05298162       8.24193347      -1.18314334      -0.92096314      -0.94487085      -0.15086736       0.11631928       0.74926972      -7.76439300
55
Lattice="11.5478352 0.0 0.0 5.773917198490155 10.000722372470358 0.0 5.773916394327279 3.333571176804646 9.428767828939895" Properties=species:S:1:pos:R:3:momenta:R:3:forces:R:3:energies:R:1 spacegroup="_JSON {\"number\": 1, \"setting\": 1}" unit_cell=conventional occupancy="_JSON {\"0\": {\"Si\": 1.0}, \"1\": {\"Si\": 1.0}, \"2\": {\"Si\": 1.0}, \"3\": {\"Si\": 1.0}, \"4\": {\"Si\": 1.0}, \"5\": {\"Si\": 1.0}, \"6\": {\"Si\": 1.0}, \"7\": {\"Si\": 1.0}, \"8\": {\"Si\": 1.0}, \"9\": {\"Si\": 1.0}, \"10\": {\"Si\": 1.0}, \"11\": {\"Si\": 1.0}, \"12\": {\"Si\": 1.0}, \"13\": {\"Si\": 1.0}, \"14\": {\"Si\": 1.0}, \"15\": {\"Si\": 1.0}, \"16\": {\"Si\": 1.0}, \"17\": {\"Si\": 1.0}, \"18\": {\"Si\": 1.0}, \"19\": {\"Si\": 1.0}, \"20\": {\"Si\": 1.0}, \"21\": {\"Si\": 1.0}, \"22\": {\"Si\": 1.0}, \"23\": {\"Si\": 1.0}, \"24\": {\"Si\": 1.0}, \"25\": {\"Si\": 1.0}, \"26\": {\"Si\": 1.0}, \"27\": {\"Si\": 1.0}, \"28\": {\"Si\": 1.0}, \"29\": {\"Si\": 1.0}, \"30\": {\"Si\": 1.0}, \"31\": {\"Si\": 1.0}, \"32\": {\"Si\": 1.0}, \"33\": {\"Si\": 1.0}, \"34\": {\"Si\": 1.0}, \"35\": {\"Si\": 1.0}, \"36\": {\"Si\": 1.0}, \"37\": {\"Si\": 1.0}, \"38\": {\"Si\": 1.0}, \"39\": {\"Si\": 1.0}, \"40\": {\"Si\": 1.0}, \"41\": {\"Si\": 1.0}, \"42\": {\"Si\": 1.0}, \"43\": {\"Si\": 1.0}, \"44\": {\"Si\": 1.0}, \"45\": {\"Si\": 1.0}, \"46\": {\"Si\": 1.0}, \"47\": {\"Si\": 1.0}, \"48\": {\"Si\": 1.0}, \"49\": {\"Si\": 1.0}, \"50\": {\"Si\": 1.0}, \"51\": {\"Si\": 1.0}, \"52\": {\"Si\": 1.0}, \"53\": {\"Si\": 1.0}, \"54\": {\"Si\": 1.0}}" energy=-474.85385402690997 stress="-0.010878133900216056 -0.0008785242289057828 -0.0007797683972685201 -0.0008785242289057828 -0.0059655195681014555 -0.000738478291312669 -0.0007797683972685201 -0.000738478291312669 -0.0072271126180295745" free_energy=-474.85385402690997 pbc="T T T"
Si       6.70067403       4.00476069       2.71923591       0.04801556       0.73003925      -1.18785015      -0.72483601      -0.88173638      -0.01490377      -8.67609243
Si       8.69325207       5.03132758       5.89652690      -0.96722180       1.00125952      -1.98516949      -0.30271573      -0.35444697      -1.42908812      -8.46712238
Si      10.69521789       6.30597493       9.20542688       0.03723386      -1.00757167       0.25281028       0.90543934      -0.96989308      -0.80696999      -8.30680647
Si       8.59190434       7.23569007       2.74281713      -0.14424548       0.05868712       0.88310787      -0.10201352       0.21246415      -0.26732445      -8.67483288
Si      10.50443737       8.33148389       5.72768337      -1.22496639      -0.69389402      -0.48637008       0.36216100      -0.18105921       0.60188055      -8.65401627
Si      12.51176805       9.61009300       8.96468858       1.47451908       0.43326324      -0.52752605      -0.39951910      -0.62604865      -0.12707653      -8.71615222
Si      10.62352864      10.39086999       2.76227210       0.09357113       0.96319701       0.33845577       0.27817161       0.86359507      -0.05837678      -8.70811392
Si      12.49692018      11.70687054       5.93664683       1.27441521       0.09035143      -0.46882056      -1.21442133      -0.89249669      -0.62010992      -8.68652497
Si      14.49559504      12.64482324       8.97225252      -0.25421715      -1.78515973       1.58561342      -0.43926422       0.73645740       0.18583616      -8.46376541
Si      10.54072321       3.84331280       2.87365349      -0.00326951       0.21532766       1.07014505       0.38040036       0.75834498       0.69609415      -8.70715478
Si      12.51079477       4.87096506       5.95489400       0.66803003      -0.25278680      -0.61556570       0.16643953       0.73197215       0.36236149      -8.67146381
Si      14.43633878       6.16897656       9.18374566      -0.87936691       0.37809980      -1.07253464       0.10602067      -0.38465447       0.02508884      -8.74738703
Si      12.66174763       7.17599261       2.76384948      -0.63764628      -0.00464275       0.09162589      -0.32849011      -0.11381818       0.41559039      -8.73266140
Si      14.34839050       8.20252121       5.95117168      -0.01885669       0.35970348       0.06162969       0.75476071       0.41557250       0.65527326      -8.69133694
Si      16.40441020       9.43482639       9.20344468      -0.07075514       2.13221847      -1.89945042       0.14878608      -0.22695449       0.15856878      -8.70130134
Si      14.40769363      10.59991212       3.02328674      -0.05302131       0.42103717       0.39026285      -0.23483020      -0.10144131      -1.61766698      -8.69298795
Si      16.34626497      11.55215582       5.92651344      -0.51183391      -0.72973267      -0.80659837      -0.06139237      -0.35012275       0.63967864      -8.69793431
Si      18.26903350      12.82161465       9.09370411       0.36383753       0.58670001      -0.70804418      -0.11027048      -0.05336640      -0.32125777      -8.71170849
Si      14.37915496       3.76808398       2.76419716       1.12342415      -1.22581773      -0.83849461       0.37445336      -0.48357611      -0.62779263      -8.63610172
Si      16.27202668       4.88089759       5.93494950      -0.33137504       0.27419617       0.32383910       0.70344220       0.55433912      -0.04553563      -8.67511909
Si      18.25752545       6.08102244       9.01268943       0.62014162      -0.14523041       0.27348568      -0.73006648      -0.52272844      -0.17198355      -8.46729296
Si      16.25642992       7.13043522       2.71552748       0.55430151      -0.22122148       0.51568121       0.15129563       0.39745751      -0.03287996      -8.73073452
Si      18.06762895       8.33784649       5.84970321       0.94762341       0.68214623      -1.58442056       1.62169076       0.23423351       0.35582054      -8.71469736
Si      20.13057452       9.36800654       8.86664431       0.56883923      -0.18059727       1.72123840       0.45077549       0.25732703       0.69862447      -8.61935762
Si      18.23839713      10.48176988       2.68661440       0.31133065       0.49777280      -1.53128070      -0.27462376      -0.10933799       1.52197888      -8.67109903
Si      20.17579504      11.67148494       5.86420362      -0.62938661       0.01102937       1.20265158      -0.50108079      -0.68971715      -0.65853279      -8.71654164
Si      22.07458142      12.85080898       9.17749486       1.01340547      -0.68415966      -0.89207833      -0.70982225      -0.82593856      -0.81929725      -8.66002982
Si       0.98419467       0.43505324       0.43928928      -1.44685287       0.02012522      -1.82766373       0.15868014       0.46571767      -1.31493939      -8.53701984
Si       2.91851123       1.44865792       3.44949332       0.69159531       0.16603035      -0.15228111      -0.58212528       1.16422140       0.79949416      -8.68769664
Si       4.70026631       2.66912972       6.73926245       0.40028053      -0.23075882       0.97191414       1.02548037       0.81283235       0.74622563      -8.71676839
Si       2.88465090       3.76291501       0.29885081       0.03672617       1.90970517       0.86610350      -0.66137927       1.70574999       1.22935253      -8.55525209
Si       4.70335239       4.96798654       3.55136375       0.97380726      -0.59429827       0.78829732      -0.01488307      -0.29966577       0.18818084      -8.73419835
Si       6.73899595       6.17324020       6.55206115      -0.89908600       0.62578058      -1.67423385      -0.93803451      -1.12824539       0.83582060      -8.49380181
Si       4.76872738       7.17900245       0.33669416      -1.17182744       0.64310844      -0.16650626      -0.77812557       0.45604364       0.22842992      -8.68227308
Si       6.58566008       8.25150939       3.58159206      -0.58929192       0.45043744       0.06094553       0.25123269       0.36192701      -1.25356214      -8.67748166
Si       8.57187937       9.43889879       6.51796786       0.62554207      -1.07263106      -0.19881884      -0.36018336      -0.41028397       0.12810105      -8.72514816
Si       4.78302719       0.60353725       0.44714224      -1.54121152       0.31625253      -0.42458436       0.35777654       0.01027893      -0.46620896      -8.52200233
Si       6.68750365       1.72034075       3.53954587      -0.15200831      -1.58982857      -0.04027482      -0.30533669       0.19142235       0.40559142      -8.65109276
Si       8.63955307       2.70087525       6.58291523       0.85263746      -1.16698223       0.80459683       0.69482633       0.65210029       0.54232049      -8.53353735
Si       6.86212967       4.12655854       0.37106808       0.55784566      -0.89582495       0.63694853      -0.44436127      -0.30038075       0.55369455      -8.63437165
Si       8.59489887       5.03120774       3.40499657      -0.38205642       0.49388724       0.31034590       0.72728719      -0.04343170       1.25377843      -8.58086981
Si      10.61019756       6.13249380       6.73491473       0.55892819       0.64755430       0.02799898       0.52163094       0.26134740      -0.14733022      -8.52355063
Si       8.64490881       7.16668383       0.37563342      -0.66619654      -0.39778418       1.53483065       0.47424324       0.06846265       0.64015567      -8.66153314
Si      10.65284936       8.18291507       3.36034846      -0.15902847      -0.07054368       1.83779688      -0.24514379      -0.10843995       0.89406881      -8.68639516
Si      12.46544697       9.40602038       6.66005421      -0.83068066       0.29014045       0.93912004      -0.23086545       0.35004031      -0.71700935      -8.67037635
Si       8.55728539       0.62238948       0.56506083       0.04925039       0.22460508      -0.05694404       0.66499618      -0.10304189       0.47659825      -8.66501424
Si      10.55713213       1.67784246       3.63692179       0.77827153       0.80909993      -1.40599679       0.82023448      -0.62410297      -0.48336224      -8.69163988
Si      12.45295184       2.65615429       6.71270063       0.31559998      -0.39761245      -0.00425922       0.32298862       0.46243678       0.26660723      -8.74384458
Si      10.53669695       3.87806052       0.63297939      -1.57919370       0.79852953       0.40001006       0.70138024       0.10607474      -1.56608700      -8.60567387
Si      12.54654228       4.96990323       3.58400216      -1.27549722       0.45148094      -0.24076879      -0.40578574      -0.29302034       0.07489224      -8.70955762
Si      14.45391044       6.03906161       6.87328708       1.59681501      -0.53559480       1.24284336      -0.53980334      -0.26323533      -1.07825651      -8.70515155
Si      12.57855806       7.29631049       0.48395734       0.59015639      -1.34298690       1.70899971      -0.05112428      -0.78838204      -0.96152281      -8.70559795
Si      14.46383801       8.36769238       3.62742738       0.55950985      -0.61418838      -0.10298641       0.01450332      -0.54866568       0.01831990      -8.72832636
Si      16.32552561       9.33567650       6.86850552       0.06849252       0.07649188      -0.21077996      -1.40557295       0.48895141      -0.60971365      -8.63703956
Si       8.82531573       5.00578197       8.22508678      -1.33505347      -0.91840936       0.26900379      -0.04302608      -0.04113774       0.61836055      -7.79030245
55
Lattice="11.5478352 0.0 0.0 5.773917198490155 10.000722372470358 0.0 5.773916394327279 3.333571176804646 9.428767828939895" Properties=species:S:1:pos:R:3:momenta:R:3:forces:R:3:energies:R:1 spacegroup="_JSON {\"number\": 1, \"setting\": 1}" unit_cell=conventional occupancy="_JSON {\"0\": {\"Si\": 1.0}, \"1\": {\"Si\": 1.0}, \"2\": {\"Si\": 1.0}, \"3\": {\"Si\": 1.0}, \"4\": {\"Si\": 1.0}, \"5\": {\"Si\": 1.0}, \"6\": {\"Si\": 1.0}, \"7\": {\"Si\": 1.0}, \"8\": {\"Si\": 1.0}, \"9\": {\"Si\": 1.0}, \"10\": {\"Si\": 1.0}, \"11\": {\"Si\": 1.0}, \"12\": {\"Si\": 1.0}, \"13\": {\"Si\": 1.0}, \"14\": {\"Si\": 1.0}, \"15\": {\"Si\": 1.0}, \"16\": {\"Si\": 1.0}, \"17\": {\"Si\": 1.0}, \"18\": {\"Si\": 1.0}, \"19\": {\"Si\": 1.0}, \"20\": {\"Si\": 1.0}, \"21\": {\"Si\": 1.0}, \"22\": {\"Si\": 1.0}, \"23\": {\"Si\": 1.0}, \"24\": {\"Si\": 1.0}, \"25\": {\"Si\": 1.0}, \"26\": {\"Si\": 1.0}, \"27\": {\"Si\": 1.0}, \"28\": {\"Si\": 1.0}, \"29\": {\"Si\": 1.0}, \"30\": {\"Si\": 1.0}, \"31\": {\"Si\": 1.0}, \"32\": {\"Si\": 1.0}, \"33\": {\"Si\": 1.0}, \"34\": {\"Si\": 1.0}, \"35\": {\"Si\": 1.0}, \"36\": {\"Si\": 1.0}, \"37\": {\"Si\": 1.0}, \"38\": {\"Si\": 1.0}, \"39\": {\"Si\": 1.0}, \"40\": {\"Si\": 1.0}, \"41\": {\"Si\": 1.0}, \"42\": {\"Si\": 1.0}, \"43\": {\"Si\": 1.0}, \"44\": {\"Si\": 1.0}, \"45\": {\"Si\": 1.0}, \"46\": {\"Si\": 1.0}, \"47\": {\"Si\": 1.0}, \"48\": {\"Si\": 1.0}, \"49\": {\"Si\": 1.0}, \"50\": {\"Si\": 1.0}, \"51\": {\"Si\": 1.0}, \"52\": {\"Si\": 1.0}, \"53\": {\"Si\": 1.0}, \"54\": {\"Si\": 1.0}}" energy=-475.18019999780074 stress="-0.00683647227474666 -0.001596571225375275 -0.0008265055785064724 -0.001596571225375275 -0.005280037355374322 -0.0010766751571030992 -0.0008265055785064724 -0.0010766751571030992 -0.010532058091575532" free_energy=-475.18019999780074 pbc="T T T"
Si       6.68303070       4.00114535       2.67215169      -0.51495722      -0.93164456      -0.28503385       0.05928700      -1.14100224       1.21658181      -8.62917212
Si       8.63927087       5.06694470       5.76334232      -0.94497380       0.32888283      -2.47984209       0.26640274      -0.47355164       1.00219171      -8.42493775
Si      10.71827537       6.22809011       9.18783873       0.52213699      -1.67056167      -0.88781235      -0.31242196       0.15684303      -0.66681027      -8.40409259
Si       8.58137733       7.24850633       2.78299842      -0.22022697       0.42230324       0.75274504       0.04289512       0.18016309       0.13819623      -8.66087045
Si      10.46433269       8.29220552       5.73613566      -0.15189498      -0.71136893       0.98816324       0.95191954       0.18654734       1.28266459      -8.69604375
Si      12.55471990       9.60421710       8.94512537      -0.07917901      -0.67400462      -0.00361379      -1.34248701      -0.68691489       0.70428287      -8.63957217
Si      10.63564294      10.45709072       2.77420278       0.23049790       1.24056232       0.06063596      -0.25501390      -0.38143110      -0.27322422      -8.69861165
Si      12.51472655      11.67994785       5.89623174      -0.48395239      -0.96663647      -0.85301754      -0.80230135      -0.31183444       0.22872394      -8.71868920
Si      14.46327649      12.58637451       9.05391807      -0.98020582      -0.37594750       1.37786514      -0.44177568       0.98889659      -0.39949764      -8.42270175
Si      10.54897728       3.88678779       2.93962045       0.19434550       1.37598056       1.06346918      -0.10209544       0.48003593      -0.76849677      -8.73212409
Si      12.55134602       4.88570670       5.93990220       0.83563978       0.76368198       0.05425960      -0.00456935       0.52559494       0.39960425      -8.66587326
Si      14.40314619       6.16816723       9.14169812      -0.25273450      -0.46983979      -0.35511546       0.62323404      -0.61254920       0.69262997      -8.74682347
Si      12.61822898       7.17259109       2.79326185      -0.97331271      -0.10775157       1.07395267      -0.13215909      -0.04551871       0.57048825      -8.75659543
Si      14.37088178       8.23134363       5.98013913       0.71478217       0.61906281       0.96411681       0.11051294      -0.06424113       0.33746465      -8.69319233
Si      16.40507703       9.52684579       9.12394504       0.05390988       1.19919410      -0.95984349      -0.01682263      -0.93058216       0.81802799      -8.67971403
Si      14.40395575      10.61035251       2.98214478       0.05921375      -0.14588692      -1.84783128       0.33360872      -0.57642225      -1.16269946      -8.71006061
Si      16.32773779      11.50690325       5.90348661      -0.01115727      -0.81793797      -0.21682907       0.64314238       0.35178875       0.07750878      -8.70669971
Si      18.28123322      12.84076940       9.05611446       0.08927701       0.00345645      -0.49745727      -0.16508075      -0.60711411       0.56520749      -8.64632749
Si      14.44044239       3.70389367       2.70908425       0.99409909      -0.85229109      -0.96517362      -0.48467013       0.95342005       0.54885791      -8.65275925
Si      16.28556207       4.90687624       5.95125083       0.84745305       0.51239751       0.30001911       0.67820027      -0.24512649      -0.04269119      -8.72362629
Si      18.26164177       6.06434825       9.01599618      -0.41833592      -0.23885016      -0.20575215      -0.56327132       0.46122516      -0.40235808      -8.47344661
Si      16.28701414       7.12873455       2.73732824       0.52253606       0.03279332       0.24849299      -0.19477034      -0.07835535      -0.28994877      -8.72831244
Si      18.16329294       8.38178729       5.79444980       2.27404632       0.89277518      -0.36789722      -0.05520187      -0.16677235       0.92767027      -8.73484070
Si      20.17156704       9.37189378       8.96706426       0.85273772       0.41029823       1.76406760      -0.09833281       0.56632871      -0.64603685      -8.68892322
Si      18.24739611      10.50364037       2.65638490       0.12508748       0.35312615       0.07755728       0.09554244      -0.03902863       0.37863986      -8.69500346
Si      20.13881162      11.64453172       5.90030940      -0.46143549      -0.97810761       0.21620005       0.70715299      -0.45386575      -0.50032169      -8.70718653
Si      22.08570185      12.79035250       9.10711977      -0.74302032      -1.41970408      -1.55279708      -1.29196576      -0.02522151       0.12780584      -8.71438413
Si       0.92710439       0.45282843       0.31028223      -0.58183374       0.59755628      -2.65304674       0.71834173       0.21763325       0.35521555      -8.56773638
Si       2.92734527       1.49608914       3.47449621      -0.38217289       1.43987249       1.08506416      -0.68501134       0.36723107       0.71421936      -8.73340527
Si       4.75516286       2.68455922       6.80158577       1.47987967       0.68952861       0.98114852       0.21874163       0.31177232      -0.90178054      -8.71449263
Si       2.87198238       3.90442795       0.38280415      -0.29382019       2.89257679       2.07697734       0.19371969      -0.59236504       0.21192548      -8.60512389
Si       4.74690121       4.92956692       3.59250121       0.57224800      -0.77273389       0.62935117      -0.45771262       0.08061968      -0.39414280      -8.71767485
Si       6.66340310       6.16610574       6.50112964      -1.75014102      -0.74209090      -0.22218482      -0.00542076      -0.50658489       1.01921302      -8.51530514
Si       4.70014285       7.22032182       0.33995756      -1.02045877       0.73533769       0.35935204       0.87509508      -0.31745161       0.49057153      -8.67692265
Si       6.56963950       8.29093088       3.53146745       0.07065794       1.05789636      -1.89314328       0.60628194       0.37725900      -0.92979552      -8.70721827
Si       8.58787128       9.37681072       6.52295353       0.00665892      -1.08867791       0.58685155      -0.25679651       0.39727335       0.90209294      -8.71925070
Si       4.72405692       0.61376815       0.41336619      -0.57431519      -0.05681342      -0.71671794       0.87585217      -0.50252710       0.10506868      -8.55776756
Si       6.67162502       1.66067442       3.55008486      -0.33167429      -0.43995563       0.34952317       0.17533402       1.14541608       0.03415481      -8.66883493
Si       8.70335824       2.67241976       6.64424225       1.32337250       0.13725069       1.43251354      -0.27368376       0.88120121       0.14556188      -8.50874463
Si       6.86598544       4.07935349       0.41161270      -0.50611120      -0.74712216       0.62940312      -0.81264115       0.30907110      -0.52644311      -8.64750498
Si       8.59903547       5.05020598       3.46096098       0.37882738       0.14348496       1.51982230       0.11629178      -0.37175649       0.03637460      -8.66864270
Si      10.65064064       6.16521610       6.73043086       0.79876696       0.37594724      -0.19993614      -0.19542812      -0.61639729      -0.14938052      -8.50941733
Si       8.63564129       7.14692222       0.47628634       0.37005111      -0.39300318       2.13197118       0.68971488      -0.07072393      -0.04088397      -8.66327682
Si      10.63456090       8.18444040       3.47312389      -0.53671694       0.30397615       2.08889053      -0.23820175       0.56729800      -0.54817569      -8.68055855
Si      12.41831472       9.42976629       6.67125103      -0.85155485       0.49573178      -0.61726506       0.22177707      -0.11914750      -1.10066763      -8.65682461
Si       8.58608336       0.62977620       0.57469771       0.99048361       0.02635007       0.25796713       0.43780900      -0.22371998      -0.17899839      -8.64965205
Si      10.62146098       1.68954713       3.55554540       1.44456377      -0.40277282      -1.46801063      -0.08391874      -0.75521880       0.40136700      -8.70853108
Si      12.47001774       2.65383357       6.71900556       0.13625236       0.30662283       0.15834087      -0.43402956       0.44471076      -0.06989683      -8.76283047
Si      10.48466943       3.92786548       0.59866975      -0.35483107       1.13398738      -1.50009282       0.89348508       0.24057794      -0.77745961      -8.52093062
Si      12.48406680       4.97568738       3.57307901      -0.72465994      -0.29232476      -0.15819186       1.09132289      -0.53044717       0.13963324      -8.67903034
Si      14.50599561       6.01019973       6.88398981       0.23054067      -0.38965766      -0.94786389      -1.14896566       0.42011834      -1.49471986      -8.67458806
Si      12.60270729       7.21456048       0.52251613       0.23850658      -1.42504842      -0.34919859      -0.41165746       0.59249434      -1.36978257      -8.68100020
Si      14.48937769       8.32154731       3.62399030       0.32482008      -0.97924125       0.01350205      -0.33351732       0.09622808       0.17700267      -8.72563917
Si      16.28597303       9.35413175       6.82472445      -1.26440600       0.51915985      -1.52334020      -0.18435962       0.07919803      -0.82917225      -8.71002080
Si       8.75552858       4.95682142       8.25096001      -1.27330975      -0.91981895       0.48478488       0.15861863       0.06692561      -0.28556297      -7.79869085
55
Lattice="11.5478352 0.0 0.0 5.773917198490155 10.000722372470358 0.0 5.773916394327279 3.333571176804646 9.428767828939895" Properties=species:S:1:pos:R:3:momenta:R:3:forces:R:3:energies:R:1 spacegroup="_JSON {\"number\": 1, \"setting\": 1}" unit_cell=conventional occupancy="_JSON {\"0\": {\"Si\": 1.0}, \"1\": {\"Si\": 1.0}, \"2\": {\"Si\": 1.0}, \"3\": {\"Si\": 1.0}, \"4\": {\"Si\": 1.0}, \"5\": {\"Si\": 1.0}, \"6\": {\"Si\": 1.0}, \"7\": {\"Si\": 1.0}, \"8\": {\"Si\": 1.0}, \"9\": {\"Si\": 1.0}, \"10\": {\"Si\": 1.0}, \"11\": {\"Si\": 1.0}, \"12\": {\"Si\": 1.0}, \"13\": {\"Si\": 1.0}, \"14\": {\"Si\": 1.0}, \"15\": {\"Si\": 1.0}, \"16\": {\"Si\": 1.0}, \"17\": {\"Si\": 1.0}, \"18\": {\"Si\": 1.0}, \"19\": {\"Si\": 1.0}, \"20\": {\"Si\": 1.0}, \"21\": {\"Si\": 1.0}, \"22\": {\"Si\": 1.0}, \"23\": {\"Si\": 1.0}, \"24\": {\"Si\": 1.0}, \"25\": {\"Si\": 1.0}, \"26\": {\"Si\": 1.0}, \"27\": {\"Si\": 1.0}, \"28\": {\"Si\": 1.0}, \"29\": {\"Si\": 1.0}, \"30\": {\"Si\": 1.0}, \"31\": {\"Si\": 1.0}, \"32\": {\"Si\": 1.0}, \"33\": {\"Si\": 1.0}, \"34\": {\"Si\": 1.0}, \"35\": {\"Si\": 1.0}, \"36\": {\"Si\": 1.0}, \"37\": {\"Si\": 1.0}, \"38\": {\"Si\": 1.0}, \"39\": {\"Si\": 1.0}, \"40\": {\"Si\": 1.0}, \"41\": {\"Si\": 1.0}, \"42\": {\"Si\": 1.0}, \"43\": {\"Si\": 1.0}, \"44\": {\"Si\": 1.0}, \"45\": {\"Si\": 1.0}, \"46\": {\"Si\": 1.0}, \"47\": {\"Si\": 1.0}, \"48\": {\"Si\": 1.0}, \"49\": {\"Si\": 1.0}, \"50\": {\"Si\": 1.0}, \"51\": {\"Si\": 1.0}, \"52\": {\"Si\": 1.0}, \"53\": {\"Si\": 1.0}, \"54\": {\"Si\": 1.0}}" energy=-474.90841497271595 stress="-0.006152021759384555 -0.002688693653004087 -0.0007597245309881371 -0.002688693653004087 -0.009564593968335831 0.0016691477135325908 -0.0007597245309881371 0.0016691477135325908 -0.009768805219353796" free_energy=-474.90841497271595 pbc="T T T"
Si       6.66680231       3.91571068       2.70753333       0.00947259      -2.10832322       1.54164701       0.50354199      -0.26260754       0.84804267      -8.67159110
Si       8.60223889       5.06745423       5.70592177      -0.43471522      -0.27948662       0.78291303       0.40476964      -0.35640411       2.82146360      -8.30061636
Si      10.72270039       6.15722764       9.12025654      -0.50662790      -0.89558504      -1.57246221      -0.92492897       0.68476377      -0.19911846      -8.44151723
Si       8.57498917       7.27276335       2.83276100       0.04752870       0.39683761       1.18669836       0.31842133      -0.23106125       0.28684988      -8.67550728
Si      10.49086925       8.26701093       5.83399215       1.05502415      -0.17026704       2.55241569       0.51898320       0.48151266       0.53685562      -8.73806124
Si      12.50610282       9.55038142       8.97175428      -1.55346211      -1.19443962       0.93393046      -0.47731371       0.02736160       0.37890539      -8.62542450
Si      10.62845559      10.50318451       2.76800076      -0.62750494       0.51763050      -0.24239893      -0.72146085      -0.38524617      -0.05864080      -8.67794428
Si      12.47472074      11.63120982       5.87067248      -0.73286878      -0.63433777       0.00440774       0.41382430       0.68671113       0.70757350      -8.70655850
Si      14.40046352      12.59682906       9.10944574      -1.26485975       0.57101612       0.74111485       0.14687225       0.19717344      -0.39838067      -8.42759274
Si      10.55323626       3.95990504       2.95258609      -0.00600299       1.07309028      -0.74676724       0.00800380      -0.81571776      -1.46357070      -8.67419500
Si      12.58924786       4.93750191       5.95127706       0.46985476       1.01165099       0.22142430      -0.54956301      -0.25987516      -0.21331436      -8.71414075
Si      14.41265842       6.12646300       9.14227536       0.55021616      -0.93452349       0.16981216       0.37081275       0.11372861      -0.10023789      -8.74088136
Si      12.56419250       7.16498686       2.85777945      -1.03994745      -0.18395411       1.09765263       0.05166359      -0.04541431      -0.53485877      -8.74906415
Si      14.39930066       8.25606729       6.02976650       0.11935323       0.24192698       0.64522870      -0.83642666      -0.36676595      -0.75018579      -8.70375681
Si      16.40401291       9.55202630       9.09613780      -0.14924777      -0.22522659      -0.33064502      -0.22393447      -0.86064322      -0.06549541      -8.70457242
Si      14.42120523      10.58062646       2.85912347       0.57972859      -0.94788538      -2.41524408       0.26696409      -0.42388416       0.49967941      -8.70380165
Si      16.35181526      11.49020166       5.88744872       0.85638948       0.40585909      -0.50437455       0.36133861       1.20887845      -0.34759457      -8.70504227
Si      18.28233793      12.81736226       9.05640669       0.00660986      -0.86541691       0.52450244       0.04307313      -0.48445453       0.62016446      -8.63238860
Si      14.46882166       3.70493054       2.69568033       0.02328847       0.95922459       0.71686721      -0.73974739       1.21227416       1.54472920      -8.65879596
Si      16.34181358       4.91686759       5.96149960       0.95172777      -0.21937528      -0.00867938      -0.63868578      -0.56574159      -0.42486052      -8.73264277
Si      18.22366380       6.08019897       8.99108722      -0.90959264       0.97945229      -0.68308332      -0.08317700       0.98504055      -0.15509944      -8.48033043
Si      16.30494367       7.12373635       2.74041229       0.15307246      -0.24822260      -0.06233165      -0.22474511      -0.17306323      -0.01610022      -8.72404369
Si      18.25480314       8.40981168       5.79847758       0.79671356      -0.02774546       0.25382089      -1.64216070      -0.92825390      -0.08116063      -8.65214413
Si      20.20731476       9.41609943       9.02436133       0.43881143       1.21968123       0.32055109      -0.37916719       0.34198336      -1.01349107      -8.70738003
Si      18.26498307      10.52475975       2.65643828       0.66568935       0.54877263      -0.37067337       0.54330978       0.33957666      -0.77620329      -8.68068072
Si      20.14647168      11.58664950       5.90181641       0.74378273      -0.99875377       0.03953913       0.68617419       0.43836007       0.27362219      -8.69092459
Si      22.00967639      12.72835518       9.04605402      -1.83067041      -0.72787825      -0.57580632      -0.02233001       0.79576965       0.86461796      -8.69060986
Si       0.91385676       0.48606170       0.20142435      -0.18114319       0.57096285      -1.25241731      -0.26881775      -0.14777576       1.32552441      -8.52814951
Si       2.88823138       1.57098364       3.54970790      -0.94293031       1.16218544       1.55516813      -0.03646789      -0.61339722      -0.17866228      -8.74979136
Si       4.82760548       2.72354962       6.80043651       1.03968358       0.62404900      -1.20332349      -0.74505472      -0.37388680      -1.55666015      -8.67967953
Si       2.86820467       4.00935682       0.48033866       0.17915026       0.79584394       1.25446291       0.32180892      -1.81371664      -1.28748351      -8.44040831
Si       4.75987183       4.89635453       3.60715112      -0.01909543      -0.41893489      -0.08596254      -0.22280350       0.37468764      -0.45200800      -8.69176861
Si       6.59151582       6.12447902       6.52653533      -0.61222050      -0.51746728       1.13318080       1.43086318       0.75283613       0.77695582      -8.51721453
Si       4.68981830       7.24037431       0.37907321       0.70922982      -0.05037852       1.11345404       1.19001809      -0.62118316       0.40520772      -8.69027747
Si       6.59660829       8.35586902       3.41865724       0.89866645       1.27293546      -1.96820474       0.36727875      -0.18849213       0.77286698      -8.71791871
Si       8.59047274       9.34208241       6.59392387       0.31697671      -0.14900546       2.15049893       0.57292104       0.72054356       0.99619165      -8.71423491
Si       4.72828221       0.58771161       0.38586652       0.70241313      -0.96373528      -0.24176949       0.73813438      -0.59892925       0.45633075      -8.56630743
Si       6.66972412       1.67782173       3.56173825       0.39234753       0.89357458      -0.04148513       0.68378026       0.34096346      -0.47555035      -8.73886341
Si       8.74996658       2.70649545       6.71495846       0.28959474       0.98997398       1.07099747      -0.92246641       0.20304767      -0.60292780      -8.45068782
Si       6.81316424       4.04743466       0.42068156      -1.36730031      -0.62096436      -0.23931736      -0.26541031      -0.27470325      -0.35918660      -8.68955080
Si       8.61224845       5.04433328       3.51538958      -0.05453976      -0.32449808       0.15400865      -0.58320323      -0.21201112      -1.43196066      -8.64580089
Si      10.67895291       6.15387571       6.71452911       0.18911018      -0.89758501      -0.40324945      -0.55973373      -0.95439268      -0.14188241      -8.49663045
Si       8.67268948       7.12323034       0.57132804       0.83334187      -0.49118804       1.21816584      -0.12559638       0.00153330      -1.08630803      -8.63936213
Si      10.59851175       8.22551886       3.55409730      -0.79778044       1.27500074       0.97449197      -0.07337746       0.61394728      -0.64704469      -8.68959811
Si      12.38794374       9.44455340       6.60995362      -0.19282170      -0.04304095      -1.36423777       0.66932892      -0.54100259       0.27838270      -8.69355765
Si       8.64551643       0.61886655       0.56855059       1.07479846      -0.50515520      -0.72480450      -0.35340233      -0.45813007      -1.06799003      -8.70430490
Si      10.67815290       1.65162876       3.50039659       0.43521018      -0.77664999      -0.56263610      -1.16457193       0.26274858       0.67460654      -8.69704873
Si      12.46287355       2.68376933       6.72124336      -0.28055026       0.75406873      -0.10732648       0.05463800       0.13114473      -0.19660669      -8.74461577
Si      10.49832665       3.99281907       0.50431276       0.79750401       1.22142198      -1.83510792       0.57795233      -0.24085892       0.26222724      -8.54655095
Si      12.49762439       4.94564606       3.57415632       1.29982199      -0.72059444       0.26047239       1.28919979      -0.01801555       0.36772184      -8.67748360
Si      14.47908703       6.00973139       6.79297744      -1.04857620       0.40086104      -2.12216425      -0.33012359       0.53352808       0.05548938      -8.71892724
Si      12.59677557       7.17288478       0.46888501      -0.49134922      -0.02319683      -1.30803722      -0.51117274       1.13329790       0.12543292      -8.68188713
Si      14.49082771       8.28064108       3.63333024      -0.30140682      -0.47941111       0.34767002      -0.45728313       0.48922907       0.18795786      -8.70542470
Si      16.23382811       9.38106844       6.72848826      -0.34079080       0.46867138      -1.79375536       1.28930582      -0.08054453       0.50945851      -8.69701125
Si       8.69679625       4.91296302       8.25986259      -0.93910730      -0.71146486      -0.19883168       0.26014381       0.22553104      -0.49427442      -7.78515068
55
Lattice="11.5478352 0.0 0.0 5.773917198490155 10.000722372470358 0.0 5.773916394327279 3.333571176804646 9.428767828939895" Properties=species:S:1:pos:R:3:momenta:R:3:forces:R:3:energies:R:1 spacegroup="_JSON {\"number\": 1, \"setting\": 1}" unit_cell=conventional occupancy="_JSON {\"0\": {\"Si\": 1.0}, \"1\": {\"Si\": 1.0}, \"2\": {\"Si\": 1.0}, \"3\": {\"Si\": 1.0}, \"4\": {\"Si\": 1.0}, \"5\": {\"Si\": 1.0}, \"6\": {\"Si\": 1.0}, \"7\": {\"Si\": 1.0}, \"8\": {\"Si\": 1.0}, \"9\": {\"Si\": 1.0}, \"10\": {\"Si\": 1.0}, \"11\": {\"Si\": 1.0}, \"12\": {\"Si\": 1.0}, \"13\": {\"Si\": 1.0}, \"14\": {\"Si\": 1.0}, \"15\": {\"Si\": 1.0}, \"16\": {\"Si\": 1.0}, \"17\": {\"Si\": 1.0}, \"18\": {\"Si\": 1.0}, \"19\": {\"Si\": 1.0}, \"20\": {\"Si\": 1.0}, \"21\": {\"Si\": 1.0}, \"22\": {\"Si\": 1.0}, \"23\": {\"Si\": 1.0}, \"24\": {\"Si\": 1.0}, \"25\": {\"Si\": 1.0}, \"26\": {\"Si\": 1.0}, \"27\": {\"Si\": 1.0}, \"28\": {\"Si\": 1.0}, \"29\": {\"Si\": 1.0}, \"30\": {\"Si\": 1.0}, \"31\": {\"Si\": 1.0}, \"32\": {\"Si\": 1.0}, \"33\": {\"Si\": 1.0}, \"34\": {\"Si\": 1.0}, \"35\": {\"Si\": 1.0}, \"36\": {\"Si\": 1.0}, \"37\": {\"Si\": 1.0}, \"38\": {\"Si\": 1.0}, \"39\": {\"Si\": 1.0}, \"40\": {\"Si\": 1.0}, \"41\": {\"Si\": 1.0}, \"42\": {\"Si\": 1.0}, \"43\": {\"Si\": 1.0}, \"44\": {\"Si\": 1.0}, \"45\": {\"Si\": 1.0}, \"46\": {\"Si\": 1.0}, \"47\": {\"Si\": 1.0}, \"48\": {\"Si\": 1.0}, \"49\": {\"Si\": 1.0}, \"50\": {\"Si\": 1.0}, \"51\": {\"Si\": 1.0}, \"52\": {\"Si\": 1.0}, \"53\": {\"Si\": 1.0}, \"54\": {\"Si\": 1.0}}" energy=-475.50558113000704 stress="-0.006811327486439542 0.00048582208649300954 0.00047702315388619364 0.00048582208649300954 -0.012844175588069058 0.002124000944492353 0.00047702315388619364 0.002124000944492353 -0.00451345852102843" free_energy=-475.50558113000704 pbc="T T T"
Si       6.68357534       3.81601842       2.79946306       0.52118603      -1.26016098       1.52153310       0.08253127       1.37920705      -0.85643001      -8.70443520
Si       8.59645207       5.03997163       5.83246415       0.22873012      -0.74278591       3.36668844       0.44322278      -0.24627061       0.24750367      -8.42951374
Si      10.66091781       6.13115611       9.03840769      -1.77881465      -0.25366304      -1.37849916      -0.63739853       0.08312911       0.45780128      -8.51417376
Si       8.59168121       7.28048394       2.89810465       0.59909652      -0.16285331       1.10409442       0.35344358      -0.46339746      -0.48068218      -8.72280992
Si      10.55351239       8.27348053       5.97038375       1.06875708       0.30322725       2.31111819      -0.50283731       0.04750901      -0.77157200      -8.71866569
Si      12.42341753       9.49489915       9.02539624      -1.24411275      -0.86616167       0.92316087       0.91619027       0.22973238      -0.35174135      -8.62244905
Si      10.57305960      10.52436139       2.75806501      -1.32524594       0.46555888      -0.05046348      -0.10354802       0.29037875       0.27340538      -8.69283040
Si      12.46259211      11.62767807       5.89104335       0.42535293       0.47337493       0.58784113       1.01212776       0.58401182       0.00473018      -8.68541485
Si      14.34870421      12.62432817       9.13507689      -0.56175430       0.33067167       0.26903809       0.70885211      -0.37313257      -0.26717095      -8.41444969
Si      10.56169461       3.97968577       2.86133595       0.46351898      -0.33238139      -2.55600008       0.50737955      -0.87978061      -0.76332578      -8.65310858
Si      12.58688317       4.97054101       5.94888801      -0.60519170       0.09836498      -0.36761794      -0.70100708      -0.82809093      -0.41717338      -8.72767866
Si      14.44961051       6.09329004       9.13702516       0.73383711      -0.14995515      -0.52002519      -0.12172783       0.80307147      -0.68540848      -8.67013258
Si      12.51321143       7.15533620       2.88722382      -0.87941010      -0.13186207      -0.05881891       0.14408198       0.15997507      -0.86703799      -8.68457678
Si      14.37517182       8.25927960       6.02873107      -0.86040060       0.02896897      -0.71919745      -0.14527596       0.19333843      -0.89177359      -8.74241373
Si      16.38847518       9.51670758       9.06570457      -0.39785693      -0.88755494      -0.97565894      -0.05318075       0.04746956      -0.63253473      -8.72669375
Si      14.45724557      10.51948505       2.76669364       0.69176130      -1.27638290      -0.94884017      -0.13611631      -0.00502598       1.11610064      -8.68994871
Si      16.40078798      11.55768827       5.85010010       0.81100386       2.05516406      -0.81919123      -0.41429500       0.77534215       0.03962302      -8.72311908
Si      18.28560818      12.75965606       9.09800186       0.13006875      -1.16815994       0.82453562       0.09039791       0.17642450      -0.30355198      -8.69830428
Si      14.44474271       3.79010741       2.78591710      -0.80246875       1.97048007       2.40340557      -0.16233548      -0.04435667       0.29715607      -8.75250227
Si      16.35898950       4.89401472       5.94110105      -0.30830351      -0.36235902      -0.78387294      -0.70228069       0.53360490      -0.47267908      -8.71764929
Si      18.17965659       6.16404986       8.95739949      -0.62194015       2.04046186      -0.41646561       0.49585504       0.29524627       0.56368838      -8.49405358
Si      16.30755382       7.10937818       2.74499992       0.01188256      -0.17262482       0.40199691       0.02804454       0.31835971       0.61704125      -8.70706529
Si      18.24052431       8.37705652       5.80409094      -1.03392524      -1.04662208      -0.06085451      -0.47541891      -0.26492672      -0.19158596      -8.65083326
Si      20.21686178       9.48373071       9.01723172      -0.03533816       1.17910135      -0.18552464      -0.22856023      -0.35513473       0.57149869      -8.74155649
Si      18.31630458      10.57076720       2.60720402       1.11148818       1.23055896      -1.39243552      -0.15096245       0.42076255      -0.32815861      -8.69598566
Si      20.20304190      11.55781524       5.92088756       1.21540242      -0.03756054       0.74558526      -0.09980585       0.67700521       0.48910612      -8.70128035
Si      21.93316223      12.71632657       9.03700755      -0.69078350       0.08491353      -0.06722633       1.51617369       0.09380721      -0.26326617      -8.64239705
Si       0.88396604       0.51413134       0.18629120      -1.06776475       0.60270040       0.59156944      -0.68749244       0.23806808       0.98630934      -8.51822801
Si       2.84483450       1.60733981       3.61273175      -0.58464393       0.28033262       0.67165326       0.46145433      -0.39637411      -0.85133402      -8.73403723
Si       4.84592177       2.73591841       6.69693963      -0.43989844      -0.23265608      -2.28153355      -1.10346819      -0.67138168       0.20478480      -8.72431154
Si       2.88645531       3.98865480       0.49020968       0.42068482      -1.35389140      -0.84522419      -0.06322796      -0.90971956      -1.15764154      -8.44846699
Si       4.75899673       4.89053297       3.59028588       0.16470114       0.21530281      -0.44484327       0.46760033       0.44409179      -0.01902337      -8.70375462
Si       6.61324071       6.13003908       6.60799641       1.23793194       0.67755908       1.75201146       0.66813687       0.56713030      -0.09313247      -8.57657849
Si       4.76083205       7.21862494       0.44510632       1.67533258      -0.62885647       1.22119338      -0.06647660      -0.03754298      -0.29486358      -8.73905772
Si       6.64896633       8.40760650       3.35622854       0.92450679       0.59402209      -0.28366267      -0.29745398      -0.59119652       1.28146592      -8.66879170
Si       8.62549374       9.35596407       6.73031995       0.85456604       0.52169605       2.63647341      -0.03026074       0.12482211      -0.61306860      -8.75097181
Si       4.78556573       0.52015192       0.39015022       1.28705884      -1.45266301       0.36939009      -0.02956923       0.02108280       0.32035955      -8.55520922
Si       6.71488166       1.71183271       3.54481412       1.25004322      -0.13105506      -0.46215752       0.37925992      -1.69787208       0.05331670      -8.70574100
Si       8.73178442       2.75584065       6.74373870      -0.89640477       0.68681770      -0.00529811      -0.58204231      -0.60298137      -0.72225798      -8.46715470
Si       6.73976801       3.99436110       0.40631724      -1.27062805      -1.53689022      -0.09875341       0.36304666      -0.78381454       0.44574211      -8.66326004
Si       8.58774706       5.02156033       3.48601167      -0.77205441      -0.50827360      -0.81120316      -0.15117868      -0.06971796       0.28425534      -8.67268838
Si      10.66655219       6.07636068       6.68645749      -0.65170578      -1.85424887      -0.69323885      -0.51365665      -0.15796538      -0.23316315      -8.54321269
Si       8.70133831       7.10017075       0.59225460       0.08683686      -0.34517366      -0.36281042      -0.79582278       0.16183422      -0.87379068      -8.58556013
Si      10.55850681       8.30967055       3.59205311      -0.62147770       1.76533631       0.70105703       0.33512075      -0.04272464       0.23549015      -8.70985137
Si      12.40787678       9.42434959       6.56821477       0.99987690      -0.58800800       0.08557913       0.83186615       0.00236714       1.50188077      -8.68234403
Si       8.67814321       0.57677599       0.49034073      -0.02009800      -0.99922049      -2.09712846      -1.08187389      -0.06300110      -0.44644064      -8.74707994
Si      10.65600908       1.62795215       3.49021231      -1.16409864      -0.04987987      -0.00927791      -0.71909576       0.57677310      -0.03810535      -8.70596760
Si      12.46143074       2.72468669       6.71205391       0.41947231       0.73966203      -0.14458243       0.80564946      -0.13509249       0.17881879      -8.70715564
Si      10.55418565       4.03716812       0.42600804       1.14957732       0.27684250      -1.03129488      -0.14384504      -0.96867258       0.72405915      -8.64742280
Si      12.59573697       4.91410016       3.60033294       1.92818219      -0.32605652       0.68144268      -0.71817886       0.61039211       0.15397181      -8.72843130
Si      14.42859374       6.04659756       6.70213801      -0.59932840       0.87571922      -1.05797134       0.72808126       0.02563029       1.15840603      -8.68860547
Si      12.55387333       7.20910701       0.41912815      -1.07223810       1.17625504      -0.37872661      -0.23126654       0.22974988       0.96151522      -8.69551441
Si      14.45877262       8.27299127       3.65363805      -0.87772382       0.12414973       0.29840322      -0.28729699       0.24027422      -0.31208277      -8.71138666
Si      16.26641398       9.40327785       6.66231496       1.43318202       0.39955643      -0.66808650       0.71381633       0.01223859       0.75940106      -8.71001795
Si       8.65599323       4.88536566       8.23672331      -0.66042772      -0.33883754      -0.49128532       0.08462449       0.22534349       0.27156497      -7.79073801
55
Lattice="11.5478352 0.0 0.0 5.773917198490155 10.000722372470358 0.0 5.773916394327279 3.333571176804646 9.428767828939895" Properties=species:S:1:pos:R:3:momenta:R:3:forces:R:3:energies:R:1 spacegroup="_JSON {\"number\": 1, \"setting\": 1}" unit_cell=conventional occupancy="_JSON {\"0\": {\"Si\": 1.0}, \"1\": {\"Si\": 1.0}, \"2\": {\"Si\": 1.0}, \"3\": {\"Si\": 1.0}, \"4\": {\"Si\": 1.0}, \"5\": {\"Si\": 1.0}, \"6\": {\"Si\": 1.0}, \"7\": {\"Si\": 1.0}, \"8\": {\"Si\": 1.0}, \"9\": {\"Si\": 1.0}, \"10\": {\"Si\": 1.0}, \"11\": {\"Si\": 1.0}, \"12\": {\"Si\": 1.0}, \"13\": {\"Si\": 1.0}, \"14\": {\"Si\": 1.0}, \"15\": {\"Si\": 1.0}, \"16\": {\"Si\": 1.0}, \"17\": {\"Si\": 1.0}, \"18\": {\"Si\": 1.0}, \"19\": {\"Si\": 1.0}, \"20\": {\"Si\": 1.0}, \"21\": {\"Si\": 1.0}, \"22\": {\"Si\": 1.0}, \"23\": {\"Si\": 1.0}, \"24\": {\"Si\": 1.0}, \"25\": {\"Si\": 1.0}, \"26\": {\"Si\": 1.0}, \"27\": {\"Si\": 1.0}, \"28\": {\"Si\": 1.0}, \"29\": {\"Si\": 1.0}, \"30\": {\"Si\": 1.0}, \"31\": {\"Si\": 1.0}, \"32\": {\"Si\": 1.0}, \"33\": {\"Si\": 1.0}, \"34\": {\"Si\": 1.0}, \"35\": {\"Si\": 1.0}, \"36\": {\"Si\": 1.0}, \"37\": {\"Si\": 1.0}, \"38\": {\"Si\": 1.0}, \"39\": {\"Si\": 1.0}, \"40\": {\"Si\": 1.0}, \"41\": {\"Si\": 1.0}, \"42\": {\"Si\": 1.0}, \"43\": {\"Si\": 1.0}, \"44\": {\"Si\": 1.0}, \"45\": {\"Si\": 1.0}, \"46\": {\"Si\": 1.0}, \"47\": {\"Si\": 1.0}, \"48\": {\"Si\": 1.0}, \"49\": {\"Si\": 1.0}, \"50\": {\"Si\": 1.0}, \"51\": {\"Si\": 1.0}, \"52\": {\"Si\": 1.0}, \"53\": {\"Si\": 1.0}, \"54\": {\"Si\": 1.0}}" energy=-475.1662869931672 stress="-0.01035912749872722 0.0028912788509546216 0.001733444550433095 0.0028912788509546216 -0.010551562726073351 -0.0005637778555103304 0.001733444550433095 -0.0005637778555103304 -0.007496504233210095" free_energy=-475.1662869931672 pbc="T T T"
Si       6.70672358       3.80328966       2.83609121       0.25254338       0.53896310      -0.19817806      -0.32773501       0.49949607      -1.15863311      -8.74738568
Si       8.62008472       4.99471955       5.98143957       0.51265891      -0.91521896       1.68428093      -0.18040482       0.00640644      -2.20307331      -8.40819555
Si      10.55591455       6.11139193       8.98782575      -1.91802557      -0.66367694      -0.51727336       0.55750788      -0.55845301       0.58825207      -8.53307320
Si       8.63296430       7.25580047       2.92925434       0.88190700      -0.71021398      -0.02770506      -0.00560840      -0.19793480      -0.91644578      -8.73815921
Si      10.58474619       8.28524956       6.05511720       0.11854283       0.08162400       0.85638616      -0.51908715      -0.20083708      -1.02132659      -8.69454128
Si      12.40575782       9.45056279       9.05715186       0.69707333      -0.98723080       0.29725013       1.38334046      -0.38580820      -0.29968390      -8.67462538
Si      10.51082132      10.56261162       2.76667345      -0.82557504       0.96942202       0.37425619       0.76813994       0.19865334       0.26335639      -8.70682431
Si      12.51908826      11.66380017       5.91426022       1.51338550       0.65973033       0.17878174       0.15971306      -0.37596139      -0.47118610      -8.70420858
Si      14.34554160      12.62930018       9.13935011       0.37236861      -0.06674123      -0.09932520       0.44802150      -0.09997322      -0.23509884      -8.38934298
Si      10.60138638       3.93616124       2.71689426       0.90785247      -1.14817199      -2.53404405      -0.03224878      -0.17610214       0.86811272      -8.64299716
Si      12.53878234       4.94818623       5.92134063      -0.98181743      -0.79451588      -0.48092987       0.24157990      -0.22825133       0.35961873      -8.73552493
Si      14.47812866       6.11327179       9.08562167       0.25926973       0.77142216      -1.32707257      -0.49279633       0.26179943      -0.24333243      -8.66786995
Si      12.47164042       7.15886463       2.85544766      -0.73994531       0.34878320      -1.00760754       0.00495005       0.48074731      -0.29156016      -8.66727791
Si      14.34381130       8.27407785       5.96421034      -0.00116434       0.57945087      -1.55154905       1.13753531       0.37694269      -0.14612443      -8.74158505
Si      16.36835037       9.48153113       8.99493827      -0.33484292      -0.33732481      -1.53994148       0.07908966       0.50392009       0.07751052      -8.72392288
Si      14.48363224      10.45675170       2.74832152       0.24429471      -1.04114834      -0.03447145      -0.40143744       0.28710900       0.02196439      -8.73220028
Si      16.42214780      11.68133782       5.81637615      -0.04088717       2.38099867      -0.33996884      -0.58611983      -0.30964607       0.52456827      -8.69923542
Si      18.29423165      12.71582722       9.11767248       0.14218752      -0.34592391      -0.25630452      -0.13861835       0.75535870      -1.00204109      -8.72519619
Si      14.41506186       3.87096572       2.89566503      -0.00157214       0.78970551       1.31955861       1.03782880      -1.25252420      -1.47783193      -8.65309608
Si      16.32755219       4.90572343       5.88972803      -0.66478640       0.88096526      -0.97898328       0.17791868       0.82265828       0.28867920      -8.67966048
Si      18.17320472       6.26885474       8.96370071       0.48436207       1.68626129       0.70174360       0.90090167      -0.75509143       0.72486604      -8.47157852
Si      16.31115533       7.11886134       2.79173281       0.15159936       0.63494722       1.33707325       0.13455599       0.71091605       0.44796793      -8.69602977
Si      18.19054269       8.32424769       5.79608376      -0.48600712      -0.74458781      -0.19243917       1.03360129       0.61336936       0.02383757      -8.64748189
Si      20.20840662       9.52718341       9.05037378      -0.25528007       0.40047687       1.68185861      -0.10337048      -0.66709764       1.44013598      -8.68272113
Si      18.35482363      10.64298804       2.53952607       0.12361517       1.32120177      -0.80520563      -1.05395603      -0.35246915       1.15806260      -8.66750769
Si      20.25026020      11.57358312       5.96983528       0.32429464       0.41658557       0.88681263      -1.11050020      -0.18463770      -0.41350558      -8.72994095
Si      21.96136274      12.71360243       9.01433389       1.69064860      -0.30871774      -0.87341122       1.21105155      -0.37451919      -0.57471818      -8.64839885
Si       0.81044126       0.55842837       0.24146857      -1.48995177       1.12201432       1.20664282       0.25961835       0.38759972      -0.20075830      -8.52668926
Si       2.83315451       1.61694809       3.61891559       0.11872336       0.28609837      -0.29909403       0.37706322       0.37905902      -0.33080159      -8.72762101
Si       4.79115142       2.70449208       6.60130281      -1.29646280      -0.74873033      -1.14269433       0.26938104       0.17189401       1.08885915      -8.73458395
Si       2.89804542       3.90070946       0.41965015      -0.12840387      -1.63289728      -1.45420571      -0.62894771       0.52957132       0.37213995      -8.46893742
Si       4.78924075       4.91732244       3.56969466       0.98358244       0.75934016      -0.30188597       0.44976439       0.26339337       0.13449352      -8.73581588
Si       6.68455609       6.17531670       6.68232222       1.15959255       0.81651378       0.85941730      -0.58952361      -0.34206184      -0.94743691      -8.55498988
Si       4.82933786       7.19364331       0.49278576       0.70449694      -0.18530472       0.55209087      -0.95394902       0.49139480      -0.47703045      -8.72370846
Si       6.68350040       8.41926561       3.38540335       0.39447183      -0.06075244       1.23965768      -0.29248522      -0.25398218       0.67005043      -8.65750269
Si       8.65965813       9.38196075       6.82288888       0.29655250       0.38192596       0.61919471      -0.63369276      -0.22697761      -1.63819310      -8.67682623
Si       4.84040088       0.45350948       0.41874583       0.59764617      -0.94050011       0.65877659      -0.82890169       0.59573028       0.07403816      -8.50053719
Si       6.78769110       1.63572422       3.52895893       1.36051093      -2.56470467      -0.08026235      -0.27707118      -0.92794743       0.31170031      -8.68387239
Si       8.67157162       2.76186330       6.72176869      -1.18357665      -0.52784209      -0.67076322       0.27546725      -0.85990936      -0.08723827      -8.52789579
Si       6.69118373       3.88920351       0.41924486      -0.53121454      -2.29216835       0.54473754       0.56275533      -0.09496388       0.26844866      -8.62660687
Si       8.55735146       4.99287635       3.46755526      -0.07324952      -0.56925519       0.24869575       1.05316060      -0.01138104       0.86898131      -8.55484472
Si      10.61770855       5.98827228       6.64334444      -1.06997573      -1.22125922      -0.86642009       0.03944243       0.94440802       0.09365907      -8.52952270
Si       8.67445764       7.08714974       0.54800149      -1.05770823      -0.19039366      -1.15885733      -0.57987573       0.01526060      -0.22052112      -8.60263548
Si      10.54221599       8.39093670       3.64257216       0.03226335       1.16594085       1.24259032       0.45738453      -0.69134248       0.30549460      -8.69403623
Si      12.48429636       9.40573312       6.63307862       1.68274478       0.06806294       2.33230459      -0.04942320       0.72701281       1.27362381      -8.70280212
Si       8.63695343       0.53085815       0.38085429      -1.35852370      -0.60885630      -1.77661719      -0.31403786       0.49031267       0.71908926      -8.73749127
Si      10.58286406       1.64589645       3.47846917      -1.32134570       0.68320541      -0.56952702       0.45982629       0.37251567      -0.54147578      -8.70260050
Si      12.51544603       2.75530143       6.71457671       1.57226748       0.36514746       0.26631413       0.53402727      -0.37736129       0.27636752      -8.70207149
Si      10.59896920       4.01629938       0.39712915       0.37022419      -0.92494368      -0.19296722      -0.87536980      -0.40226486       0.23275762      -8.71200525
Si      12.63967386       4.92942796       3.63698667      -0.68107880       1.01085539       0.57201458      -2.32139710       0.95478372      -0.43788447      -8.67110535
Si      14.42231825       6.08599606       6.68915032       0.22328161       0.52293318       0.41695046       0.21906859      -0.36489398       0.58776575      -8.70982358
Si      12.49267228       7.25910436       0.43703509      -1.19168834       0.37211970       1.00506293       0.04174150      -1.13093746       0.72592020      -8.70114889
Si      14.40528539       8.28227526       3.65010709      -1.07967450       0.10179351      -0.55246124       0.03546515      -0.26027379      -0.77555048      -8.73602768
Si      16.34861925       9.42854751       6.64792193       1.32558226       0.64859373      -0.08941121      -0.73740906       0.33554988      -0.06259906      -8.70350548
Si       8.62043042       4.87261849       8.23806129      -0.78578654      -0.23400217       0.83712512      -0.27593493      -0.11225890       1.38372923      -7.75249789
55
Lattice="11.5478352 0.0 0.0 5.773917198490155 10.000722372470358 0.0 5.773916394327279 3.333571176804646 9.428767828939895" Properties=species:S:1:pos:R:3:momenta:R:3:forces:R:3:energies:R:1 spacegroup="_JSON {\"number\": 1, \"setting\": 1}" unit_cell=conventional occupancy="_JSON {\"0\": {\"Si\": 1.0}, \"1\": {\"Si\": 1.0}, \"2\": {\"Si\": 1.0}, \"3\": {\"Si\": 1.0}, \"4\": {\"Si\": 1.0}, \"5\": {\"Si\": 1.0}, \"6\": {\"Si\": 1.0}, \"7\": {\"Si\": 1.0}, \"8\": {\"Si\": 1.0}, \"9\": {\"Si\": 1.0}, \"10\": {\"Si\": 1.0}, \"11\": {\"Si\": 1.0}, \"12\": {\"Si\": 1.0}, \"13\": {\"Si\": 1.0}, \"14\": {\"Si\": 1.0}, \"15\": {\"Si\": 1.0}, \"16\": {\"Si\": 1.0}, \"17\": {\"Si\": 1.0}, \"18\": {\"Si\": 1.0}, \"19\": {\"Si\": 1.0}, \"20\": {\"Si\": 1.0}, \"21\": {\"Si\": 1.0}, \"22\": {\"Si\": 1.0}, \"23\": {\"Si\": 1.0}, \"24\": {\"Si\": 1.0}, \"25\": {\"Si\": 1.0}, \"26\": {\"Si\": 1.0}, \"27\": {\"Si\": 1.0}, \"28\": {\"Si\": 1.0}, \"29\": {\"Si\": 1.0}, \"30\": {\"Si\": 1.0}, \"31\": {\"Si\": 1.0}, \"32\": {\"Si\": 1.0}, \"33\": {\"Si\": 1.0}, \"34\": {\"Si\": 1.0}, \"35\": {\"Si\": 1.0}, \"36\": {\"Si\": 1.0}, \"37\": {\"Si\": 1.0}, \"38\": {\"Si\": 1.0}, \"39\": {\"Si\": 1.0}, \"40\": {\"Si\": 1.0}, \"41\": {\"Si\": 1.0}, \"42\": {\"Si\": 1.0}, \"43\": {\"Si\": 1.0}, \"44\": {\"Si\": 1.0}, \"45\": {\"Si\": 1.0}, \"46\": {\"Si\": 1.0}, \"47\": {\"Si\": 1.0}, \"48\": {\"Si\": 1.0}, \"49\": {\"Si\": 1.0}, \"50\": {\"Si\": 1.0}, \"51\": {\"Si\": 1.0}, \"52\": {\"Si\": 1.0}, \"53\": {\"Si\": 1.0}, \"54\": {\"Si\": 1.0}}" energy=-475.1704135412938 stress="-0.01026605046919278 -0.0003673469672498546 -0.00045101309566717215 -0.0003673469672498546 -0.006516530633642999 -0.0013769263276160848 -0.00045101309566717215 -0.0013769263276160848 -0.010300849721605106" free_energy=-475.1704135412938 pbc="T T T"
Si       6.71208597       3.82741017       2.79156802       0.10686638       0.03057321      -1.23168229       0.26150949      -0.87297018      -0.10401705      -8.72378291
Si       8.63032362       4.94780136       5.98223458      -0.25051022      -0.86564059      -1.48601934      -0.66373824       0.05343880      -1.57894969      -8.50780410
Si      10.49054649       6.05384773       8.98008503      -0.40339775      -1.48688938       0.15578542       1.20905436      -0.38803794       0.33110226      -8.50601445
Si       8.67461801       7.21688292       2.89498470       0.63708573      -0.66561588      -1.18235388      -0.27698696       0.21955958      -0.53847196      -8.70760535
Si      10.58144177       8.28594520       6.06710213      -0.04133783       0.04649888      -0.22492093       0.26317639       0.19179985      -0.33703449      -8.70982238
Si      12.48010393       9.38115654       9.07348072       1.72850757      -1.66834750       0.60670030      -0.19578459      -0.43985423       0.78273961      -8.74056795
Si      10.50409808      10.61121857       2.79559756       0.63453776       0.67799613       0.71536508       1.00742815      -0.59376775       0.20971866      -8.69996748
Si      12.58250180      11.67195291       5.90389768       0.51276309      -0.53549606      -0.56549805      -1.32988203      -1.08595264      -0.42118361      -8.68649894
Si      14.37589174      12.62445876       9.12607783       0.66461252      -0.11148841      -0.37713267      -0.02322245      -0.07760586      -0.11725257      -8.31740891
Si      10.63858366       3.87948166       2.63428369       0.35244734      -0.81088068      -0.41372512      -0.65517021       0.61970107       1.62756036      -8.65704447
Si      12.50499074       4.90905238       5.91812754      -0.20031825      -0.49503255       0.42494952       0.66377041       0.56780481       0.60289613      -8.71892698
Si      14.47056108       6.15134934       9.01901493      -0.56328170       0.45112816      -0.97099188      -0.55133527      -0.63488100       0.68303892      -8.69523110
Si      12.42939292       7.19742904       2.80458515      -0.93936943       1.11987095      -0.66255720      -0.26096667       0.46898183       0.75030760      -8.72383504
Si      14.38717895       8.31553245       5.88936971       1.51798341       0.93976302      -1.08557489       0.62164291       0.13653063       0.68388704      -8.72502486
Si      16.35191751       9.47957915       8.93188049      -0.34456341       0.16647773      -0.62792424      -0.12520019       0.13581916       0.97568933      -8.69271627
Si      14.48343926      10.41491543       2.73391872      -0.16578857      -0.52483203      -0.71943001      -0.07638066       0.40510268      -0.77781170      -8.72838717
Si      16.40352404      11.78476614       5.81757015      -0.51209744       1.41107968       0.30913562       0.02783066      -0.91007195       0.22973011      -8.63940150
Si      18.29042130      12.71901978       9.06992029      -0.38894081       0.25185144      -1.37349293      -0.51445279      -0.04620369      -0.25476332      -8.72868639
Si      14.44618597       3.87418912       2.90657936       0.89887471      -0.33856124      -0.83326596      -0.02597855      -0.01152801      -1.23963845      -8.63759596
Si      16.30644102       4.97300093       5.85928268      -0.03860495       1.44931168      -0.03766585       0.58056313      -0.08531281       0.84513266      -8.66262294
Si      18.22633332       6.32035720       9.01782972       1.27379452       0.19626607       1.11475248      -0.14860561      -1.06736409      -0.22628842      -8.45903797
Si      16.32441741       7.17900380       2.86768559       0.34973949       1.59201704       1.31197580       0.11925298       0.44802246      -0.51194363      -8.71668741
Si      18.20997048       8.31544631       5.79224264       1.22276161       0.49271037       0.17656033       1.02526909       0.93302943       0.53190121      -8.69525224
Si      20.19070732       9.52046152       9.17507906      -0.43225044      -0.66605808       2.61682655      -0.14789154      -0.69036761      -0.29559274      -8.68370054
Si      18.32020557      10.69055513       2.55395113      -1.36773989       0.36963547       1.45771684      -0.75634908      -0.84004427       1.54906469      -8.63076422
Si      20.22123585      11.57796969       5.98911639      -1.31232584      -0.35806727      -0.30537086      -0.62506611      -0.59976563      -1.01080309      -8.74490434
Si      22.07269362      12.68852905       8.95301101       2.10061787      -0.51786205      -1.30686418      -0.53321906       0.12543269       0.04597179      -8.69360352
Si       0.75586128       0.63052491       0.28702750      -0.37987732       1.56239601       0.44380305       1.07774669       0.12186628      -0.53106645      -8.47124756
Si       2.84748215       1.65050872       3.59927769       0.29682181       0.99357989      -0.31064626      -0.12423342       0.37730151       0.21122460      -8.74879451
Si       4.75571851       2.68536030       6.58075806       0.22029620       0.18926407       0.22391704       1.31246913       0.82000929       0.55322569      -8.70656062
Si       2.87010804       3.84904062       0.37479529      -0.74892325      -0.15023188       0.02273802       0.10830056       1.25340133       1.46535814      -8.46594762
Si       4.84949154       4.96449020       3.55756953       1.13139408       0.98581677      -0.19412164      -0.25131579       0.05161132       0.00679872      -8.76299518
Si       6.71870435       6.19784183       6.69231983       0.13001710      -0.04990191      -0.38778477      -0.64872455      -0.70148309      -0.61211728      -8.52763496
Si       4.83706255       7.19975212       0.50675227      -0.18833500       0.31519241       0.06283435      -0.11802589       0.10328525      -0.15450052      -8.71441304
Si       6.69847013       8.41063404       3.46453986       0.29589928      -0.19249310       1.54448810       0.17507425       0.04916724      -0.24362528      -8.66523237
Si       8.64846194       9.39219359       6.80795778      -0.72166710      -0.00973778      -0.80132477      -0.61339514      -0.29975330      -0.16595795      -8.68588075
Si       4.83755644       0.42832829       0.45325621      -0.67664792      -0.04068334       0.60279286      -0.71565142       0.51439686      -0.13688277      -8.49311808
Si       6.83890129       1.49560450       3.53493630       0.43186395      -2.23766422       0.26449137      -0.88747912       1.17889248       0.13273975      -8.64608174
Si       8.63325178       2.71077211       6.69368794      -0.06884559      -1.16572935      -0.22132513       1.05373956       0.10929736       0.59818570      -8.55090697
Si       6.68358523       3.77652016       0.44930509       0.19437121      -1.81501859       0.41482655       0.37578514       0.64242434      -0.45615449      -8.61854690
Si       8.59855300       4.96177862       3.50905734       1.60514464      -0.64768472       1.17255155       0.90761707      -0.12559545       0.22730987      -8.57389029
Si      10.57164475       5.96623683       6.60828969      -0.56641367       0.40243683      -0.35439669       0.49312118       1.02285759       0.54091315      -8.52896546
Si       8.60855355       7.07660995       0.48574041      -1.18007131      -0.20234675      -1.07850486       0.49513441       0.05475584       0.32330582      -8.65067972
Si      10.55782416       8.42379271       3.71035760       0.46357612       0.10250037       1.12140107       0.06708555      -0.63256584      -0.54750219      -8.68998250
Si      12.56073405       9.43390994       6.78466645       1.11201696       0.86213399       2.94999537      -0.53243990       0.17949567      -0.66450358      -8.70441112
Si       8.57869863       0.51903932       0.31911749      -0.43008355       0.15136940      -0.56453785       1.33892568       0.45329474       0.76981000      -8.65211835
Si      10.53862857       1.69021481       3.43330723      -0.30436729       0.86152286      -0.97327324       0.69737222      -0.19990529       0.15265617      -8.70403193
Si      12.60353121       2.75853482       6.73468391       1.44835515      -0.23362133       0.38367810      -0.78190822      -0.33824344      -0.17978738      -8.72123368
Si      10.58154163       3.96624984       0.38306572      -1.01435792      -0.75287251      -0.55864036      -0.79222210       0.49535661      -0.57785730      -8.67801457
Si      12.53139157       5.00512753       3.63751405      -2.95098820       1.53447814      -0.72321908      -0.44602681      -0.33415828      -1.06107638      -8.71285336
Si      14.43319603       6.10336216       6.71624496       0.04287379       0.24941836       0.27444671      -0.36359973       0.05340355      -0.73354369      -8.72249371
Si      12.43376413       7.23718380       0.50298138      -1.01604812      -1.03487107       1.16304150       0.19447104      -0.49057246      -0.61314640      -8.71824605
Si      14.35464784       8.27399783       3.59174256      -0.76193160      -0.44503904      -1.59326390       0.38654964      -0.36158802      -0.45707834      -8.75636534
Si      16.38435588       9.47719631       6.62898723       0.03744759       1.20160305      -0.81317165      -0.74655661       0.32162355      -0.75015450      -8.68929665
Si       8.56378715       4.85230789       8.33054417      -1.44158553      -0.58422468       2.44390689      -0.53108098      -0.28007096       0.46843732      -7.77757509
55
Lattice="11.5478352 0.0 0.0 5.773917198490155 10.000722372470358 0.0 5.773916394327279 3.333571176804646 9.428767828939895" Properties=species:S:1:pos:R:3:momenta:R:3:forces:R:3:energies:R:1 spacegroup="_JSON {\"number\": 1, \"setting\": 1}" unit_cell=conventional occupancy="_JSON {\"0\": {\"Si\": 1.0}, \"1\": {\"Si\": 1.0}, \"2\": {\"Si\": 1.0}, \"3\": {\"Si\": 1.0}, \"4\": {\"Si\": 1.0}, \"5\": {\"Si\": 1.0}, \"6\": {\"Si\": 1.0}, \"7\": {\"Si\": 1.0}, \"8\": {\"Si\": 1.0}, \"9\": {\"Si\": 1.0}, \"10\": {\"Si\": 1.0}, \"11\": {\"Si\": 1.0}, \"12\": {\"Si\": 1.0}, \"13\": {\"Si\": 1.0}, \"14\": {\"Si\": 1.0}, \"15\": {\"Si\": 1.0}, \"16\": {\"Si\": 1.0}, \"17\": {\"Si\": 1.0}, \"18\": {\"Si\": 1.0}, \"19\": {\"Si\": 1.0}, \"20\": {\"Si\": 1.0}, \"21\": {\"Si\": 1.0}, \"22\": {\"Si\": 1.0}, \"23\": {\"Si\": 1.0}, \"24\": {\"Si\": 1.0}, \"25\": {\"Si\": 1.0}, \"26\": {\"Si\": 1.0}, \"27\": {\"Si\": 1.0}, \"28\": {\"Si\": 1.0}, \"29\": {\"Si\": 1.0}, \"30\": {\"Si\": 1.0}, \"31\": {\"Si\": 1.0}, \"32\": {\"Si\": 1.0}, \"33\": {\"Si\": 1.0}, \"34\": {\"Si\": 1.0}, \"35\": {\"Si\": 1.0}, \"36\": {\"Si\": 1.0}, \"37\": {\"Si\": 1.0}, \"38\": {\"Si\": 1.0}, \"39\": {\"Si\": 1.0}, \"40\": {\"Si\": 1.0}, \"41\": {\"Si\": 1.0}, \"42\": {\"Si\": 1.0}, \"43\": {\"Si\": 1.0}, \"44\": {\"Si\": 1.0}, \"45\": {\"Si\": 1.0}, \"46\": {\"Si\": 1.0}, \"47\": {\"Si\": 1.0}, \"48\": {\"Si\": 1.0}, \"49\": {\"Si\": 1.0}, \"50\": {\"Si\": 1.0}, \"51\": {\"Si\": 1.0}, \"52\": {\"Si\": 1.0}, \"53\": {\"Si\": 1.0}, \"54\": {\"Si\": 1.0}}" energy=-475.1592971310792 stress="-0.008282848423986744 -0.000831923490242303 -0.00040017034507879506 -0.000831923490242303 -0.008292612001263541 3.2626147054176096e-05 -0.00040017034507879506 3.2626147054176096e-05 -0.008847013569215972" free_energy=-475.1592971310792 pbc="T T T"
Si       6.73545343       3.79576795       2.73989217       0.86710632      -1.14779444      -0.45505178       0.58544923      -0.53946513       0.98926607      -8.64512680
Si       8.59812969       4.90697376       5.87028299      -0.79834230      -0.62793076      -2.22968573       0.01274509       0.29169678       0.58884487      -8.58579223
Si      10.50687184       5.97107366       8.99830792       0.77677551      -1.44869945       0.48137082       0.25673024       0.47067675       0.10121700      -8.54616456
Si       8.69698786       7.19197395       2.82188265       0.22764184      -0.28091322      -1.40166162      -0.23250243       0.23828261       0.25881396      -8.65191176
Si      10.59338590       8.30072670       6.05326578       0.52003660       0.59051685      -0.12555561       0.36269554       0.47558073       0.34788819      -8.69716014
Si      12.54226613       9.28068210       9.14224457       0.33937371      -2.02724104       1.99331834      -1.36786834       0.12086351       0.69050086      -8.69518332
Si      10.56490161      10.61821220       2.83973770       1.37356168      -0.46673269       0.91162385      -0.19727184      -0.81626104      -0.01836433      -8.69240600
Si      12.56020373      11.60756020       5.86766654      -1.16651720      -1.70372400      -0.58296746      -0.60262455      -0.25992069       0.46758330      -8.73132407
Si      14.40657523      12.61046588       9.10438150       0.46453527      -0.52308631      -0.39916480      -0.18575111      -0.45791276       0.07961636      -8.24393937
Si      10.62834491       3.86674763       2.66028587      -0.76949342       0.35570151       1.00216694      -0.74890048       0.71427724       0.08505625      -8.73275398
Si      12.51660212       4.90956063       5.95189910       0.52062212       0.55140676       0.59138356       0.18444688       0.71214779      -0.43873687      -8.70858710
Si      14.42369300       6.14489546       8.99650052      -1.11044082      -0.75552545       0.03775553      -0.10259903      -0.86638330       0.39374314      -8.72770401
Si      12.36979044       7.26761965       2.80344782      -1.28747779       1.37875206       0.57569824      -0.06708160      -0.23166368       0.57514701      -8.76767141
Si      14.47363487       8.36730434       5.85884772       1.44034872       0.96561917      -0.16447290      -0.69917734      -0.13287694       0.35944227      -8.69672006
Si      16.32625429       9.48893227       8.93217264      -0.66833784       0.11766202       0.45010931      -0.25466020      -0.14998319       0.25709201      -8.68958775
Si      14.47586446      10.40422798       2.66895214      -0.08391418       0.13359709      -1.60360963       0.07863986       0.46500949      -0.17863314      -8.71464987
Si      16.38707932      11.82182192       5.83430825       0.03450895       0.01222702       0.16813891       0.59837082      -0.86263725      -0.39698241      -8.62676440
Si      18.25345632      12.72406359       9.00706666      -0.89907869      -0.11616013      -0.67702494      -0.05494749      -0.28790814       1.07268570      -8.67409829
Si      14.47997204       3.87437905       2.82549826       0.21935845       0.61934903      -1.99273728      -0.70924045       1.05773213      -0.15740498      -8.63861765
Si      16.32571979       5.03600513       5.88650240       0.69618660       0.79619476       0.93608243       0.26898674      -0.70570876       0.30303428      -8.71313468
Si      18.26640969       6.29857853       9.05819275      -0.04606875      -0.75419677       0.30930898      -1.29738649       0.00097310      -0.67722619      -8.43883127
Si      16.34694564       7.26945260       2.90689461       0.50910593       1.63412249       0.04009283       0.12408722      -0.41647312      -1.07302529      -8.72922273
Si      18.29978212       8.37090329       5.82655663       1.84810202       1.41004414       1.13815118      -0.36955135       0.10102440       0.53906339      -8.74136883
Si      20.16299949       9.46619240       9.28277083      -0.58424508      -1.19724633       1.21229283       0.01144143       0.11795340      -1.40101624      -8.65190944
Si      18.23435625      10.67688376       2.67503413      -1.55848578      -0.86658407       2.78740785       0.59720451      -0.74266326       0.11883444      -8.66184594
Si      20.15377072      11.54462751       5.93861232      -0.81074755      -0.70716687      -1.45601058       1.09269092       0.19635282      -0.36455197      -8.73609176
Si      22.15392783      12.67271851       8.89666160       0.93170389       0.02653607      -0.64204662      -0.81127437       0.55874860       0.81656341      -8.67685877
Si       0.77495847       0.70663014       0.30179000       0.96041903       1.08104849       0.40748919       0.50404958      -0.88728540       0.58662986      -8.42246540
Si       2.85559225       1.70750652       3.59048338      -0.00255459       0.98046996      -0.09164505      -0.19015362      -0.38047685      -0.05054861      -8.76164931
Si       4.80482004       2.71969980       6.59859988       1.33150539       0.93852983       0.17089924       0.09724641       0.13035681      -0.54533392      -8.70511298
Si       2.85250277       3.88232754       0.43290688       0.30999993       1.15585574       2.06344562       0.98639840       0.22328095       0.93428711      -8.53330649
Si       4.89408168       5.01548647       3.54681393       0.51845329       0.90085471      -0.22113746      -0.45350990      -0.17600385      -0.01438103      -8.73186103
Si       6.70708570       6.17223800       6.65569166      -0.40922916      -0.79016379      -0.87231130      -0.00271486      -0.17090125      -0.06827671      -8.54254961
Si       4.83247386       7.21415681       0.50818818       0.13899115       0.13032220       0.05044060       0.37894900      -0.30608222       0.07168528      -8.66761171
Si       6.72561020       8.40449987       3.52883463       0.80723263      -0.02176934       0.82980413       0.44329527       0.12077841      -0.54164542      -8.70158667
Si       8.59771768       9.38102944       6.77607698      -0.91428775      -0.35277844      -0.13926527       0.56833700      -0.03469665       0.93715953      -8.67487394
Si       4.78413992       0.43969572       0.47884052      -1.15256008       0.32747715       0.38228217       0.09052077      -0.06268974      -0.09680731      -8.53292536
Si       6.83025960       1.43491233       3.54906271      -0.60292814       0.03282702       0.16092178      -0.27368165       1.62703516      -0.30345991      -8.66009282
Si       8.66173860       2.66397316       6.70385515       0.86765179      -0.49173885       0.50394410      -0.02710441       0.61937286       0.20019498      -8.56671269
Si       6.70328905       3.70807330       0.44837204       0.44155017      -0.81230996      -0.46742304      -0.08007958       0.57034849      -0.50764441      -8.65333027
Si       8.70217256       4.92312941       3.56292110       2.00636838      -0.77953392       0.53807940      -0.42426103       0.06178634      -1.10192662      -8.66765735
Si      10.55705710       6.01546294       6.61121518      -0.09677376       1.21457077       0.44314134       0.09422793       0.02242410       0.45754878      -8.58635157
Si       8.57799035       7.07198725       0.44726284       0.16201468       0.08008670      -0.31111980       1.04969637       0.24318039       0.61893609      -8.67114439
Si      10.57701341       8.41084277       3.73892557       0.10270910      -0.45975133      -0.12925870      -0.59078486      -0.09737773      -0.91231001      -8.69974250
Si      12.59936648       9.47454763       6.89031732       0.38128481       0.46906520       0.80268963      -0.45565659      -0.68740234      -1.72132193      -8.63243561
Si       8.60771820       0.53731744       0.31107559       1.40323873       0.36650468       0.05300265       0.85314865      -0.24108230      -0.02961502      -8.64883214
Si      10.54054595       1.71940301       3.40127060       0.15110528       0.13472879      -0.02348289      -0.17775908      -0.64026923       1.02103991      -8.68837423
Si      12.63544194       2.73868651       6.74055080      -0.39949518      -0.41097731      -0.28474039      -1.42528101       0.09140572      -0.66033893      -8.73457767
Si      10.50836333       3.94809487       0.33591667      -1.56046639       0.05494659      -1.06426472       0.03308999       0.48128256       0.07264852      -8.64660756
Si      12.38658220       5.06211464       3.56986316      -2.09165243       0.53324985      -1.55824455       1.45092630      -0.75489382       0.06986192      -8.62640087
Si      14.42121210       6.12366642       6.69635635      -0.44796970       0.60055381      -1.02259126      -0.15999625       0.35331854      -0.70434263      -8.72509795
Si      12.38997166       7.17880860       0.52822452      -0.61592608      -0.93094657      -0.29879732       0.33984270       0.53323821      -0.99479190      -8.70179472
Si      14.33291308       8.24325398       3.50321573      -0.02169374      -0.55667807      -1.52215832       0.55643928       0.29886038       0.54611135      -8.72368177
Si      16.36902401       9.54820075       6.56305989      -0.36577178       1.40038932      -1.49240944       0.24975419      -0.09533803       0.04557057      -8.71116845
Si       8.47229785       4.81433007       8.45940273      -1.88703379      -0.76356068       2.18779700       0.09240964       0.10636842      -0.64738060      -7.72592586
55
Lattice="11.5478352 0.0 0.0 5.773917198490155 10.000722372470358 0.0 5.773916394327279 3.333571176804646 9.428767828939895" Properties=species:S:1:pos:R:3:momenta:R:3:forces:R:3:energies:R:1 spacegroup="_JSON {\"number\": 1, \"setting\": 1}" unit_cell=conventional occupancy="_JSON {\"0\": {\"Si\": 1.0}, \"1\": {\"Si\": 1.0}, \"2\": {\"Si\": 1.0}, \"3\": {\"Si\": 1.0}, \"4\": {\"Si\": 1.0}, \"5\": {\"Si\": 1.0}, \"6\": {\"Si\": 1.0}, \"7\": {\"Si\": 1.0}, \"8\": {\"Si\": 1.0}, \"9\": {\"Si\": 1.0}, \"10\": {\"Si\": 1.0}, \"11\": {\"Si\": 1.0}, \"12\": {\"Si\": 1.0}, \"13\": {\"Si\": 1.0}, \"14\": {\"Si\": 1.0}, \"15\": {\"Si\": 1.0}, \"16\": {\"Si\": 1.0}, \"17\": {\"Si\": 1.0}, \"18\": {\"Si\": 1.0}, \"19\": {\"Si\": 1.0}, \"20\": {\"Si\": 1.0}, \"21\": {\"Si\": 1.0}, \"22\": {\"Si\": 1.0}, \"23\": {\"Si\": 1.0}, \"24\": {\"Si\": 1.0}, \"25\": {\"Si\": 1.0}, \"26\": {\"Si\": 1.0}, \"27\": {\"Si\": 1.0}, \"28\": {\"Si\": 1.0}, \"29\": {\"Si\": 1.0}, \"30\": {\"Si\": 1.0}, \"31\": {\"Si\": 1.0}, \"32\": {\"Si\": 1.0}, \"33\": {\"Si\": 1.0}, \"34\": {\"Si\": 1.0}, \"35\": {\"Si\": 1.0}, \"36\": {\"Si\": 1.0}, \"37\": {\"Si\": 1.0}, \"38\": {\"Si\": 1.0}, \"39\": {\"Si\": 1.0}, \"40\": {\"Si\": 1.0}, \"41\": {\"Si\": 1.0}, \"42\": {\"Si\": 1.0}, \"43\": {\"Si\": 1.0}, \"44\": {\"Si\": 1.0}, \"45\": {\"Si\": 1.0}, \"46\": {\"Si\": 1.0}, \"47\": {\"Si\": 1.0}, \"48\": {\"Si\": 1.0}, \"49\": {\"Si\": 1.0}, \"50\": {\"Si\": 1.0}, \"51\": {\"Si\": 1.0}, \"52\": {\"Si\": 1.0}, \"53\": {\"Si\": 1.0}, \"54\": {\"Si\": 1.0}}" energy=-474.4759510056605 stress="-0.00929676586318035 0.0013615590783290555 0.00170695330703961 0.0013615590783290555 -0.012929100926455469 0.0018656103818073988 0.00170695330703961 0.0018656103818073988 -0.006493154255660813" free_energy=-474.4759510056605 pbc="T T T"
Si       6.79715400       3.72721232       2.75334979       1.31239144      -1.18373831       0.84060519      -0.09040361       0.58238772       0.50357986      -8.64904626
Si       8.56558364       4.88779636       5.79648598      -0.29336679      -0.06888878      -0.33937286       0.61218144       0.43140400       1.54149322      -8.55788043
Si      10.54445009       5.92255676       9.02478415       0.44398642      -0.27373082       0.49485738      -0.58313041       0.96332032      -0.02463689      -8.56700091
Si       8.70198136       7.18447014       2.76759089      -0.00427264      -0.04696725      -0.52041151      -0.10971541       0.07388395       0.83854525      -8.63192154
Si      10.62944271       8.34737801       6.05945887       0.72619001       1.08003957       0.29366937      -0.14345431       0.04831266       0.09497532      -8.70257113
Si      12.51299814       9.19745995       9.25371541      -1.24055142      -0.78029526       1.86165490      -0.55388711       1.50318091      -0.83562120      -8.65400701
Si      10.61145883      10.56784270       2.87982911       0.14454042      -1.28038870       0.47984658      -1.18873948      -0.12431934      -0.54736943      -8.68011543
Si      12.49359428      11.52516553       5.86189443      -1.06134768      -1.14100410       0.39794105       0.62712902       0.89875680       0.61299869      -8.71084668
Si      14.42450635      12.56628381       9.08772671       0.24039732      -1.08013731      -0.22598220      -0.10781871      -0.14254138       0.12097364      -8.21328619
Si      10.56916406       3.89848980       2.69585653      -1.18263245       0.52328858       0.04483592       0.43877595      -0.54568361      -1.12631743      -8.70848878
Si      12.54021094       4.95980114       5.95556058       0.18099420       1.21028233      -0.59014387      -0.58418609       0.11997524      -0.98538099      -8.69519380
Si      14.37107161       6.07739445       8.99891707      -0.72028570      -1.65440931      -0.22168412       0.57236713      -0.22571828      -0.67227794      -8.72460003
Si      12.31179739       7.31820700       2.83871293      -0.66021832       0.33550697       0.44602227       0.93383191      -1.05116623      -0.66013098      -8.73558910
Si      14.51205184       8.40924079       5.85396237      -0.07349677       0.59197029      -0.19566677      -1.07874792      -0.28955588      -0.31513972      -8.68374427
Si      16.28502743       9.48892648       8.95109019      -0.78898078      -0.10622118       0.02411166       0.19369528      -0.10846763      -0.70876276      -8.67266927
Si      14.47189009      10.42793470       2.59480249      -0.12210947       0.73315622      -0.91714014      -0.12996332       0.32317912       0.99995387      -8.69251047
Si      16.40799345      11.79727360       5.82399538       0.59017109      -0.75585955      -0.58425176      -0.07054094      -0.12067974      -0.48364870      -8.69903847
Si      18.21270510      12.70998935       9.01443281      -0.50858938      -0.34296780       0.85000136       0.52006080       0.01830001       0.67012275      -8.63400300
Si      14.46435507       3.94486024       2.74305552      -0.77008638       1.92753578      -0.54475359      -0.53850138       0.52910640       2.15662169      -8.63761168
Si      16.36125432       5.04870621       5.93392386       0.43569772      -0.29370490       0.61825463      -0.58000456      -0.62793779      -0.68525159      -8.73084085
Si      18.22020903       6.27648763       9.05224944      -1.51655093       0.14068029      -0.42499283      -0.54172789       0.87113729      -0.25183516      -8.39014091
Si      16.38003105       7.33020114       2.86976054       0.78259697       0.55919486      -1.34511065       0.23407249      -0.90020848      -0.63656283      -8.74194284
Si      18.36058404       8.43137453       5.89469903       0.16815853       0.61300925       1.22182985      -1.48867926      -0.97605383      -0.34885076      -8.68344333
Si      20.13807577       9.42177264       9.28940310      -0.26077130      -0.28815765      -0.93446344       0.42232438       0.91449157      -1.29505697      -8.65659896
Si      18.19073170      10.61069311       2.80784827       0.07761229      -1.44766585       1.99865445       1.30244626       0.08396450      -0.97634389      -8.65581349
Si      20.15626770      11.52544269       5.86472245       0.84668194       0.14248292      -1.04011855       0.89436612       0.85128302       0.87647869      -8.67944082
Si      22.17749474      12.69555797       8.89682226       0.11606436       0.78347403       0.60346621      -0.22330618       0.31556041       0.64578571      -8.69095734
Si       0.82913816       0.71665695       0.35884001       0.83316124      -0.83951195       1.93753997      -0.53425331      -1.41991791       1.23684679      -8.35349952
Si       2.85090464       1.74026843       3.57530911      -0.11502071       0.24685518      -0.63282085       0.04819185      -0.47956904      -0.59995120      -8.71011112
Si       4.86484546       2.76530194       6.58398100       0.74176387       0.65254648      -0.66579108      -0.76250924      -0.45621849      -0.31302976      -8.68584373
Si       2.89818457       3.93039795       0.54734195       1.21545529       0.34672741       1.61985262       0.17028559      -1.04609008      -1.67679593      -8.47077973
Si       4.90691410       5.05275316       3.53597306       0.05004330       0.46430794      -0.15965950      -0.14765310      -0.39448133       0.11274078      -8.64460354
Si       6.69566615       6.13520542       6.61360951       0.13371198      -0.42868162      -0.61384088       0.60384923       0.57451887       0.39723986      -8.54411918
Si       4.85077750       7.20781842       0.51176235       0.44201286      -0.35863818       0.01747967      -0.07502367      -0.24868658      -0.19696820      -8.67824786
Si       6.78308229       8.40426134       3.55700764       1.30818642      -0.09439455       0.37730056       0.14647126      -0.29772690      -0.03516283      -8.72834364
Si       8.59238241       9.37142296       6.81088766       1.00519036       0.17025072       1.48156368       1.66157472       0.65334947       0.96349572      -8.66273635
Si       4.73549301       0.44649861       0.49832111      -0.57937404      -0.19536233       0.41586627       0.57756557      -0.55551796       0.10961336      -8.54661705
Si       6.80233733       1.49110701       3.54290540      -0.24921262       1.85229896      -0.38849453       0.53456488       0.59499902      -0.26847994      -8.72592953
Si       8.69174518       2.65998053       6.72738922       0.08932074       0.26199380       0.20439672      -0.77361006       0.31925191      -0.53568475      -8.52823165
Si       6.71716313       3.67900042       0.41709253       0.00048681      -0.48295273      -0.43843574      -0.40789018      -0.13959963       0.58773167      -8.68042504
Si       8.77213837       4.89335942       3.54175215       0.30638082      -0.16737185      -1.30037039      -1.80531468       0.78735508      -0.92381032      -8.65069261
Si      10.55189403       6.07005940       6.64752117      -0.14400392       0.73650996       0.83938153      -0.08433124      -0.49611551       0.05629208      -8.58085574
Si       8.61583928       7.08017424       0.45234300       0.98304537       0.09048465       0.43168940      -0.08846696      -0.29162789       0.34375323      -8.69319777
Si      10.55131457       8.38934842       3.70713067      -1.18913663      -0.27608666      -0.82391053      -0.97653214       0.21431492       0.07664034      -8.70719263
Si      12.60290784       9.46438771       6.88054884      -0.21485100      -0.96201497      -0.81736989      -0.32781016      -1.08512636      -0.36054396      -8.64120044
Si       8.69895014       0.53789275       0.30206384       1.77792446      -0.49052582      -0.54304250      -0.32330744      -0.81158457      -0.58751624      -8.68917362
Si      10.53196056       1.70600540       3.43913485      -0.58034601      -0.53061690       1.35701487      -0.56814700      -0.21583003       0.58893511      -8.68211444
Si      12.57049669       2.72433069       6.70166756      -1.75955538      -0.06813766      -1.09278942      -0.19623640       0.37509934      -0.25319525      -8.77322382
Si      10.43308939       3.96385382       0.29327811      -1.26122825       0.41192352      -0.40910496       0.23376167      -0.04217175       0.67311957      -8.61920602
Si      12.34481636       5.06723449       3.50412927       0.59465856      -0.20347107      -0.76516232       1.81346006      -0.24744519       0.79470712      -8.58945058
Si      14.40048542       6.16766692       6.62908795      -0.16764784       1.01492610      -1.27345277       0.50845533       0.10572388       0.33187009      -8.71649789
Si      12.37126208       7.15642231       0.48670119      -0.10763831       0.12692947      -1.01749298       0.30023329       0.72682140       0.02617080      -8.71370094
Si      14.35031498       8.23459325       3.45201971       0.59454122       0.35811445      -0.35006917       0.21199464       0.81294417       0.86579237      -8.67146397
Si      16.36894697       9.60930291       6.50193929       0.45929268       0.73839214      -0.57912322       0.61713745      -0.84402553       1.05802974      -8.66411751
Si       8.39018345       4.78460206       8.54257171      -1.02938394      -0.27097882       0.89718693       0.90509585       0.49144493      -0.98018171      -7.64507212
55
Lattice="11.5478352 0.0 0.0 5.773917198490155 10.000722372470358 0.0 5.773916394327279 3.333571176804646 9.428767828939895" Properties=species:S:1:pos:R:3:momenta:R:3:forces:R:3:energies:R:1 spacegroup="_JSON {\"number\": 1, \"setting\": 1}" unit_cell=conventional occupancy="_JSON {\"0\": {\"Si\": 1.0}, \"1\": {\"Si\": 1.0}, \"2\": {\"Si\": 1.0}, \"3\": {\"Si\": 1.0}, \"4\": {\"Si\": 1.0}, \"5\": {\"Si\": 1.0}, \"6\": {\"Si\": 1.0}, \"7\": {\"Si\": 1.0}, \"8\": {\"Si\": 1.0}, \"9\": {\"Si\": 1.0}, \"10\": {\"Si\": 1.0}, \"11\": {\"Si\": 1.0}, \"12\": {\"Si\": 1.0}, \"13\": {\"Si\": 1.0}, \"14\": {\"Si\": 1.0}, \"15\": {\"Si\": 1.0}, \"16\": {\"Si\": 1.0}, \"17\": {\"Si\": 1.0}, \"18\": {\"Si\": 1.0}, \"19\": {\"Si\": 1.0}, \"20\": {\"Si\": 1.0}, \"21\": {\"Si\": 1.0}, \"22\": {\"Si\": 1.0}, \"23\": {\"Si\": 1.0}, \"24\": {\"Si\": 1.0}, \"25\": {\"Si\": 1.0}, \"26\": {\"Si\": 1.0}, \"27\": {\"Si\": 1.0}, \"28\": {\"Si\": 1.0}, \"29\": {\"Si\": 1.0}, \"30\": {\"Si\": 1.0}, \"31\": {\"Si\": 1.0}, \"32\": {\"Si\": 1.0}, \"33\": {\"Si\": 1.0}, \"34\": {\"Si\": 1.0}, \"35\": {\"Si\": 1.0}, \"36\": {\"Si\": 1.0}, \"37\": {\"Si\": 1.0}, \"38\": {\"Si\": 1.0}, \"39\": {\"Si\": 1.0}, \"40\": {\"Si\": 1.0}, \"41\": {\"Si\": 1.0}, \"42\": {\"Si\": 1.0}, \"43\": {\"Si\": 1.0}, \"44\": {\"Si\": 1.0}, \"45\": {\"Si\": 1.0}, \"46\": {\"Si\": 1.0}, \"47\": {\"Si\": 1.0}, \"48\": {\"Si\": 1.0}, \"49\": {\"Si\": 1.0}, \"50\": {\"Si\": 1.0}, \"51\": {\"Si\": 1.0}, \"52\": {\"Si\": 1.0}, \"53\": {\"Si\": 1.0}, \"54\": {\"Si\": 1.0}}" energy=-475.05146529556987 stress="-0.006776117070876969 0.003669034817163352 0.002212870766722903 0.003669034817163352 -0.012437268289450708 0.0017815122033825886 0.002212870766722903 0.0017815122033825886 -0.0042858715092891205" free_energy=-475.05146529556987 pbc="T T T"
Si       6.84954376       3.70436010       2.80111905       0.42619661       0.57084990       0.68711340      -1.11436046       1.54656108      -0.62790252      -8.65449301
Si       8.57781853       4.90110761       5.82743373       0.79449532       0.57433045       1.24030094       0.73978887       0.42287914       0.47797838      -8.59096921
Si      10.54239525       5.94052593       9.05127540      -0.51575236       0.79161044       0.54531488      -0.55253789       0.31421841       0.08007245      -8.62030401
Si       8.69632288       7.18275350       2.77254195      -0.25210983      -0.05700102       0.64303951      -0.26158871      -0.07655302       0.58009932      -8.67189366
Si      10.65316632       8.39404913       6.07149550       0.01323823       0.46467042       0.03338015      -0.78316540      -0.86440308      -0.42180789      -8.71309542
Si      12.44300109       9.21424348       9.30734431      -1.12102037       1.22202079       0.03062727       0.65373436       0.75701002      -1.45264669      -8.61727173
Si      10.57865905      10.51181243       2.88089204      -1.20551527      -0.57343417      -0.45415353      -0.47071434       0.95158232      -0.60418125      -8.70020488
Si      12.46976523      11.50384296       5.89806981       0.23391923       0.30622061       0.81403193       0.94273454       0.82149583      -0.03242511      -8.68634478
Si      14.43329602      12.51402165       9.07994228       0.09048065      -0.73045137      -0.07956110      -0.12408669       0.56155844       0.09076528      -8.24665767
Si      10.54037014       3.89739466       2.65862709       0.23362116      -0.57238356      -1.23903541       1.01030797      -0.59206513      -0.25742195      -8.68786959
Si      12.52495788       5.02067195       5.89096686      -0.73219313       1.00610666      -1.70911990      -0.47306621      -0.29332351      -0.33969694      -8.71678412
Si      14.35674919       5.99417295       8.95746664       0.13651735      -1.30696428      -1.34002745       0.43459989       0.59377249      -0.60212886      -8.71234850
Si      12.31728025       7.29790663       2.83293567       0.83953120      -0.95797534      -0.64154304       0.84238737      -0.47668591      -0.58529807      -8.70942194
Si      14.47716767       8.43130560       5.83040294      -0.98786466       0.29313748      -0.66665025      -0.04317724      -0.13227575      -0.17555233      -8.72274473
Si      16.25943828       9.48103179       8.92325563      -0.06039834      -0.16487328      -1.02290657       0.67673544       0.00507143      -0.45514369      -8.66492244
Si      14.45901794      10.47610315       2.58739717      -0.38401404       1.04368284       0.56124085      -0.19280636       0.08246534       0.72776333      -8.70588705
Si      16.42169121      11.76021932       5.78310345      -0.29296417      -0.57850820      -0.74042255      -0.93084320       0.19318680       0.43904987      -8.72521582
Si      18.20889622      12.69842408       9.06808535       0.38347593       0.01349266       0.87465300       0.60239448       0.45031253      -0.58234625      -8.63671028
Si      14.41198859       4.05213955       2.80044675      -0.97340489       1.84254362       2.39745301       0.48652980      -0.75435301       0.90867244      -8.71594448
Si      16.36046995       5.01847527       5.93398986      -0.39181535      -0.64683738      -0.65961348      -0.30724032       0.18636233      -0.86120285      -8.72551735
Si      18.13420196       6.30822630       9.02689443      -1.48189528       0.82860044      -0.42688624       0.56160275      -0.03789024       0.19991470      -8.30613353
Si      16.42833596       7.32686498       2.78876483       0.99235715      -0.60135939      -1.44568361      -0.02612037      -0.57506376       0.51971861      -8.73061597
Si      18.32942029       8.42810337       5.94464335      -0.88305498      -0.62055366       0.72268450       0.29642218      -0.54854412      -0.22877413      -8.70417530
Si      20.14388854       9.43814744       9.20607829       0.50963620       0.77306947      -1.84332080       0.52238000       0.39055678       0.27038010      -8.70998332
Si      18.23564045      10.55142366       2.87388535       1.37892009      -0.61634867       0.58900370       0.32207311       0.82989629      -0.70099215      -8.70266704
Si      20.22349826      11.56627247       5.84984661       1.46737667       1.36068036       0.47469946      -0.09546232       0.64027070       0.89313531      -8.66653748
Si      22.18510716      12.73759432       8.94168372       0.36512802       0.57758880       0.87312429       0.51477594      -0.61873034      -0.25777083      -8.68352709
Si       0.85327477       0.62899374       0.49748930       0.20686381      -2.22608370       3.01993093      -0.09321045      -0.36548933      -0.04063444      -8.39535913
Si       2.84959401       1.73919849       3.52271370       0.11403144      -0.16914013      -1.20492310       0.24225110      -0.00557301       0.04712427      -8.69078738
Si       4.87136074       2.77881247       6.55026654      -0.48104940      -0.15039264      -0.36556004      -0.70253814      -0.49864720       0.67485918      -8.72150081
Si       2.95764976       3.91184258       0.55417575       0.82669831      -0.86499179      -1.26390592      -0.74188659      -0.31932898      -1.36542566      -8.46559843
Si       4.90771321       5.06101313       3.53367636       0.03791791      -0.14425467       0.09383339       0.07667490      -0.37228835       0.19244233      -8.61304934
Si       6.72132435       6.13550256       6.60024960       0.67240553       0.37645905       0.14628663      -0.04680466       0.33491154       0.56532057      -8.58182637
Si       4.86151412       7.18659837       0.49870335      -0.21084163      -0.28267052      -0.62805675      -0.76480095       0.40168496      -0.62642212      -8.69788430
Si       6.84911769       8.38176871       3.58009370       1.03426065      -0.82913002       0.55991746      -0.54556554      -0.53843260       0.19367110      -8.71204340
Si       8.69396584       9.40468621       6.90503510       2.44632444       1.04169959       1.59990389       0.07074647       0.46418200      -1.00714718      -8.72695136
Si       4.72762605       0.41594452       0.52261225       0.25216338      -0.89646199       0.43733960       0.47628027      -0.27746564      -0.17552010      -8.55469317
Si       6.80503924       1.58523585       3.52167037       0.19331408       1.24057799      -0.21883934      -0.06182441      -1.29290738       0.50359950      -8.70629230
Si       8.66922358       2.67941504       6.71489080      -0.85257144       0.35779460      -0.67031018      -0.40583626      -0.14989479      -0.49861639      -8.53390367
Si       6.70570857       3.64654509       0.42438832      -0.30934330      -0.68888041       0.76439860       0.07755666       0.10235375       0.78059805      -8.67509672
Si       8.71820860       4.91812034       3.45874975      -2.12000696       1.06497346      -1.47742270      -0.85351710       0.60961048       0.57951315      -8.67824550
Si      10.54220065       6.09155908       6.68800885      -0.19137653       0.15406349       0.60565755       0.04950517      -0.22848300      -0.32668864      -8.57348325
Si       8.65000441       7.06867050       0.48391676       0.12778423      -0.57809525       0.68425741      -0.84173822      -0.48685159      -0.01142250      -8.65850611
Si      10.46381997       8.37760891       3.67775575      -1.78380712      -0.30898135      -0.15060909       0.42096415      -0.28753619       0.65430606      -8.70977004
Si      12.58253532       9.38117499       6.83870199      -0.48115772      -1.93059664      -0.55261986      -0.01345933       0.00012019       0.53707638      -8.65614544
Si       8.76602929       0.48264512       0.25804716       0.53309314      -1.50325418      -0.91843650      -1.28720241      -0.37178538       0.23727632      -8.70808301
Si      10.48843360       1.67384128       3.51464576      -0.86229059      -0.63486691       1.12887935       0.26653329       0.03788531      -0.93993752      -8.67990789
Si      12.49143498       2.73951774       6.64601467      -0.91307413       0.71575716      -0.83039646       1.12804286       0.63134209       0.51322807      -8.70536866
Si      10.37374469       3.97729475       0.29661076      -1.04281733       0.00585515       0.45160190       0.08115907      -0.41147311       0.33992327      -8.65867577
Si      12.42748824       5.05107014       3.49326427       2.07123341      -0.33276022       0.28166707      -0.09079492       0.08952377       0.53249076      -8.71629690
Si      14.41293441       6.21638250       6.58151180       0.59917665       0.66568188      -0.49465379       0.34704026      -0.57701865       0.51370120      -8.70575569
Si      12.37498031       7.18355301       0.44230692       0.21229031       0.71247540      -0.58128576       0.16001584      -0.02769217       0.40189478      -8.71734904
Si      14.38496460       8.28242990       3.46179024       0.66173257       1.36223528       0.57014254      -0.04547846       0.41087456       0.26901047      -8.69586863
Si      16.40636542       9.60876875       6.51478120       0.70094455      -0.79889271       1.02596093      -0.40601505      -0.99232699       0.88717166      -8.67351691
Si       8.36697430       4.78903803       8.55630092      -0.02478944       0.39996545      -0.23050072       0.27260525       0.34339361      -0.43365087      -7.71126571
55
Lattice="11.5478352 0.0 0.0 5.773917198490155 10.000722372470358 0.0 5.773916394327279 3.333571176804646 9.428767828939895" Properties=species:S:1:pos:R:3:momenta:R:3:forces:R:3:energies:R:1 spacegroup="_JSON {\"number\": 1, \"setting\": 1}" unit_cell=conventional occupancy="_JSON {\"0\": {\"Si\": 1.0}, \"1\": {\"Si\": 1.0}, \"2\": {\"Si\": 1.0}, \"3\": {\"Si\": 1.0}, \"4\": {\"Si\": 1.0}, \"5\": {\"Si\": 1.0}, \"6\": {\"Si\": 1.0}, \"7\": {\"Si\": 1.0}, \"8\": {\"Si\": 1.0}, \"9\": {\"Si\": 1.0}, \"10\": {\"Si\": 1.0}, \"11\": {\"Si\": 1.0}, \"12\": {\"Si\": 1.0}, \"13\": {\"Si\": 1.0}, \"14\": {\"Si\": 1.0}, \"15\": {\"Si\": 1.0}, \"16\": {\"Si\": 1.0}, \"17\": {\"Si\": 1.0}, \"18\": {\"Si\": 1.0}, \"19\": {\"Si\": 1.0}, \"20\": {\"Si\": 1.0}, \"21\": {\"Si\": 1.0}, \"22\": {\"Si\": 1.0}, \"23\": {\"Si\": 1.0}, \"24\": {\"Si\": 1.0}, \"25\": {\"Si\": 1.0}, \"26\": {\"Si\": 1.0}, \"27\": {\"Si\": 1.0}, \"28\": {\"Si\": 1.0}, \"29\": {\"Si\": 1.0}, \"30\": {\"Si\": 1.0}, \"31\": {\"Si\": 1.0}, \"32\": {\"Si\": 1.0}, \"33\": {\"Si\": 1.0}, \"34\": {\"Si\": 1.0}, \"35\": {\"Si\": 1.0}, \"36\": {\"Si\": 1.0}, \"37\": {\"Si\": 1.0}, \"38\": {\"Si\": 1.0}, \"39\": {\"Si\": 1.0}, \"40\": {\"Si\": 1.0}, \"41\": {\"Si\": 1.0}, \"42\": {\"Si\": 1.0}, \"43\": {\"Si\": 1.0}, \"44\": {\"Si\": 1.0}, \"45\": {\"Si\": 1.0}, \"46\": {\"Si\": 1.0}, \"47\": {\"Si\": 1.0}, \"48\": {\"Si\": 1.0}, \"49\": {\"Si\": 1.0}, \"50\": {\"Si\": 1.0}, \"51\": {\"Si\": 1.0}, \"52\": {\"Si\": 1.0}, \"53\": {\"Si\": 1.0}, \"54\": {\"Si\": 1.0}}" energy=-474.67467702960937 stress="-0.008778773115061858 0.0019441644903814646 0.0008184531412042569 0.0019441644903814646 -0.007598534743043842 -0.0007740347548602719 0.0008184531412042569 -0.0007740347548602719 -0.008767744742421885" free_energy=-474.67467702960937 pbc="T T T"
Si       6.81952233       3.78116173       2.80995221      -1.65447309       1.94886550      -0.29866932      -1.40662900       0.01108894      -0.43884178      -8.71962107
Si       8.64079409       4.94542390       5.89718141       1.40872829       1.04815549       1.19247200      -0.03256844       0.15353377      -0.42248397      -8.59648891
Si      10.50409506       5.98068838       9.08122273      -0.71571889       0.50253281       0.54342690       0.31909814      -0.60174824      -0.11495368      -8.61417297
Si       8.67225828       7.17689704       2.81826771      -0.63834808      -0.13173628       0.88985229      -0.14957325       0.06682719      -0.23589994      -8.69049966
Si      10.62302835       8.37944498       6.05416522      -1.07675706      -1.04640852      -0.69919750      -0.44799542      -0.95980023      -0.43754799      -8.74111340
Si      12.41654007       9.28489048       9.25544755       0.13913774       1.08913051      -1.88797576       0.75495351      -0.73167809      -0.97109849      -8.65101149
Si      10.51088197      10.51721011       2.84012043      -1.12233377       0.63822227      -0.94032344       0.54092822       0.42428718       0.01470930      -8.72384302
Si      12.50973027      11.53991193       5.93413306       1.03309056       0.81516618       0.47868631      -0.05920043      -0.16843488      -0.36226425      -8.69198845
Si      14.43191150      12.49999128       9.08003587      -0.16789101       0.18776146       0.10040745      -0.21845194       0.53827463       0.15342215      -8.33057656
Si      10.57780860       3.85638203       2.60546971       0.90884356      -0.76946867      -0.42219075      -0.08615720       0.27193089       1.15472192      -8.61862415
Si      12.47700299       5.06198270       5.80578301      -0.92165487       0.58641822      -1.18161214       0.20663888      -0.23158305       1.04667925      -8.70476168
Si      14.37309383       5.95019334       8.87723904       0.33385690      -0.40203685      -1.41896406      -0.16208162       0.48104488       0.56142554      -8.69999635
Si      12.38416717       7.24340537       2.78607876       1.52539346      -0.85774671      -0.95415395       0.11748828       0.55382747       0.15787149      -8.67110560
Si      14.43674307       8.44033039       5.79775940      -0.36502866       0.00352269      -0.38385010       0.69305058      -0.31219411       0.57202375      -8.72729143
Si      16.27951624       9.47200352       8.86995418       0.71610632      -0.20415542      -0.60138413       0.25903289      -0.08978913       1.12541575      -8.65138695
Si      14.43223762      10.52944148       2.63089137      -0.61493776       0.89776726       0.81805141      -0.10617919      -0.27356698      -0.35692365      -8.72753426
Si      16.37474527      11.73457411       5.77557385      -1.32470785      -0.45883564       0.63285058      -0.27650173      -0.03431121       1.11306339      -8.73147708
Si      18.24796112      12.71750513       9.08238554       0.97976884       0.66520571      -0.44079937       0.09848425       0.25144683      -1.03222596      -8.68191910
Si      14.40100797       4.10014367       2.92139556       0.85202034      -0.30498890       1.57487769       1.55771980      -1.85669779      -1.59193001      -8.60218008
Si      16.33903477       4.99811158       5.87451501      -0.22784906      -0.07615328      -1.38590262       0.46276806       0.40384791       0.00991808      -8.71235636
Si      18.08706384       6.34015613       9.01499217      -0.21641203       0.24604315       0.01587601       0.94872255      -0.60576008       0.37821373      -8.19955314
Si      16.47305432       7.28058440       2.74243599       0.58782311      -1.01662583      -0.23391354      -0.51949033       0.00371103       0.86143778      -8.67833612
Si      18.31371343       8.38406432       5.97550887       0.52071878      -0.85547664       0.47798355       1.23555830       0.25759295      -0.12310301      -8.64702911
Si      20.18483782       9.48412339       9.14132187       0.89035417       0.80233799      -0.36816033      -0.10740659      -0.31454874       1.22994001      -8.68528537
Si      18.30595868      10.54592617       2.89216792       1.05905481       0.24197255       0.40081897      -0.63315320       0.21448900       0.41476715      -8.69963669
Si      20.28204777      11.65134041       5.89667382       0.48912235       1.64971997       1.03671102      -1.16584126      -0.25375892      -0.17045744      -8.66723472
Si      22.22431822      12.73781836       8.97200713       1.01912117      -0.58540245       0.24502276       0.08553989      -0.68043949      -0.41548876      -8.67954626
Si       0.87111708       0.51034225       0.62960804       0.65060497      -2.11110218       1.58206376       0.60652070       0.37691973      -1.72583916      -8.32353875
Si       2.86561996       1.73967044       3.47653596       0.49043928       0.36043253      -0.28579278       0.21429992       0.65520530       1.10145054      -8.67981112
Si       4.83261636       2.76002726       6.56355380      -0.66252871      -0.35723483       0.93492621       0.58636145       0.30471653       0.92426196      -8.74369766
Si       2.95920291       3.87243209       0.46465716      -0.97240844      -0.31258460      -1.64580462      -1.51774529       0.93803040       0.60682861      -8.43942526
Si       4.91193366       5.04296433       3.54350380       0.08790183      -0.44590173       0.20403692      -0.05996992       0.01490375      -0.10571342      -8.68799468
Si       6.74456513       6.15829764       6.62803597       0.07445579       0.30059445       0.85570244      -0.59237739      -0.41064796       0.33985994      -8.59265269
Si       4.82089622       7.19336845       0.44358539      -1.21539147       0.58894489      -1.35518226      -0.26993210       0.58280214      -0.16172774      -8.73383973
Si       6.87365351       8.32557294       3.61557771      -0.23501922      -1.11037567       0.75603947      -1.07361926       0.23696609       0.05480496      -8.69515594
Si       8.80433037       9.47461683       6.92719727       1.42104584       1.57414425      -1.01192824      -1.28996333       0.25088633      -1.98076116      -8.64609829
Si       4.75495789       0.36579948       0.53161559       0.70031080      -0.87095014      -0.22556812       0.12581209       0.28968127      -0.68419945      -8.54104152
Si       6.80356674       1.59929073       3.53348095      -0.40640962      -0.52320421       0.67105132      -0.68557235      -0.63888995       0.52316362      -8.68389523
Si       8.61808018       2.69145100       6.66839357      -0.89708655       0.13908379      -0.92081485       0.38260809       0.00129190       0.21323989      -8.57794231
Si       6.69864732       3.62463775       0.48315720       0.11513968       0.02509105       1.18937420       0.37162954       0.77019531      -0.34142877      -8.61682054
Si       8.60862209       4.98423203       3.41476317      -1.45999262       1.17948579      -0.03291428       1.44921093      -0.48669114       1.24310958      -8.58687077
Si      10.53730847       6.09542685       6.70687897       0.07595318       0.07153151       0.15411328       0.32958962       0.07704910      -0.16737281      -8.58919250
Si       8.62813071       7.02422146       0.51376345      -0.81846102      -0.99023271       0.34844385      -0.29349127       0.00571844      -0.41927056      -8.64304709
Si      10.40743724       8.34996126       3.69159103      -0.05139946      -0.68925167       0.53375399       1.65094480      -0.09349940       0.08250620      -8.66164571
Si      12.55965916       9.29846257       6.83098393      -0.36822756      -0.93128865       0.18756321       0.07587155       1.13761209       0.25270472      -8.65786524
Si       8.74356750       0.40243865       0.23027361      -1.24844452      -1.30681034       0.01310811      -0.72514933       0.60169323       0.84821256      -8.70246102
Si      10.46436233       1.64495257       3.52580991       0.12398972      -0.40737885      -0.77004588       0.97149825       0.26706515      -1.19079253      -8.67544422
Si      12.48681033       2.79846049       6.62381267       0.61604683       1.42683079      -0.03822267       0.67660491       0.22822504       0.44323376      -8.66888197
Si      10.32349807       3.96297710       0.32241749      -0.81789844      -0.50155306       0.32358840       0.29797180      -0.22592153      -0.45581352      -8.67248633
Si      12.50242603       5.04279848       3.52053554       0.34069538       0.08752403       0.55636740      -1.76587785       0.32530735      -0.27452986      -8.72229206
Si      14.44850730       6.22480970       6.56682000       0.57534330      -0.36546836      -0.27211442      -0.36014748      -0.66750161      -0.28121193      -8.69811001
Si      12.39259984       7.21027749       0.42375787       0.47537235       0.17978864      -0.23143968       0.21842793      -0.51873242      -0.00231776      -8.71143991
Si      14.41803422       8.35879929       3.49074342       0.61166041       1.33008042       0.32966676       0.00009867      -0.44797063      -0.52186140      -8.70103869
Si      16.41628448       9.53911232       6.58737863      -0.44569261      -1.63494405       1.37993681      -0.88241070      -0.14375828      -0.51725232      -8.70614260
Si       8.36580905       4.81931825       8.53584856      -0.17702741       0.68096236      -0.41984824      -0.34994772       0.05175205       0.07632571      -7.77127520
55
Lattice="11.5478352 0.0 0.0 5.773917198490155 10.000722372470358 0.0 5.773916394327279 3.333571176804646 9.428767828939895" Properties=species:S:1:pos:R:3:momenta:R:3:forces:R:3:energies:R:1 spacegroup="_JSON {\"number\": 1, \"setting\": 1}" unit_cell=conventional occupancy="_JSON {\"0\": {\"Si\": 1.0}, \"1\": {\"Si\": 1.0}, \"2\": {\"Si\": 1.0}, \"3\": {\"Si\": 1.0}, \"4\": {\"Si\": 1.0}, \"5\": {\"Si\": 1.0}, \"6\": {\"Si\": 1.0}, \"7\": {\"Si\": 1.0}, \"8\": {\"Si\": 1.0}, \"9\": {\"Si\": 1.0}, \"10\": {\"Si\": 1.0}, \"11\": {\"Si\": 1.0}, \"12\": {\"Si\": 1.0}, \"13\": {\"Si\": 1.0}, \"14\": {\"Si\": 1.0}, \"15\": {\"Si\": 1.0}, \"16\": {\"Si\": 1.0}, \"17\": {\"Si\": 1.0}, \"18\": {\"Si\": 1.0}, \"19\": {\"Si\": 1.0}, \"20\": {\"Si\": 1.0}, \"21\": {\"Si\": 1.0}, \"22\": {\"Si\": 1.0}, \"23\": {\"Si\": 1.0}, \"24\": {\"Si\": 1.0}, \"25\": {\"Si\": 1.0}, \"26\": {\"Si\": 1.0}, \"27\": {\"Si\": 1.0}, \"28\": {\"Si\": 1.0}, \"29\": {\"Si\": 1.0}, \"30\": {\"Si\": 1.0}, \"31\": {\"Si\": 1.0}, \"32\": {\"Si\": 1.0}, \"33\": {\"Si\": 1.0}, \"34\": {\"Si\": 1.0}, \"35\": {\"Si\": 1.0}, \"36\": {\"Si\": 1.0}, \"37\": {\"Si\": 1.0}, \"38\": {\"Si\": 1.0}, \"39\": {\"Si\": 1.0}, \"40\": {\"Si\": 1.0}, \"41\": {\"Si\": 1.0}, \"42\": {\"Si\": 1.0}, \"43\": {\"Si\": 1.0}, \"44\": {\"Si\": 1.0}, \"45\": {\"Si\": 1.0}, \"46\": {\"Si\": 1.0}, \"47\": {\"Si\": 1.0}, \"48\": {\"Si\": 1.0}, \"49\": {\"Si\": 1.0}, \"50\": {\"Si\": 1.0}, \"51\": {\"Si\": 1.0}, \"52\": {\"Si\": 1.0}, \"53\": {\"Si\": 1.0}, \"54\": {\"Si\": 1.0}}" energy=-474.9731352074598 stress="-0.008630104312869194 -0.0010148744371692563 -0.0009051539381036523 -0.0010148744371692563 -0.007856875391047345 -0.0010480842066359374 -0.0009051539381036523 -0.0010480842066359374 -0.009471976973156037" free_energy=-474.9731352074598 pbc="T T T"
Si       6.69832020       3.86303269       2.78952006      -2.44705661       0.86488179      -0.26494655       0.59550249      -1.22690234       0.37965730      -8.71719353
Si       8.70038813       4.99936097       5.93834179       0.65017500       0.87397325       0.32155550      -0.85716629      -0.36475121      -0.63997713      -8.57779592
Si      10.48379530       5.98276704       9.10387769      -0.05770175      -0.35771916       0.31620716       0.33964226      -0.36164281      -0.13936739      -8.58510234
Si       8.63976578       7.17821495       2.84965097      -0.47215909       0.26572339       0.24168115       0.34204375       0.36859236      -0.49608916      -8.71897266
Si      10.56296812       8.29973105       6.00794017      -0.96937617      -1.68248838      -0.90315895       0.49178635       0.25524754       0.16777843      -8.75150206
Si      12.44021536       9.30898920       9.13528117       0.50360152      -0.17990973      -2.33635136      -0.23596959      -0.78607841       0.42261984      -8.68756687
Si      10.48101337      10.55283440       2.79940339       0.07493350       0.47201186      -0.49340434       0.89571413      -0.54529207       0.48138627      -8.71591864
Si      12.54456558      11.56592520       5.94485340       0.04167683       0.04890832      -0.03918125      -1.02807315      -0.65688660      -0.23717203      -8.69473945
Si      14.41501949      12.52385564       9.09069328      -0.44500003       0.57015917       0.27668852      -0.08643285      -0.05835269       0.03610751      -8.42693202
Si      10.61192231       3.83302851       2.62798040       0.22306331      -0.03058475       1.15591650      -0.76256346       0.62867774       0.69245820      -8.63790323
Si      12.44313392       5.08538840       5.79244785      -0.26922090       0.32932226       0.67657649       0.60314102      -0.14368653       1.05153438      -8.71567492
Si      14.37905669       5.94160511       8.83621501      -0.17743785      -0.03146902      -0.01304804      -0.44241826       0.07347555       1.07510768      -8.66466824
Si      12.46215529       7.22704586       2.74850809       1.34847206       0.30717929      -0.40341426      -0.27716976       0.83726499       0.45091971      -8.67896050
Si      14.44127414       8.42520419       5.80382740       0.40307830      -0.63348326       0.60292231       0.17297124      -0.52303295       0.52052360      -8.74715680
Si      16.31873608       9.45597155       8.89463141       0.63123768      -0.43741458       1.60260519      -0.32405686      -0.20844690       1.35364328      -8.65832950
Si      14.39814066      10.56412397       2.65265322      -0.63239271       0.42862230      -0.04019719       0.10235421      -0.26069503      -0.55506042      -8.74874652
Si      16.30891140      11.70733239       5.84038518      -0.91487687      -0.60512684       1.54585108       0.78489034      -0.13410388      -0.00061617      -8.68272684
Si      18.29181062      12.75072452       9.02252421       0.49507774       0.37757776      -1.72820523      -0.64140104      -0.60315433      -0.57659648      -8.70994769
Si      14.48370888       4.02375086       2.93600649       1.73411055      -2.23415675      -1.04087533      -0.57245647      -0.42372381      -1.72808448      -8.60803161
Si      16.34869639       5.00464096       5.81733659       0.61871319       0.21335130      -0.53554027       0.55448771      -0.02633534       1.01007432      -8.68617456
Si      18.10493017       6.33016155       9.03214584       0.68045866      -0.58396794       0.66439784       0.09973272      -0.44762438       0.47722727      -8.19726208
Si      16.47840455       7.23410583       2.75483725      -0.46908654      -0.63494665       0.50262403      -0.85124242       0.48159201       0.07593112      -8.64941022
Si      18.38061563       8.35828734       5.99722281       1.77850725      -0.00931220       0.37909980       0.25571872       0.70763186      -0.01474618      -8.65337885
Si      20.21669219       9.50803132       9.15095232       0.15230205       0.03857182       0.28924028      -0.75890556      -0.57906389      -0.45531918      -8.70048651
Si      18.33402138      10.55893719       2.93136436       0.03179797       0.13794562       1.00223155      -0.55053157      -0.25111650       0.07746538      -8.69605617
Si      20.26110203      11.72348394       5.93396379      -1.16367793       1.11806304       0.25366006      -0.68420875      -0.19532980      -0.68335416      -8.71498434
Si      22.26619573      12.69427757       8.97463271       0.33245213      -0.76562695      -0.00524819      -0.85942209       0.52314431       0.13581351      -8.69505016
Si       0.93131204       0.41729468       0.64373912       1.64431500      -1.39777748      -0.91210326       0.59786942       0.54191091      -1.23594003      -8.32378850
Si       2.89623493       1.78115949       3.50860948       0.60522561       1.03692759       1.51833477      -0.06064701      -0.07650101       1.14290806      -8.72172537
Si       4.83250963       2.76071940       6.64049299       0.73985480       0.44343656       1.76810254       0.90343418       0.54156076       0.01916500      -8.72119485
Si       2.85799481       3.89466292       0.41159159      -2.57839468       1.09301864      -0.27075040      -0.33134040       0.69344705       1.05304909      -8.47979601
Si       4.90960603       5.02729789       3.54567993      -0.28952166      -0.01573751      -0.17086126      -0.50822657       0.53997244      -0.29176004      -8.74347576
Si       6.72854529       6.15442631       6.68026084      -0.57880396      -0.44628007       1.01689728      -0.18032024      -0.39994789      -0.12205112      -8.58192907
Si       4.76790538       7.23733137       0.38057786      -0.41161558       0.84532322      -0.77600376       1.22930764      -0.36730020       0.88569838      -8.71397576
Si       6.82229696       8.28508935       3.65523636      -1.59734664      -0.32114507       0.71762412      -0.58379130       0.68073668      -0.09785453      -8.70818663
Si       8.82213951       9.55991424       6.81753613      -0.77567033       1.49301143      -2.69348591      -1.41501425      -0.47618273      -0.17158040      -8.68417368
Si       4.79238867       0.33642201       0.49251021       0.65315578      -0.17158489      -1.22199644      -0.16746278       0.59730356      -0.51546728      -8.54337427
Si       6.75330789       1.56643752       3.58097991      -1.49847999      -0.41402413       0.95560756      -0.63403735       0.60030617      -0.20145093      -8.67348782
Si       8.59420644       2.70651926       6.63791484       0.07673742       0.56596682      -0.08949584       0.71875855       0.48879321       0.80272523      -8.57410863
Si       6.71597237       3.65713122       0.51578857       0.46046259       1.19594963      -0.20029976       0.04441566       0.70708477      -1.32309676      -8.57094123
Si       8.59140925       5.01327787       3.46013225       0.70245971      -0.27861860       1.67081384       1.09914058      -1.26518708       0.88340966      -8.56343199
Si      10.55654721       6.10241580       6.71593715       0.66823235       0.16471928       0.34541682       0.35911706      -0.04266931       0.42981527      -8.61148013
Si       8.58494727       6.98098418       0.51418069      -0.63493904      -0.51049098      -0.32846237       0.45794505       0.58311031      -0.40762610      -8.61973802
Si      10.46600511       8.31505847       3.70695493       2.13174923      -0.56833627      -0.25228539       1.07076736       0.20031412      -1.08850429      -8.64919441
Si      12.54088491       9.29384372       6.83553363      -0.39159624       0.67934857      -0.34381740      -0.09262143       0.85582355      -1.02433057      -8.66392447
Si       8.67413752       0.36618479       0.26270171      -0.96072033       0.05667208       1.16231159       0.94399159       1.11194896       0.60248073      -8.65939010
Si      10.50799783       1.63492881       3.45849853       1.43365138       0.01743898      -1.38347331       0.54944768       0.24051640       0.39847081      -8.72649379
Si      12.52988774       2.87323326       6.63439816       0.72228675       1.25486634       0.34778158      -0.51608339      -0.43744578       0.06612336      -8.68401478
Si      10.29832423       3.93094463       0.32133576      -0.02158303      -0.67578660      -0.27932700       0.76195929      -0.05412698      -0.13402268      -8.66014897
Si      12.46736440       5.05088125       3.52711473      -1.23491075       0.02509970      -0.44428135      -0.11177795      -0.39381462      -0.79068902      -8.76145999
Si      14.45944511       6.18509468       6.53495488      -0.21660408      -1.04066691      -0.97841547      -0.58772775      -0.25062740      -0.40921920      -8.69819371
Si      12.42654591       7.20390240       0.40624554       0.81653459      -0.29483604      -0.49862612       0.20458032      -0.02936110      -0.24159643      -8.71108712
Si      14.45081873       8.40325156       3.48617588       0.64422868       0.25859406      -0.45772385       0.02030865      -0.86293271      -0.34923192      -8.70313935
Si      16.36830702       9.45530454       6.62710017      -1.12549464      -1.43890278       0.06046498       0.12416932       0.35307214      -0.79218763      -8.71894517
Si       8.34271726       4.85390219       8.51758135      -0.66488427       0.58372941      -0.28963270      -0.20212872      -0.15921111       0.03089832      -7.78166338
55
Lattice="11.5478352 0.0 0.0 5.773917198490155 10.000722372470358 0.0 5.773916394327279 3.333571176804646 9.428767828939895" Properties=species:S:1:pos:R:3:momenta:R:3:forces:R:3:energies:R:1 spacegroup="_JSON {\"number\": 1, \"setting\": 1}" unit_cell=conventional occupancy="_JSON {\"0\": {\"Si\": 1.0}, \"1\": {\"Si\": 1.0}, \"2\": {\"Si\": 1.0}, \"3\": {\"Si\": 1.0}, \"4\": {\"Si\": 1.0}, \"5\": {\"Si\": 1.0}, \"6\": {\"Si\": 1.0}, \"7\": {\"Si\": 1.0}, \"8\": {\"Si\": 1.0}, \"9\": {\"Si\": 1.0}, \"10\": {\"Si\": 1.0}, \"11\": {\"Si\": 1.0}, \"12\": {\"Si\": 1.0}, \"13\": {\"Si\": 1.0}, \"14\": {\"Si\": 1.0}, \"15\": {\"Si\": 1.0}, \"16\": {\"Si\": 1.0}, \"17\": {\"Si\": 1.0}, \"18\": {\"Si\": 1.0}, \"19\": {\"Si\": 1.0}, \"20\": {\"Si\": 1.0}, \"21\": {\"Si\": 1.0}, \"22\": {\"Si\": 1.0}, \"23\": {\"Si\": 1.0}, \"24\": {\"Si\": 1.0}, \"25\": {\"Si\": 1.0}, \"26\": {\"Si\": 1.0}, \"27\": {\"Si\": 1.0}, \"28\": {\"Si\": 1.0}, \"29\": {\"Si\": 1.0}, \"30\": {\"Si\": 1.0}, \"31\": {\"Si\": 1.0}, \"32\": {\"Si\": 1.0}, \"33\": {\"Si\": 1.0}, \"34\": {\"Si\": 1.0}, \"35\": {\"Si\": 1.0}, \"36\": {\"Si\": 1.0}, \"37\": {\"Si\": 1.0}, \"38\": {\"Si\": 1.0}, \"39\": {\"Si\": 1.0}, \"40\": {\"Si\": 1.0}, \"41\": {\"Si\": 1.0}, \"42\": {\"Si\": 1.0}, \"43\": {\"Si\": 1.0}, \"44\": {\"Si\": 1.0}, \"45\": {\"Si\": 1.0}, \"46\": {\"Si\": 1.0}, \"47\": {\"Si\": 1.0}, \"48\": {\"Si\": 1.0}, \"49\": {\"Si\": 1.0}, \"50\": {\"Si\": 1.0}, \"51\": {\"Si\": 1.0}, \"52\": {\"Si\": 1.0}, \"53\": {\"Si\": 1.0}, \"54\": {\"Si\": 1.0}}" energy=-475.3083231789034 stress="-0.007522056710297526 0.0010021555233146184 0.00041929961988809657 0.0010021555233146184 -0.012115655325022557 0.0010582551513334062 0.00041929961988809657 0.0010582551513334062 -0.00599897937683478" free_energy=-475.3083231789034 pbc="T T T"
Si       6.61772358       3.85901538       2.79034167      -0.31416053      -0.93996740       0.23999170       1.81035849      -0.90154858       0.18307164      -8.67213272
Si       8.70224069       5.02855034       5.93552603      -0.48425728       0.23039180      -0.27388468      -0.50013154      -0.40525114      -0.03139857      -8.58510574
Si      10.48666654       5.95995985       9.11611203       0.03740580      -0.31863585       0.17156313      -0.16648386       0.39854648      -0.05019278      -8.54831925
Si       8.63025846       7.20090954       2.84696730       0.11659168       0.45037873      -0.24902775       0.37714544      -0.19392993      -0.13361770      -8.71394429
Si      10.53451940       8.23952814       5.96894196      -0.10052578      -0.33518384      -0.62208171       0.56523281       1.32680749       0.03148635      -8.70532109
Si      12.45267431       9.27831092       9.04222353      -0.04377717      -0.75807256      -1.08986480      -0.30745179       0.13190915       0.88544649      -8.71540072
Si      10.51260118      10.55203110       2.79124379       0.93623086      -0.53875588       0.12098040       0.14975243      -0.69816970       0.24273652      -8.68914441
Si      12.51330529      11.55128094       5.93945071      -1.01954473      -0.36954967      -0.07216794      -0.22206992       0.26260905       0.11206654      -8.73641357
Si      14.39566941      12.54321221       9.10236814      -0.11282759       0.02253642       0.07740411       0.61471084      -0.62452629      -0.31705131      -8.47287837
Si      10.59110206       3.85299058       2.70019726      -1.01301424       0.68294822       1.32332306      -0.73213775       0.20679192      -0.37527641      -8.73260608
Si      12.45125781       5.09573980       5.84839859       0.49701382       0.01973201       1.03733276       0.27731379      -0.32155623      -0.56200778      -8.74360973
Si      14.35464503       5.94263154       8.86863350      -0.68012651       0.10692195       1.03111920      -0.15799350       0.21309602       0.24066145      -8.67344811
Si      12.52183495       7.26707713       2.74035490       0.95862683       0.98554952      -0.03764902      -0.14844675      -0.07195985      -0.05543411      -8.73786828
Si      14.45717137       8.37190262       5.84331137       0.00871142      -1.36018543       0.65361158      -0.56446313      -0.36152313      -0.43198540      -8.74349690
Si      16.33608639       9.42541084       9.00991885       0.01406989      -0.69888809       2.35886210      -0.38295094      -0.09463126      -0.31376472      -8.68950436
Si      14.37216349      10.58022588       2.64095929      -0.30386437       0.24945931      -0.11351550       0.31304754      -0.01462100       0.57431109      -8.73200921
Si      16.29813910      11.67168695       5.90777930       0.55340074      -0.70749550       0.81693636       0.97782363       0.04754621      -0.81955975      -8.60299130
Si      18.29673560      12.74461923       8.92525312      -0.14975105      -0.58004227      -1.62389103      -0.06251576      -0.49793757       0.80618677      -8.71484228
Si      14.53270326       3.91593994       2.82307041      -0.10032229      -1.47817569      -3.00901377      -1.51972047       1.10183283      -0.67854627      -8.62526688
Si      16.39616908       5.01068959       5.82833069       1.02562876      -0.03830686       0.85244794      -0.09128622      -0.24457074       0.62366159      -8.68996930
Si      18.12922494       6.28622643       9.08386268       0.00304707      -1.02103035       1.25553183      -0.82586061      -0.17605661       0.27942061      -8.18936849
Si      16.42303767       7.22276946       2.77510446      -1.53281509       0.23323215       0.13548730      -0.41563246       0.59548895      -0.45450276      -8.70091427
Si      18.46217552       8.37823091       6.01564722       0.89211651       0.56229637       0.27692964      -1.46945784      -0.09398453      -0.19660858      -8.65319845
Si      20.20032705       9.49435161       9.13378344      -0.58547814      -0.38577806      -1.12199815      -0.03625081       0.07939283      -1.17580502      -8.68633078
Si      18.32573714      10.55539600       2.97240689      -0.10698013      -0.27328138       0.31186544       0.37180746      -0.25259145      -0.89578359      -8.67357002
Si      20.19425499      11.78360824       5.92746318      -1.01125494       1.30647443      -0.28599616       0.76262522       0.30350737       0.16575619      -8.73637531
Si      22.25019409      12.68768772       8.98873459      -0.87960367       0.67529070       0.70758519      -0.62737906       1.13791996       0.77047144      -8.68905163
Si       1.02985758       0.36631288       0.56979275       1.83550304      -0.51399336      -1.48723360      -0.48049522       0.66988031       0.40089864      -8.36633819
Si       2.92338987       1.81106509       3.62012347       0.40441360      -0.24101962       2.39394119      -0.16229812      -1.37618266      -0.21330520      -8.73430026
Si       4.89149334       2.79728287       6.71706618       1.20109231       0.78997950       0.88247861      -0.28225369      -0.07654668      -1.00733826      -8.69514814
Si       2.73358129       3.96526476       0.43430708      -1.77825617       1.33080629       0.99495570       1.16885489      -0.35014621       0.46942578      -8.51016212
Si       4.86966482       5.04747370       3.52938514      -1.26229818       0.69345177      -0.36654797      -0.60408654       0.17439995       0.01945623      -8.74841521
Si       6.70076509       6.12584871       6.72516703      -0.29606773      -0.42174664       0.66223885       0.53727609       0.45377531      -0.25031035      -8.56350300
Si       4.79554820       7.25257222       0.37813821       1.36109239      -0.48434364       0.66087467       0.85088674      -1.19867589       0.80241938      -8.68891909
Si       6.72997081       8.29193342       3.68741971      -1.65349442       0.49147056       0.47667902       0.46307608       0.33086367      -0.23174899      -8.72324717
Si       8.74151644       9.60968773       6.68927121      -1.92987446       0.29833514      -1.89604614       0.02219321      -0.86924628       1.02547448      -8.67252955
Si       4.81778230       0.35008179       0.41792105       0.28389633       0.64635095      -1.42320521      -0.28793581       0.41555408       0.25787255      -8.55595065
Si       6.66099600       1.57209206       3.61339842      -1.76375431       0.64532537       0.13196785       0.36859546       0.67265900      -0.77166380      -8.70897469
Si       8.61741842       2.75137815       6.66312652       0.61299201       1.00115278       0.97154506      -0.01474174      -0.05862441       0.50256543      -8.57552967
Si       6.73627856       3.74000869       0.45948942       0.21155505       1.77750544      -1.72202924      -0.35669979      -0.03679169      -0.46375643      -8.63849292
Si       8.65342996       4.95816139       3.56765022       1.31260660      -1.56031535       2.11535849      -0.27935504      -0.26776475      -0.34099407      -8.64467152
Si      10.59805893       6.10467014       6.75406691       0.74063903      -0.14632801       1.10464644      -0.30657087      -0.28791359       0.40658627      -8.62112305
Si       8.57144274       6.97858776       0.48548067       0.10101810       0.40490080      -0.67041974       0.39210761       0.52872647      -0.03443362      -8.64555515
Si      10.60175748       8.29461055       3.64904538       2.67438220      -0.18515077      -1.87094166      -0.38760166       0.30418062      -0.77038249      -8.70326324
Si      12.51606595       9.35086997       6.76949405      -0.56083215       1.23753434      -2.17777721      -0.11756846      -0.16078232      -1.03159893      -8.69263891
Si       8.66128570       0.40758109       0.33559249       0.34507692       1.35908254       1.34820746       0.49654672       0.49383503      -0.43269626      -8.68799718
Si      10.58696457       1.64298914       3.41608821       1.22950391       0.26142316      -0.02800670      -0.78910825       0.12940615       1.21997496      -8.68389674
Si      12.53725871       2.91622791       6.64847421      -0.58124262       0.29986070       0.04233524      -1.06865216      -0.77328623      -0.50573245      -8.69780226
Si      10.32727570       3.89315876       0.31309878       1.06336791      -0.78020543       0.17658861       0.51044283      -0.10775393       0.69140453      -8.65090865
Si      12.41902934       5.03692938       3.48359284      -0.29064963      -0.48146591      -0.98143229       1.14517651      -0.12416880       0.08855737      -8.67163797
Si      14.43109103       6.12496539       6.48115207      -0.69163185      -1.18202550      -0.76759982       0.08910966       0.02799466       0.77021843      -8.69629342
Si      12.47353261       7.19507848       0.37485911       0.87547735       0.08139231      -0.59251341      -0.18309878       0.44774712       0.16041110      -8.71409842
Si      14.48323536       8.38784131       3.45848034       0.52597602      -0.69333481      -0.40678528      -0.24359435      -0.26565666       0.39677775      -8.72579235
Si      16.33094461       9.39809576       6.61857994      -0.02910512      -0.67841904      -0.00418760       1.15493258       0.59096614       0.66282129      -8.68361991
Si       8.30706499       4.87767403       8.50031369      -0.54592601       0.32791365      -0.43897254       0.37527684      -0.13903867      -0.24464528      -7.75443223
55
Lattice="11.5478352 0.0 0.0 5.773917198490155 10.000722372470358 0.0 5.773916394327279 3.333571176804646 9.428767828939895" Properties=species:S:1:pos:R:3:momenta:R:3:forces:R:3:energies:R:1 spacegroup="_JSON {\"number\": 1, \"setting\": 1}" unit_cell=conventional occupancy="_JSON {\"0\": {\"Si\": 1.0}, \"1\": {\"Si\": 1.0}, \"2\": {\"Si\": 1.0}, \"3\": {\"Si\": 1.0}, \"4\": {\"Si\": 1.0}, \"5\": {\"Si\": 1.0}, \"6\": {\"Si\": 1.0}, \"7\": {\"Si\": 1.0}, \"8\": {\"Si\": 1.0}, \"9\": {\"Si\": 1.0}, \"10\": {\"Si\": 1.0}, \"11\": {\"Si\": 1.0}, \"12\": {\"Si\": 1.0}, \"13\": {\"Si\": 1.0}, \"14\": {\"Si\": 1.0}, \"15\": {\"Si\": 1.0}, \"16\": {\"Si\": 1.0}, \"17\": {\"Si\": 1.0}, \"18\": {\"Si\": 1.0}, \"19\": {\"Si\": 1.0}, \"20\": {\"Si\": 1.0}, \"21\": {\"Si\": 1.0}, \"22\": {\"Si\": 1.0}, \"23\": {\"Si\": 1.0}, \"24\": {\"Si\": 1.0}, \"25\": {\"Si\": 1.0}, \"26\": {\"Si\": 1.0}, \"27\": {\"Si\": 1.0}, \"28\": {\"Si\": 1.0}, \"29\": {\"Si\": 1.0}, \"30\": {\"Si\": 1.0}, \"31\": {\"Si\": 1.0}, \"32\": {\"Si\": 1.0}, \"33\": {\"Si\": 1.0}, \"34\": {\"Si\": 1.0}, \"35\": {\"Si\": 1.0}, \"36\": {\"Si\": 1.0}, \"37\": {\"Si\": 1.0}, \"38\": {\"Si\": 1.0}, \"39\": {\"Si\": 1.0}, \"40\": {\"Si\": 1.0}, \"41\": {\"Si\": 1.0}, \"42\": {\"Si\": 1.0}, \"43\": {\"Si\": 1.0}, \"44\": {\"Si\": 1.0}, \"45\": {\"Si\": 1.0}, \"46\": {\"Si\": 1.0}, \"47\": {\"Si\": 1.0}, \"48\": {\"Si\": 1.0}, \"49\": {\"Si\": 1.0}, \"50\": {\"Si\": 1.0}, \"51\": {\"Si\": 1.0}, \"52\": {\"Si\": 1.0}, \"53\": {\"Si\": 1.0}, \"54\": {\"Si\": 1.0}}" energy=-474.90034210667534 stress="-0.00796988314116918 0.004190891833495195 0.002969485563496621 0.004190891833495195 -0.013613162094075903 0.001879431313854892 0.002969485563496621 0.001879431313854892 -0.006377177913901054" free_energy=-474.90034210667534 pbc="T T T"
Si       6.66013474       3.79702778       2.80376262       1.62374459      -0.94611743       0.13849133       0.63940658       0.94197419      -0.34643482      -8.67215580
Si       8.66785466       5.02835281       5.93175272      -0.63518070      -0.16950738       0.32237362       0.24979839      -0.14346303       0.70418924      -8.55777681
Si      10.47917591       5.96577796       9.12545265      -0.36022325       0.64344981       0.23915355      -0.31836157       0.80413584       0.16039758      -8.52680269
Si       8.64784085       7.21065915       2.83310953       0.47737428      -0.16336441      -0.21037883       0.07584791      -0.53333866       0.14114913      -8.61062261
Si      10.54669279       8.26892355       5.93115284       0.44678143       1.26537650      -0.92116873       0.09542595       0.60504860      -0.37113721      -8.68173187
Si      12.44607151       9.25990996       9.00609850      -0.04135887       0.32558794      -0.57829253       0.34090969       1.15240530      -0.21758112      -8.72364413
Si      10.55584627      10.50215964       2.79927466       0.53350530      -1.20425615       0.02997853      -0.54392957      -0.06775230      -0.36346051      -8.66361957
Si      12.46501184      11.55686520       5.93689511      -0.58898632       0.80208400      -0.12037532       0.69742842       1.10131041      -0.23760128      -8.69358624
Si      14.42080112      12.52058077       9.09203580       1.12746704      -0.78751391      -0.46391052       0.82945207      -0.23583011      -0.28339929      -8.47613050
Si      10.52350487       3.88706053       2.74897705      -1.22552764       0.44512982       0.48266986       0.57066124      -0.45653197      -0.58863331      -8.74956942
Si      12.47699831       5.08139539       5.86872555       0.28440085      -0.59929365      -0.39682337      -0.48229675      -0.44115199      -1.10149896      -8.71360653
Si      14.31978887       5.96176759       8.92061628      -0.51746980       0.71722350       0.76968826       0.35371403       0.57615406      -0.46836306      -8.67362755
Si      12.57198153       7.30055608       2.72770744       1.04626523       0.03672349      -0.57483948       0.18911891      -1.05734358      -0.55316249      -8.73173992
Si      14.43946389       8.29584244       5.85574230      -0.53503755      -1.34068458      -0.20057603      -0.00975570       0.40005613      -0.52140918      -8.72894408
Si      16.32841205       9.38894366       9.10759481      -0.16183530      -0.62141458       1.18207963       0.17234609       0.17463524      -1.04723776      -8.66884390
Si      14.36867227      10.59314701       2.66927469       0.15877602       0.24009172       1.31892252       0.26835287      -0.01914781       1.06318828      -8.67703144
Si      16.35462201      11.64027070       5.91783297       1.34197300      -0.44191729      -0.40044543      -0.03122008       0.22035724      -0.69512881      -8.65013516
Si      18.29436777      12.70503907       8.88435909       0.15378679      -0.70241464       0.18361548       0.31323880       0.39373558       1.27176485      -8.67608570
Si      14.47620871       3.87683150       2.67311029      -1.82427479      -0.19545113      -1.97055269      -0.64008855       0.43253838       2.15139626      -8.64639025
Si      16.43684678       5.00122309       5.88311774       0.38799301      -0.25035311       0.97467136      -0.61935712       0.03676472      -0.39197732      -8.68939030
Si      18.10280335       6.22696266       9.15589394      -0.79361213      -1.24337531       1.39681995      -0.00905808      -0.19451252      -0.09192060      -8.17243674
Si      16.34187612       7.25203952       2.76547918      -1.24993980       0.71967247      -0.43658485       0.78363475      -0.03358731      -0.19898452      -8.75831802
Si      18.43803083       8.39164968       6.01843940      -1.90747574      -0.20972557      -0.22115302      -1.80807270      -0.69582006      -0.38650175      -8.67526192
Si      20.18077365       9.48325561       9.03601823       0.02471401       0.02359651      -2.39046236       0.68749490       0.33142046      -0.33440639      -8.67905571
Si      18.33928508      10.53527080       2.95160458       0.61766465      -0.39009468      -1.07955265       0.35572737       0.14832135      -0.80472713      -8.68648566
Si      20.17719935      11.85916333       5.93580444       0.39416414       1.43619104       0.84332221       0.90807280      -0.22732123       1.04653468      -8.69235291
Si      22.19018711      12.75581441       9.05455886      -1.17463311       1.61811250       1.69059298       0.28829161      -0.02676404       0.34521458      -8.70185591
Si       1.09299351       0.36652574       0.51946984       0.38655578       0.51782090      -0.30374899      -1.19618678       0.64811633       0.90560202      -8.40546508
Si       2.93917884       1.75072765       3.70894287       0.21691797      -1.86297093       0.52397445      -0.09164321      -0.65020437      -1.97723392      -8.69989104
Si       4.93249257       2.83001781       6.72923800       0.19665348       0.38029530      -0.20323355      -0.94032696      -0.38211343      -0.19155172      -8.71760974
Si       2.68712270       4.01311257       0.48151402      -0.06034635       0.39735855       0.26324921       0.94832907      -0.73768597      -1.61525591      -8.45689615
Si       4.79090581       5.07602697       3.51242207      -1.51082252       0.14131330      -0.26456679       0.27701393      -0.79830406       0.09082540      -8.69553373
Si       6.70957146       6.12793129       6.75349814       0.62351615       0.55663006       0.49109340       0.50108038       0.66991402       0.02940802      -8.54319304
Si       4.88239615       7.18980422       0.43009988       1.58995341      -1.62324961       1.02572258      -0.56211682      -0.11157337      -0.33761323      -8.68674755
Si       6.66905662       8.32248791       3.70046526      -0.57214078       0.51561747      -0.05175388       0.85600627      -0.28706102      -0.52059307      -8.69697599
Si       8.66198680       9.60200532       6.63197956      -0.80142807      -0.37744776      -0.33885112       1.17427657      -0.07859650       0.82327862      -8.66768373
Si       4.82291105       0.39282834       0.36187071      -0.04396408       0.83718409      -0.57826107      -0.11688927      -0.14730950       0.79502233      -8.54267188
Si       6.59651739       1.62361988       3.59408239      -0.48543081       1.10222546      -0.73587691       1.18328158      -0.17731266      -0.27205690      -8.73473262
Si       8.64405452       2.79009462       6.72408436       0.35712357       0.27586428       1.15688878      -0.20687000      -0.83711931      -0.26947628      -8.53967017
Si       6.73116766       3.81621181       0.37142293      -0.42649285       0.85089269      -1.27323108      -0.44011647      -1.08572229       0.94461760      -8.63955112
Si       8.69543806       4.88305375       3.65066825       0.02558440      -1.00707844       0.83532338      -1.30655277       0.90094836      -1.17795655      -8.62729810
Si      10.61887238       6.09061955       6.81550633      -0.01125448      -0.25782105       0.95442458      -0.56277694       0.21228744      -0.69043202      -8.59504880
Si       8.58540127       7.01258814       0.45437655       0.30628972       0.71337942      -0.41669111      -0.08806165      -0.16579081       0.35529284      -8.68115867
Si      10.70801535       8.29586565       3.53899054       1.07657528       0.17384350      -1.98373433      -1.54766479       0.05224586       0.54821325      -8.70778693
Si      12.48400481       9.39597620       6.63627377      -0.59958233       0.28721886      -2.48323764       0.13213300      -0.89516825       0.57210173      -8.72334268
Si       8.68385869       0.48629367       0.38056354       0.24656446       1.44992991       0.31524298      -0.56317487      -0.25674636      -0.62972754      -8.72739465
Si      10.61393248       1.66086545       3.46005399      -0.21647722       0.38393018       1.59910473      -0.86343562      -0.01730955       0.81099802      -8.67870938
Si      12.47027850       2.90273315       6.62765979      -1.80027089      -0.76639486      -0.81415220      -0.38913885      -0.58341998      -0.40970832      -8.73614701
Si      10.38819830       3.84916036       0.35358379       0.94089894      -0.84224738       1.40321141      -0.72182356       0.11023633       0.83805841      -8.64878082
Si      12.44773090       5.01353905       3.44197096       1.26158593      -0.31370575      -0.53610265       0.67365579       0.25919885       0.38028824      -8.62002904
Si      14.41063962       6.06650093       6.48331941       0.09701784      -1.01299090       1.01991522       0.79114167       0.16117949       1.43636654      -8.67515259
Si      12.50678253       7.21483688       0.35465476       0.32495891       0.57017390      -0.11996221      -0.43754890       0.05040502       0.38456975      -8.72880703
Si      14.49478622       8.35495835       3.45850157      -0.20547359      -0.30837240       0.48360154      -0.69485164       0.70829245       0.69511487      -8.72422633
Si      16.36838775       9.38200112       6.65176536       1.21142308      -0.02668662       1.32565444       0.21367183       0.25598722       0.90795803      -8.67572276
Si       8.29818463       4.89154979       8.46559008       0.26900970       0.23753232      -0.90126663       0.62180673      -0.00366686      -0.30637932      -7.74691416
55
Lattice="11.5478352 0.0 0.0 5.773917198490155 10.000722372470358 0.0 5.773916394327279 3.333571176804646 9.428767828939895" Properties=species:S:1:pos:R:3:momenta:R:3:forces:R:3:energies:R:1 spacegroup="_JSON {\"number\": 1, \"setting\": 1}" unit_cell=conventional occupancy="_JSON {\"0\": {\"Si\": 1.0}, \"1\": {\"Si\": 1.0}, \"2\": {\"Si\": 1.0}, \"3\": {\"Si\": 1.0}, \"4\": {\"Si\": 1.0}, \"5\": {\"Si\": 1.0}, \"6\": {\"Si\": 1.0}, \"7\": {\"Si\": 1.0}, \"8\": {\"Si\": 1.0}, \"9\": {\"Si\": 1.0}, \"10\": {\"Si\": 1.0}, \"11\": {\"Si\": 1.0}, \"12\": {\"Si\": 1.0}, \"13\": {\"Si\": 1.0}, \"14\": {\"Si\": 1.0}, \"15\": {\"Si\": 1.0}, \"16\": {\"Si\": 1.0}, \"17\": {\"Si\": 1.0}, \"18\": {\"Si\": 1.0}, \"19\": {\"Si\": 1.0}, \"20\": {\"Si\": 1.0}, \"21\": {\"Si\": 1.0}, \"22\": {\"Si\": 1.0}, \"23\": {\"Si\": 1.0}, \"24\": {\"Si\": 1.0}, \"25\": {\"Si\": 1.0}, \"26\": {\"Si\": 1.0}, \"27\": {\"Si\": 1.0}, \"28\": {\"Si\": 1.0}, \"29\": {\"Si\": 1.0}, \"30\": {\"Si\": 1.0}, \"31\": {\"Si\": 1.0}, \"32\": {\"Si\": 1.0}, \"33\": {\"Si\": 1.0}, \"34\": {\"Si\": 1.0}, \"35\": {\"Si\": 1.0}, \"36\": {\"Si\": 1.0}, \"37\": {\"Si\": 1.0}, \"38\": {\"Si\": 1.0}, \"39\": {\"Si\": 1.0}, \"40\": {\"Si\": 1.0}, \"41\": {\"Si\": 1.0}, \"42\": {\"Si\": 1.0}, \"43\": {\"Si\": 1.0}, \"44\": {\"Si\": 1.0}, \"45\": {\"Si\": 1.0}, \"46\": {\"Si\": 1.0}, \"47\": {\"Si\": 1.0}, \"48\": {\"Si\": 1.0}, \"49\": {\"Si\": 1.0}, \"50\": {\"Si\": 1.0}, \"51\": {\"Si\": 1.0}, \"52\": {\"Si\": 1.0}, \"53\": {\"Si\": 1.0}, \"54\": {\"Si\": 1.0}}" energy=-475.2571734995686 stress="-0.007718114273750005 0.003543804414265323 0.002905783685691281 0.003543804414265323 -0.009699883198340703 0.0007804615556736795 0.002905783685691281 0.0007804615556736795 -0.007544425673983077" free_energy=-475.2571734995686 pbc="T T T"
Si       6.75025975       3.79794098       2.79132474       1.43152802       1.07591482      -0.69937949      -0.87481622       1.31183027      -0.68253705      -8.66359917
Si       8.64939709       5.01553506       5.97244897      -0.01477321      -0.30484051       1.07169993       0.46222187      -0.08355176       0.10370458      -8.53894679
Si      10.44952723       6.02783929       9.14491079      -0.71058235       1.60839779       0.46771903      -0.07549802       0.35548712       0.01150406      -8.57804410
Si       8.67013653       7.18274328       2.82862153       0.26105254      -0.84985262       0.04312294      -0.36254742      -0.33643957       0.15546226      -8.61478913
Si      10.56396855       8.34195035       5.86823300       0.03284112       1.21770786      -1.45489196      -0.58767751      -0.56796374      -0.28176422      -8.66743939
Si      12.46325412       9.31516638       8.96076002       0.75563167       1.52779434      -1.18985246       0.55926715       0.20770752      -0.38555671      -8.71847285
Si      10.56449355      10.45052546       2.78177269      -0.10643989      -0.52090785      -0.75269007      -0.17390948       0.85725801      -0.57660596      -8.70191427
Si      12.46489556      11.63386085       5.91889395       0.58100630       1.88586570      -0.57184808       0.67932628       0.16713595      -0.26736051      -8.68948095
Si      14.50194173      12.48496955       9.06414502       1.74690060      -0.30830565      -0.44403356      -0.01307545       0.76606186       0.31545009      -8.44909159
Si      10.49398951       3.89132857       2.75991925       0.21035951      -0.24566637       0.17825771       1.00878899      -0.32002627       0.36423844      -8.71739189
Si      12.47357098       5.03746957       5.81421766      -0.33768239      -0.95805894      -1.42749125      -0.20492114       0.00893196      -0.11343828      -8.71296848
Si      14.30933615       6.02059100       8.94329224       0.13114165       1.45232172       0.18915757       0.39914852       0.29379105      -0.09333217      -8.71617171
Si      12.62853292       7.26265565       2.68049705       0.94637340      -1.36031456      -1.06961355      -0.42346709      -0.59785759       0.04389873      -8.73537017
Si      14.42044387       8.24646365       5.83477015      -0.04994322      -0.50301507      -0.35706805       0.54329346       0.56436896       0.42584315      -8.68161782
Si      16.33128679       9.36425199       9.13221725       0.31726988      -0.31810494      -0.10147653       0.35483451       0.18577039      -0.49199367      -8.68034423
Si      14.38447900      10.60473748       2.76817741       0.37998433       0.20118859       2.17123462       0.02180910      -0.02423601      -0.01873104      -8.69579443
Si      16.40672244      11.62015419       5.87932327       0.33936277      -0.47517348      -0.83482207      -1.21421202      -0.34621268       0.22974922      -8.67354618
Si      18.31095159      12.69485588       8.93055385       0.37556458       0.47633705       1.29537596      -0.08313265       1.01663590       0.19724333      -8.67565551
Si      14.37292524       3.87119083       2.66416210      -1.77697421      -0.24101239       1.44943014       0.70475684      -0.45363028       1.51051836      -8.68870708
Si      16.43672771       4.99513195       5.91310496      -0.27550359       0.10009736       0.11768068      -0.17992355       0.34914950      -0.60178871      -8.69375868
Si      18.07405487       6.15349309       9.22059223      -0.14507332      -1.53693860       0.99045924       0.60190472      -0.09861949      -0.40346828      -8.22180575
Si      16.31292300       7.27960233       2.74359935       0.14762308       0.20116082      -0.22793631       0.80734695      -0.55184939       0.45232617      -8.76325395
Si      18.29559640       8.36199410       5.99444273      -2.90557961      -0.71402485      -0.64899749       0.54288046       0.08808296      -0.22603914      -8.74009789
Si      20.20727732       9.49496787       8.91842109       0.90969622       0.36782078      -1.69642709       0.40271001       0.11670512       1.20209055      -8.67025843
Si      18.37383283      10.52498833       2.87508220       0.45846937       0.03813196      -1.57906356      -0.57895458       0.30475861       0.20719839      -8.71423140
Si      20.22236056      11.91416824       6.00527093       1.05534761       0.42420634       1.39529419      -0.15514178      -1.15941166      -0.50041141      -8.68107922
Si      22.15028352      12.82274200       9.14328675      -0.22622601       0.67031855       1.45914428       0.74450219      -1.06105709      -0.56066333      -8.62542558
Si       1.07417960       0.41378382       0.52918425      -0.90882542       1.17850969       0.42983257      -0.45822522       0.24024213      -0.03484747      -8.50324838
Si       2.94731946       1.64277469       3.66944153       0.09867185      -1.95234956      -1.67040609      -0.07105108       0.53603561      -0.64436891      -8.70078244
Si       4.90821312       2.83745965       6.72784838      -0.99176757      -0.01105355       0.42326965      -0.42308529      -0.05149719       0.87544307      -8.75613071
Si       2.71389749       4.00780149       0.42291888       0.96220118      -0.53573879      -2.35017356       0.45309078      -0.48383465      -1.08002286      -8.51164694
Si       4.73086193       5.05182200       3.50274779      -0.65637263      -1.00165469      -0.08872860       0.76570058      -0.57388541       0.15096811      -8.61639296
Si       6.75033015       6.17382817       6.78260816       0.68926319       0.96548325       0.64748490      -0.42818461      -0.20836735       0.14466206      -8.52455595
Si       4.92900972       7.11895025       0.45957276      -0.01943595      -0.77682140      -0.05901590      -1.36598464       1.07114225      -0.96338367      -8.61771177
Si       6.67063136       8.33333975       3.67348225       0.57740959      -0.15986499      -1.03163092       0.64851029      -0.51846926      -0.72730666      -8.68798122
Si       8.65816359       9.58168687       6.63016263       0.42708786      -0.38454818      -0.07185093       0.32186289      -0.00133658      -0.48902272      -8.69962161
Si       4.81939178       0.42763574       0.36316529      -0.02989584       0.47863120       0.59565290       0.12059955      -0.19318886       0.67104150      -8.54935891
Si       6.61491946       1.66245368       3.55365094       1.07953969       0.23770270      -0.67585809       0.77949309      -0.70423202       0.23578947      -8.73687259
Si       8.65715631       2.76974846       6.76436198       0.20469789      -1.03798578       0.21175445       0.03899448      -0.79368448      -0.92210776      -8.52402467
Si       6.69467293       3.82264952       0.34682553      -0.88460877      -0.38460898       0.33670641      -0.12200310      -0.25546216       0.96779310      -8.65168751
Si       8.64881676       4.87164778       3.65177502      -1.60185525       0.63020432      -0.66228768      -0.52388136       1.14197641      -0.67942382      -8.66377357
Si      10.60093393       6.09177921       6.82722757      -0.55679223       0.39782870      -0.64558861      -0.11356125       0.59505997      -1.23457634      -8.53293293
Si       8.59594679       7.03500207       0.44895178       0.09724777       0.02619434       0.23187040      -0.08445018      -0.60790124       0.44073822      -8.68847825
Si      10.70795006       8.29562026       3.46436751      -0.89778221      -0.40950730      -0.79128961      -0.87396522      -0.80035161       0.83609538      -8.70863437
Si      12.46478271       9.38562897       6.53974216       0.00675473      -0.40551047      -1.06582265       0.66823473       0.14306135       1.10724300      -8.72484662
Si       8.66850268       0.54957546       0.38557429      -0.86999270       0.94855524       0.13932849      -0.70241329      -0.32587517       0.37961784      -8.73388940
Si      10.58131659       1.67623513       3.55988072      -0.77247965       0.13184390       1.86340877       0.12269451      -0.28989852      -0.53707476      -8.69995156
Si      12.38056137       2.84852358       6.58298226      -1.21330935      -1.10518047      -0.60598866       1.18498344       0.16927473       0.67784410      -8.72483358
Si      10.40004293       3.81519639       0.45147806      -0.54375797      -0.36009501       2.09853670      -0.93323224       0.46666794      -0.06807285      -8.65486759
Si      12.52147903       5.00808285       3.42823207       1.17334913       0.11745148       0.00673191      -0.79837242       0.31017135       0.36248665      -8.68268823
Si      14.43997661       6.02037254       6.58465942       0.81504355      -0.72246633       2.57526215       0.01371682       0.26112249       0.38320126      -8.73471745
Si      12.51139958       7.23555726       0.35949780      -0.02914025       0.02974342       0.18474567       0.02109577      -0.67516518      -0.08504280      -8.72731959
Si      14.46033233       8.36819928       3.50568450      -0.96359299       0.74778760       1.15158763      -0.14681880       0.46147931       0.05950826      -8.76746207
Si      16.41742669       9.38896444       6.74808843       0.24431117       0.29655385       2.13282942      -1.39190185       0.25410719       0.05958945      -8.65843022
Si       8.33393505       4.90278877       8.41080690       1.03265635       0.14984797      -1.08334548       0.39263949      -0.16001072       0.09769231      -7.76507578
55
Lattice="11.5478352 0.0 0.0 5.773917198490155 10.000722372470358 0.0 5.773916394327279 3.333571176804646 9.428767828939895" Properties=species:S:1:pos:R:3:momenta:R:3:forces:R:3:energies:R:1 spacegroup="_JSON {\"number\": 1, \"setting\": 1}" unit_cell=conventional occupancy="_JSON {\"0\": {\"Si\": 1.0}, \"1\": {\"Si\": 1.0}, \"2\": {\"Si\": 1.0}, \"3\": {\"Si\": 1.0}, \"4\": {\"Si\": 1.0}, \"5\": {\"Si\": 1.0}, \"6\": {\"Si\": 1.0}, \"7\": {\"Si\": 1.0}, \"8\": {\"Si\": 1.0}, \"9\": {\"Si\": 1.0}, \"10\": {\"Si\": 1.0}, \"11\": {\"Si\": 1.0}, \"12\": {\"Si\": 1.0}, \"13\": {\"Si\": 1.0}, \"14\": {\"Si\": 1.0}, \"15\": {\"Si\": 1.0}, \"16\": {\"Si\": 1.0}, \"17\": {\"Si\": 1.0}, \"18\": {\"Si\": 1.0}, \"19\": {\"Si\": 1.0}, \"20\": {\"Si\": 1.0}, \"21\": {\"Si\": 1.0}, \"22\": {\"Si\": 1.0}, \"23\": {\"Si\": 1.0}, \"24\": {\"Si\": 1.0}, \"25\": {\"Si\": 1.0}, \"26\": {\"Si\": 1.0}, \"27\": {\"Si\": 1.0}, \"28\": {\"Si\": 1.0}, \"29\": {\"Si\": 1.0}, \"30\": {\"Si\": 1.0}, \"31\": {\"Si\": 1.0}, \"32\": {\"Si\": 1.0}, \"33\": {\"Si\": 1.0}, \"34\": {\"Si\": 1.0}, \"35\": {\"Si\": 1.0}, \"36\": {\"Si\": 1.0}, \"37\": {\"Si\": 1.0}, \"38\": {\"Si\": 1.0}, \"39\": {\"Si\": 1.0}, \"40\": {\"Si\": 1.0}, \"41\": {\"Si\": 1.0}, \"42\": {\"Si\": 1.0}, \"43\": {\"Si\": 1.0}, \"44\": {\"Si\": 1.0}, \"45\": {\"Si\": 1.0}, \"46\": {\"Si\": 1.0}, \"47\": {\"Si\": 1.0}, \"48\": {\"Si\": 1.0}, \"49\": {\"Si\": 1.0}, \"50\": {\"Si\": 1.0}, \"51\": {\"Si\": 1.0}, \"52\": {\"Si\": 1.0}, \"53\": {\"Si\": 1.0}, \"54\": {\"Si\": 1.0}}" energy=-475.05047075854065 stress="-0.008088074375824806 0.0003010458161005155 -0.0005722101524012981 0.0003010458161005155 -0.0044332778429771146 -0.0010752089999510718 -0.0005722101524012981 -0.0010752089999510718 -0.01112618845998842" free_energy=-475.05047075854065 pbc="T T T"
Si       6.77635603       3.88508277       2.73255403      -0.62374057       1.82330789      -1.38963841      -1.58722358      -0.29601810      -0.07801864      -8.69905930
Si       8.66195400       4.99583471       6.01857445       0.37656271      -0.45272568       0.44313711       0.01605607      -0.10580852      -0.84623354      -8.50784503
Si      10.41898539       6.11215393       9.15997886      -0.22599717       1.32785991      -0.10486514       0.81381805      -0.72349607      -0.80949954      -8.55946252
Si       8.66641764       7.13169648       2.83386468      -0.43001230      -0.94007665       0.07361969      -0.46545880       0.28841780      -0.17454773      -8.71711970
Si      10.54447920       8.37836535       5.78781288      -0.64997276       0.15089546      -1.45245225      -0.11196365      -0.66105085       0.33496053      -8.72211245
Si      12.51456958       9.38761434       8.89274928       0.95442089       1.01018972      -1.18794948      -0.38269585      -0.67805040       0.45109651      -8.69093312
Si      10.56171403      10.45385388       2.72715553       0.17146774       0.50036288      -1.11641040       0.48836338       0.31632147       0.26029183      -8.73181181
Si      12.50924738      11.72359118       5.88323561       0.82743266       1.28215095      -0.68569814      -0.41143508      -0.83202891       0.13030291      -8.68889208
Si      14.58301031      12.49921141       9.05739951       1.17112185       0.78559964       0.21904994      -0.70330975       0.53553155       0.44590284      -8.39141133
Si      10.53220390       3.87399032       2.79771262       0.97697788      -0.26487668       1.43752152      -0.03271906       0.26249606       1.02605369      -8.68265508
Si      12.45473118       4.99414139       5.75383812      -0.27227039      -0.58623348      -0.53625301       0.22469372       0.43511239       1.20799214      -8.67902346
Si      14.32479193       6.09852697       8.96429792       0.29453946       1.33096574       0.88653774      -0.23175764      -0.44269499       0.94711208      -8.73552254
Si      12.65472546       7.18397708       2.63793055      -0.03538060      -1.32722892      -0.37084044      -0.78174185       0.62082241       0.74626318      -8.70751636
Si      14.43833931       8.23748911       5.84550899       0.67822507       0.06791241       0.94022207       0.33503605       0.20792873       1.08955558      -8.65791975
Si      16.35744650       9.35291886       9.12349701       0.57964066      -0.15511093       0.06585887      -0.02775236       0.02772623       0.64343671      -8.67479789
Si      14.40321142      10.61383680       2.86496439       0.32188027       0.12402550       1.23532613      -0.02600144      -0.11329143      -1.13623141      -8.71491250
Si      16.37701825      11.57869674       5.86066809      -1.33225562      -1.07545758       0.38257530      -0.68169068      -0.23748236       1.20425677      -8.68648288
Si      18.32084101      12.75254292       8.99583060      -0.10495818       1.51097991       1.04841643      -0.49426206       0.20925554      -0.38649594      -8.70180055
Si      14.32206190       3.83425221       2.76145115       0.02228121      -1.21169301       1.65399433       1.40576310      -0.60234102      -0.85569949      -8.64202843
Si      16.42195837       5.01124438       5.90174952      -0.19161896       0.42901918      -0.40161638       0.19692804       0.02530651      -0.02332518      -8.69467330
Si      18.08276159       6.07836285       9.25540583       0.30772201      -1.11693402       0.31464189      -0.03716596       0.72243500      -0.50201363      -8.31013659
Si      16.34020686       7.26766081       2.75061549       0.65790441      -0.65950149       0.44548682      -0.10148452      -0.57038603       0.26559328      -8.73481072
Si      18.18390597       8.33768223       5.95239713      -1.13607085      -0.05973042      -0.92561049       1.43510697       0.68845566      -0.10721222      -8.68078944
Si      20.26206872       9.51483695       8.88224283       0.99681041       0.30409006       0.26729469      -0.32104063      -0.22604118       1.02038946      -8.69861045
Si      18.36785901      10.53448791       2.81392770      -0.76360900       0.22827980      -0.55131671      -0.88456598      -0.06110674       0.98577891      -8.67965815
Si      20.25702011      11.88383408       6.04101654       0.08769578      -1.63510466      -0.27611866      -0.83030705      -1.36228674      -1.47099115      -8.63662319
Si      22.15727360      12.81655388       9.19373218       0.24027792      -0.82621722       0.43371592      -0.21371960      -0.75714374      -0.69250859      -8.65083618
Si       1.01949883       0.47880236       0.53779803      -0.99423469       1.17184898      -0.27870038       0.25951432      -0.27547889      -0.72184031      -8.50136761
Si       2.94922495       1.57379602       3.57939702      -0.04704016      -0.51132279      -1.40436297      -0.15322961       1.18077367       0.77028012      -8.67291830
Si       4.85666548       2.84134431       6.78412866      -0.69024537       0.25072050       1.62270236       0.64786587       0.29218247       0.48630306      -8.75343991
Si       2.77059254       3.96853238       0.29263998       0.93454924      -0.78735460      -2.01732051      -0.57115990       0.18820724       1.26636548      -8.49158367
Si       4.72589540       4.98660518       3.50426181       0.41815460      -1.30152481       0.14381681       0.57688533       0.14136109       0.14314083      -8.65395326
Si       6.76204006       6.20548093       6.82050936      -0.33547789       0.09270662       0.74213122      -0.80343156      -0.79146327      -0.07487430      -8.49007256
Si       4.88296784       7.12230613       0.42193508      -1.46971796       0.87778162      -1.24555486      -0.34105232       0.98318714      -0.45220012      -8.68379607
Si       6.72029426       8.30806248       3.59612724       1.18358338      -0.71472076      -1.77605374       0.12019685      -0.17340711      -0.18001840      -8.71825329
Si       8.68022394       9.56122278       6.59982123       0.19874640      -0.41519786      -1.09437828      -0.53305923      -0.09141204      -0.53762389      -8.68280082
Si       4.82418512       0.45110894       0.41117553       0.23335401       0.54406353       1.01589123       0.20246411       0.30147059      -0.18768918      -8.56839641
Si       6.68945196       1.65869038       3.52763363       1.50201206      -0.10957207      -0.33432079      -0.24297229       0.32860734       0.17435651      -8.71694426
Si       8.67396382       2.69300075       6.74006897       0.51921675      -1.69661630      -1.05061115       0.35429491      -0.04176223      -0.58491045      -8.55341414
Si       6.65070062       3.81102063       0.38955042      -0.66158393       0.24334187       1.00427097       0.37986717       0.93195349      -0.16118778      -8.64726341
Si       8.56862870       4.94149132       3.60404679      -1.04436705       1.80899089      -0.89825222       1.04815665       0.24287031       0.32746606      -8.64492592
Si      10.57496692       6.13539040       6.75281529      -0.29826814       1.22532189      -1.99782386       0.41301578       0.43849054      -0.49606743      -8.49986781
Si       8.60274297       7.01788567       0.47407282       0.26350139      -0.53004438       0.62275809       0.30418533      -0.04388037       0.04135956      -8.67823930
Si      10.64249577       8.24408559       3.44772792      -1.32190644      -1.42957076      -0.03752651       0.21153625      -0.33518965       0.08448420      -8.69439107
Si      12.49107807       9.38207215       6.52155611       0.91888689       0.41553640       0.20661117       0.37910989       0.72935214       0.46713798      -8.71491134
Si       8.60916986       0.58863035       0.41433299      -1.07980519       0.58361800       1.03246937       0.49506612      -0.16074964       0.69115673      -8.68168029
Si      10.55545723       1.67100505       3.62036650      -0.06296718      -0.33670559       0.23593401       0.72274955      -0.31941093      -1.32083110      -8.66756766
Si      12.37164465       2.80336902       6.58360247       0.87612192      -0.57823904       0.65783269       1.21700626       0.32812680       0.80874428      -8.70394050
Si      10.35089440       3.81433785       0.54237054      -0.98557278       0.31452135       1.13281757       0.39991001       0.42965786      -0.95335014      -8.62953928
Si      12.54057763       5.02395951       3.44171042      -0.52089376       0.38362077       0.46766465      -1.08345124      -0.11459094       0.20998469      -8.73305014
Si      14.47172736       5.99573642       6.70826476       0.22748710      -0.16457745       1.65834767      -0.65513695       0.46267714      -1.45882300      -8.68444634
Si      12.51702674       7.21280378       0.35681304       0.34664020      -0.78126732      -0.42494881       0.42800112      -0.23904038      -0.60814372      -8.71124921
Si      14.41565833       8.41085519       3.55658715      -0.55163976       0.58960551       0.62086529       0.59479589      -0.66141440      -0.58300229      -8.75796921
Si      16.37222442       9.41264811       6.84345236      -1.90079828       0.51818202       1.13810735      -1.15939736      -0.09199730      -1.34248210      -8.65879863
Si       8.40016228       4.90174278       8.36408242       1.44319012      -0.22789456      -0.59099530       0.19879920      -0.30970294       0.51605538      -7.77824554
55
Lattice="11.5478352 0.0 0.0 5.773917198490155 10.000722372470358 0.0 5.773916394327279 3.333571176804646 9.428767828939895" Properties=species:S:1:pos:R:3:momenta:R:3:forces:R:3:energies:R:1 spacegroup="_JSON {\"number\": 1, \"setting\": 1}" unit_cell=conventional occupancy="_JSON {\"0\": {\"Si\": 1.0}, \"1\": {\"Si\": 1.0}, \"2\": {\"Si\": 1.0}, \"3\": {\"Si\": 1.0}, \"4\": {\"Si\": 1.0}, \"5\": {\"Si\": 1.0}, \"6\": {\"Si\": 1.0}, \"7\": {\"Si\": 1.0}, \"8\": {\"Si\": 1.0}, \"9\": {\"Si\": 1.0}, \"10\": {\"Si\": 1.0}, \"11\": {\"Si\": 1.0}, \"12\": {\"Si\": 1.0}, \"13\": {\"Si\": 1.0}, \"14\": {\"Si\": 1.0}, \"15\": {\"Si\": 1.0}, \"16\": {\"Si\": 1.0}, \"17\": {\"Si\": 1.0}, \"18\": {\"Si\": 1.0}, \"19\": {\"Si\": 1.0}, \"20\": {\"Si\": 1.0}, \"21\": {\"Si\": 1.0}, \"22\": {\"Si\": 1.0}, \"23\": {\"Si\": 1.0}, \"24\": {\"Si\": 1.0}, \"25\": {\"Si\": 1.0}, \"26\": {\"Si\": 1.0}, \"27\": {\"Si\": 1.0}, \"28\": {\"Si\": 1.0}, \"29\": {\"Si\": 1.0}, \"30\": {\"Si\": 1.0}, \"31\": {\"Si\": 1.0}, \"32\": {\"Si\": 1.0}, \"33\": {\"Si\": 1.0}, \"34\": {\"Si\": 1.0}, \"35\": {\"Si\": 1.0}, \"36\": {\"Si\": 1.0}, \"37\": {\"Si\": 1.0}, \"38\": {\"Si\": 1.0}, \"39\": {\"Si\": 1.0}, \"40\": {\"Si\": 1.0}, \"41\": {\"Si\": 1.0}, \"42\": {\"Si\": 1.0}, \"43\": {\"Si\": 1.0}, \"44\": {\"Si\": 1.0}, \"45\": {\"Si\": 1.0}, \"46\": {\"Si\": 1.0}, \"47\": {\"Si\": 1.0}, \"48\": {\"Si\": 1.0}, \"49\": {\"Si\": 1.0}, \"50\": {\"Si\": 1.0}, \"51\": {\"Si\": 1.0}, \"52\": {\"Si\": 1.0}, \"53\": {\"Si\": 1.0}, \"54\": {\"Si\": 1.0}}" energy=-475.002618224849 stress="-0.008681650246856359 -8.535776632014245e-05 -0.0008721744091835115 -8.535776632014245e-05 -0.008650354561528824 -0.00029705677649398356 -0.0008721744091835115 -0.00029705677649398356 -0.007433459416023203" free_energy=-475.002618224849 pbc="T T T"
Si       6.69679899       3.95732984       2.67349222      -2.00642855       0.78753360      -0.55998881      -0.04355995      -0.90053121       1.06583432      -8.70723845
Si       8.67699014       4.96953998       6.00670273       0.12409714      -0.50662507      -0.85820170      -0.27415895       0.06323233      -0.71069537      -8.49796238
Si      10.44652246       6.14707325       9.11654448       1.30800830      -0.00856149      -1.61848969       0.93656882      -0.77586625      -1.08386252      -8.50630333
Si       8.63209237       7.10489870       2.82455695      -0.71909610       0.09566980      -0.53723384       0.15137415       0.94877632      -0.58771233      -8.73452752
Si      10.51857769       8.36908379       5.73219710      -0.13062551      -0.30884212      -0.57839685       0.69660354       0.10470703       0.68343058      -8.73758440
Si      12.53952991       9.41535191       8.85870637      -0.12702430       0.13622052       0.04515909      -0.87770402      -0.33612786       1.05334474      -8.65374737
Si      10.59082430      10.48185255       2.69505817       0.90110923       0.41079260       0.15237260       0.35218969      -0.30097600       1.25351453      -8.67227868
Si      12.52574038      11.75521228       5.85779561      -0.32376912      -0.06856398      -0.18893476      -0.90545750      -0.80984496       0.50472723      -8.68843571
Si      14.61187221      12.55234927       9.08116528      -0.13317174       1.07858110       0.57887172      -0.95438425      -0.09876838       0.03316653      -8.35059172
Si      10.56873094       3.87306525       2.89971674       0.19115038       0.22871963       2.12524089      -0.91500085       0.25733184      -0.21361710      -8.68127624
Si      12.45127681       4.98197889       5.77736005       0.16575289       0.12178232       1.40986850       0.32727419       0.43164897       1.13179470      -8.69720961
Si      14.32490213       6.14375756       9.04452705      -0.34942730       0.29239833       1.98685988      -0.45431322      -0.83576180       0.26224339      -8.73612294
Si      12.62416937       7.14822590       2.64475129      -1.06624779       0.05581239       0.51708445      -0.53165117       0.97830986       0.32526522      -8.71624424
Si      14.47733899       8.24528844       5.92663027       0.57632664       0.15183230       1.84387905      -0.59055766      -0.10982544      -0.10277816      -8.72126835
Si      16.38267944       9.34509824       9.15216823       0.33209291      -0.13272723       0.89333312      -0.22507340       0.07392617       0.14697443      -8.68287250
Si      14.42114574      10.61309840       2.88090209       0.39340680      -0.20660028      -0.61318339       0.08780225      -0.32392397      -1.07349631      -8.75292636
Si      16.30401118      11.52358168       5.91764130      -0.97428705      -0.83820776       1.46156160       1.18192232       0.48928809      -0.02725350      -8.69109938
Si      18.29867727      12.82533196       9.03475637      -0.61974101       1.02401016       0.45244646      -0.02575019      -0.73854440      -0.32494049      -8.70282523
Si      14.36625756       3.76345426       2.80579444       1.37519991      -1.11369919      -0.05584533       0.31654798       0.83355236      -1.25824704      -8.59188564
Si      16.41844016       5.02881938       5.88861991      -0.00270515       0.13896582       0.04176056      -0.04087311      -0.37752174       0.52512917      -8.70359443
Si      18.09120342       6.05740359       9.25107134      -0.06586524       0.43623523      -0.49790291      -0.35574485       1.17846795      -0.56846059      -8.38903898
Si      16.36317303       7.21430484       2.77438335       0.12175473      -1.28620810       0.27634222      -0.48524989      -0.22450530      -0.45027415      -8.69105980
Si      18.17407473       8.35976425       5.90394773       0.58628798       0.80020952      -0.84689305       0.75532511       0.29624234       0.17977423      -8.62548085
Si      20.29200232       9.51660299       8.91556181       0.00273821      -0.32927900       0.61670440      -0.85643560      -0.58262011      -0.46501398      -8.71058381
Si      18.30239055      10.54049766       2.81860728      -1.48770741      -0.05546881       0.54788587       0.07319635      -0.29307774       0.29246421      -8.70118636
Si      20.24046812      11.76148277       5.97439901      -0.45668341      -2.63713465      -2.08243054       0.14946661       0.15064161      -0.77424070      -8.70131323
Si      22.15193125      12.75931978       9.19417932      -0.55752401      -1.00179283      -0.30485909      -0.67102103       0.63432738      -0.26582134      -8.70367097
Si       0.98152723       0.52133499       0.50034780      -0.41847798       0.31721950      -0.98746975       0.40331573      -0.78189309      -0.11635840      -8.48133352
Si       2.93952028       1.58464216       3.54018819      -0.33502530       0.66511917      -0.08830325      -0.19929623       0.18470052       0.79286524      -8.74038253
Si       4.84327098       2.86110609       6.86872129       0.05240539       0.36779919       1.19573247       0.18769938      -0.22113283      -1.09378193      -8.69997697
Si       2.78895717       3.94022893       0.24881881      -0.26103612      -0.26481365       0.48191888      -0.67274654       0.29459433       1.82752682      -8.43369093
Si       4.76123342       4.93087363       3.51696126       0.72343968      -0.71115240       0.34910557      -0.23232037       0.59405421       0.18636775      -8.72671565
Si       6.71737448       6.18350809       6.85046987      -1.24155296      -0.79880048       0.28081774      -0.31091989      -0.28851129      -0.54231397      -8.50361900
Si       4.81363726       7.19482519       0.35495159      -0.82694581       1.59680008      -1.00352130       0.99639243      -0.16978969       0.72824476      -8.70081214
Si       6.77571245       8.27098232       3.50753786       0.68990019      -0.56059912      -1.38687341      -0.82307532       0.37017277       0.66494392      -8.71274250
Si       8.66598062       9.53081574       6.53661357      -0.75771340      -0.86584902      -1.02047393      -0.59485265      -0.55962875       0.60278720      -8.72354499
Si       4.84253025       0.49540058       0.44493549       0.41089366       1.19218472       0.09987173      -0.01383233       0.49130198      -0.84071518      -8.56892244
Si       6.74663608       1.67580637       3.51469967       0.51199996       0.87777894      -0.20275205      -0.88806701       0.78582762       0.00384358      -8.67615501
Si       8.71142735       2.61560588       6.67620458       0.74901100      -0.99649357      -1.10941948      -0.27463309       0.97391465       0.48133298      -8.52193690
Si       6.63235418       3.86293043       0.41966375      -0.04943898       1.72406821      -0.11069173       0.34454559       0.90129807      -1.13698414      -8.64449374
Si       8.55415535       5.02171316       3.57706881       0.36114313       0.80191579      -0.05118644       0.57940975      -1.45864023       0.64325027      -8.58111151
Si      10.57694086       6.20760426       6.64169142       0.35676757       1.31163627      -2.00531902       0.35423056      -0.41208919       0.42725618      -8.51224826
Si       8.62941094       6.99680157       0.50171223       0.72936354      -0.14243925       0.30807001       0.21404726       0.47807158      -0.44778935      -8.64508942
Si      10.58969382       8.17033026       3.43899794      -0.58197605      -1.12149089      -0.43642562       0.64769757       0.69590913      -0.46192097      -8.65050177
Si      12.54320891       9.42770947       6.53843363       0.87003838       1.19869439       0.24135693      -0.39964329       0.24453166      -0.28548402      -8.68007629
Si       8.58294297       0.61317802       0.49051222       0.19420431       0.32697563       1.72209044       0.95166039      -0.26292367       0.09349582      -8.64788197
Si      10.57944864       1.64211805       3.59521875       0.88462697      -0.72355695      -0.82974975       0.35004503      -0.14639343       0.06102524      -8.71146282
Si      12.44722002       2.78015985       6.64166848       1.66403698      -0.41073359       1.39258631      -0.09507686      -0.07127514       0.17121224      -8.72188595
Si      10.32959407       3.84607110       0.57272925       0.38375325       0.84716279       0.25561181       1.22030226       0.22694688      -0.09354562      -8.61852280
Si      12.49001665       5.02809283       3.47195557      -0.99155016      -0.39580192       0.67594736       0.51257900      -0.75210825       0.17551474      -8.75666087
Si      14.45785559       6.00498286       6.73564432      -0.72351976       0.49615798      -0.48413819      -0.53136694       0.38085758      -0.98815365      -8.67760094
Si      12.55168704       7.17422580       0.31606257       0.92363217      -0.47719831      -0.95952755       0.22205113       0.59502209       0.03740438      -8.69854288
Si      14.41268104       8.40769934       3.57113966       0.45068652      -0.79238365       0.07642863       0.64961369      -0.99313947      -0.05360193      -8.70926613
Si      16.24735608       9.42685847       6.84905588      -2.42161469      -0.13519706      -0.77227293       0.57530721      -0.69952630      -0.77478222      -8.70452882
Si       8.48112366       4.87905320       8.35371909       1.59532705      -0.59205561       0.16157609       0.00559815      -0.13270885       0.38711056      -7.80458297
55
Lattice="11.5478352 0.0 0.0 5.773917198490155 10.000722372470358 0.0 5.773916394327279 3.333571176804646 9.428767828939895" Properties=species:S:1:pos:R:3:momenta:R:3:forces:R:3:energies:R:1 spacegroup="_JSON {\"number\": 1, \"setting\": 1}" unit_cell=conventional occupancy="_JSON {\"0\": {\"Si\": 1.0}, \"1\": {\"Si\": 1.0}, \"2\": {\"Si\": 1.0}, \"3\": {\"Si\": 1.0}, \"4\": {\"Si\": 1.0}, \"5\": {\"Si\": 1.0}, \"6\": {\"Si\": 1.0}, \"7\": {\"Si\": 1.0}, \"8\": {\"Si\": 1.0}, \"9\": {\"Si\": 1.0}, \"10\": {\"Si\": 1.0}, \"11\": {\"Si\": 1.0}, \"12\": {\"Si\": 1.0}, \"13\": {\"Si\": 1.0}, \"14\": {\"Si\": 1.0}, \"15\": {\"Si\": 1.0}, \"16\": {\"Si\": 1.0}, \"17\": {\"Si\": 1.0}, \"18\": {\"Si\": 1.0}, \"19\": {\"Si\": 1.0}, \"20\": {\"Si\": 1.0}, \"21\": {\"Si\": 1.0}, \"22\": {\"Si\": 1.0}, \"23\": {\"Si\": 1.0}, \"24\": {\"Si\": 1.0}, \"25\": {\"Si\": 1.0}, \"26\": {\"Si\": 1.0}, \"27\": {\"Si\": 1.0}, \"28\": {\"Si\": 1.0}, \"29\": {\"Si\": 1.0}, \"30\": {\"Si\": 1.0}, \"31\": {\"Si\": 1.0}, \"32\": {\"Si\": 1.0}, \"33\": {\"Si\": 1.0}, \"34\": {\"Si\": 1.0}, \"35\": {\"Si\": 1.0}, \"36\": {\"Si\": 1.0}, \"37\": {\"Si\": 1.0}, \"38\": {\"Si\": 1.0}, \"39\": {\"Si\": 1.0}, \"40\": {\"Si\": 1.0}, \"41\": {\"Si\": 1.0}, \"42\": {\"Si\": 1.0}, \"43\": {\"Si\": 1.0}, \"44\": {\"Si\": 1.0}, \"45\": {\"Si\": 1.0}, \"46\": {\"Si\": 1.0}, \"47\": {\"Si\": 1.0}, \"48\": {\"Si\": 1.0}, \"49\": {\"Si\": 1.0}, \"50\": {\"Si\": 1.0}, \"51\": {\"Si\": 1.0}, \"52\": {\"Si\": 1.0}, \"53\": {\"Si\": 1.0}, \"54\": {\"Si\": 1.0}}" energy=-475.13224059834425 stress="-0.009367425078807891 0.0013298358760559775 0.0010468082337099533 0.0013298358760559775 -0.013330106195593433 0.0012140324461294028 0.0010468082337099533 0.0012140324461294028 -0.0034367603072772528" free_energy=-475.13224059834425 pbc="T T T"
Si       6.61338734       3.96383060       2.68253043      -0.81970415      -0.47984034       0.71814744       1.33193092      -0.64671846       0.38544935      -8.68894398
Si       8.67300247       4.94891808       5.94593177      -0.26562103      -0.21535271      -1.20781211      -0.24201644       0.31819219       0.26656452      -8.50773602
Si      10.53698824       6.13005533       8.99653845       1.85974225      -0.35809633      -2.77652984      -0.14148585       0.31343561      -0.37834384      -8.52016111
Si       8.60828534       7.13844227       2.77703088      -0.09163466       0.93732824      -1.13908813       0.52200075       0.03968490      -0.06978913      -8.73493866
Si      10.54022923       8.36693700       5.72377012       0.92852002       0.36770550       0.14008387       0.60013129       0.64251266       0.24733346      -8.69964552
Si      12.50429902       9.42211395       8.89626124      -1.05260462       0.40531686       1.18454784      -0.24466962       0.77811285       0.27661375      -8.68493626
Si      10.64308558      10.49140259       2.74580875       0.91395263      -0.00970184       1.55433291      -0.34053089      -0.15903545       0.39367417      -8.65741048
Si      12.48118241      11.73005378       5.86767974      -1.17660066      -0.66462284       0.51536223      -0.14221755       0.06854925       0.30615989      -8.72958234
Si      14.57139355      12.59944912       9.10904975      -1.30980024       0.63553424       0.43579384      -0.57077595      -0.42386036      -0.16414088      -8.33272354
Si      10.54337785       3.88723458       2.98793923      -1.03553059       0.14693810       1.02599996      -0.43088265      -0.37495265      -1.06151748      -8.68867061
Si      12.47102187       4.99880753       5.87952461       0.53631945       0.35642309       2.15777269       0.13218445      -0.21102607      -0.13664464      -8.74065925
Si      14.29799196       6.13146973       9.14308445      -0.46040104      -0.60015630       1.51473105       0.36992716      -0.21748064      -0.75165722      -8.68502134
Si      12.55761714       7.17770648       2.67642684      -1.23586507       0.78656609       0.55966965       0.39290677      -0.10319986      -0.18964261      -8.73589919
Si      14.46953572       8.24438451       5.99762626      -1.09135657      -0.23333405       0.51465545      -1.39719863      -0.25901881      -1.45185488      -8.71040253
Si      16.39379266       9.34550925       9.18867698       0.16565230       0.23898357       0.23296371       0.05653847       0.41720098      -0.88979637      -8.68081491
Si      14.44320544      10.58905796       2.82634139       0.39652784      -0.70809895      -1.01482519      -0.10695162      -0.32332294       0.67259216      -8.75113251
Si      16.31302844      11.50278280       5.97594592       1.41112469       0.10061155       0.55697377       1.54507956       0.72329624      -0.83457178      -8.64763135
Si      18.27710152      12.84613129       9.05072799      -0.00878729      -0.25580013       0.26105936       0.72021148      -0.84273208       0.07942655      -8.68600679
Si      14.43667547       3.74998808       2.75955008       1.08868988       0.69496129      -1.51105010      -0.56110568       1.20811053      -0.46612824      -8.65843476
Si      16.40877285       5.01965325       5.91034220      -0.53178071      -0.49257224       0.72013080      -0.68584183      -0.39378131       0.27879825      -8.72218034
Si      18.07692449       6.11712180       9.20581178      -0.37380548       1.59616997      -1.14910398       0.05795806       0.24421680      -0.26833270      -8.48905511
Si      16.35328040       7.14539357       2.76753266      -0.41850008      -1.20993246      -0.56349838      -0.18012856       0.28919760      -0.55807143      -8.69909022
Si      18.21787193       8.39972072       5.86759635       0.74303987       0.44817454      -0.54112372      -0.57629365      -0.77878449       0.17930092      -8.58784389
Si      20.26600980       9.47775723       8.92278046      -0.78912880      -1.09810433      -0.36599728      -0.09309016      -0.38668492      -0.57410359      -8.70625671
Si      18.24539159      10.52451829       2.84362809      -0.38433796      -0.56749401       0.14432513       1.22782815      -0.33158169      -0.72834857      -8.68692643
Si      20.22934748      11.64833636       5.85530004       0.09372105      -1.41637246      -2.02694838       0.40788068       1.17466078       0.92371155      -8.67819313
Si      22.10114644      12.74832973       9.17228231      -1.25330404       0.77684285      -0.48627610      -0.18113545       1.36168045      -0.09613229      -8.71019320
Si       0.97176511       0.51074557       0.45294335      -0.03877926      -0.59268426      -0.69329917       0.07439016      -0.29731045       0.38584025      -8.48797215
Si       2.91636861       1.61063606       3.55464689      -0.49226648       0.11353186       0.34222079       0.01828568      -0.63791042      -0.37325136      -8.76396593
Si       4.84432880       2.86418869       6.87589924      -0.16998148      -0.37582612      -1.04310606      -0.44495514      -0.72155725      -1.57555834      -8.64042295
Si       2.76452107       3.93014609       0.33543754      -0.37826478      -0.25656661       2.53048514       0.44331102      -0.22316086       0.67694886      -8.52395467
Si       4.77917826       4.91924887       3.54556733      -0.18959367       0.28385344       0.79535360      -0.80221528       0.64997163       0.38132702      -8.73015225
Si       6.65261297       6.14126285       6.84050782      -0.98265193      -0.61483199      -0.70313610       0.64326215       0.48143571      -0.71859438      -8.50586176
Si       4.80788474       7.25167718       0.33731018       0.46414392       0.26909597       0.36566770       0.46199726      -1.30496398       0.87395595      -8.69044195
Si       6.77056574       8.25973048       3.46740423      -0.98164389       0.14508476      -0.07093401      -1.18870583       0.41567371       0.95021716      -8.69957542
Si       8.61348961       9.46256962       6.51459534      -0.98633807      -1.66871023       0.26218923       0.40753186      -0.29391013       0.93058122      -8.75981472
Si       4.85917580       0.57244948       0.42481440       0.16019614       1.61433899      -0.65541199      -0.25431240      -0.02303975      -0.04718629      -8.58063153
Si       6.74421995       1.74387501       3.50383674      -0.43851474       1.47923316      -0.18771657      -0.26152925      -0.14559579       0.10357765      -8.71065268
Si       8.72653846       2.60844908       6.64428000      -0.33315677       0.75915296      -0.04238102      -0.87771912       1.11178338       0.75186460      -8.48552875
Si       6.63865256       3.97636300       0.37691762       0.20180189       2.29399139      -1.24809691       0.00938070      -0.31459286      -0.11267029      -8.69601794
Si       8.58167591       5.00798863       3.59256023       0.42564441      -1.12234966       0.45295538      -0.45607399      -0.72108906      -0.08326714      -8.62429740
Si      10.60325437       6.24767658       6.56107525       0.51996591       0.02948994      -0.97952816      -0.13875540      -1.13083175       0.76958828      -8.54031856
Si       8.66914501       7.00929448       0.49591310       0.64629344       0.61841385      -0.59710755      -0.32606521       0.48504130      -0.71726316      -8.63018687
Si      10.58171041       8.14791544       3.40284412       0.17780253       0.40916386      -0.79215281       0.26590380       1.26263565       0.11003375      -8.67635475
Si      12.56673445       9.48962154       6.54148957      -0.07278750       0.95753496      -0.02351119      -0.80288125      -0.55557187       0.09421926      -8.66585449
Si       8.62123427       0.61593958       0.56727752       1.04642849      -0.28725864       0.85641715       0.10613409      -0.51054193      -1.25330919      -8.67893256
Si      10.62365421       1.60570655       3.57078927       0.49882828      -0.51719029       0.12917452      -0.79747846       0.41181198       0.97546201      -8.69662494
Si      12.52184025       2.75443543       6.71213863       1.09007977      -0.57342911       1.12629261      -0.46974027      -0.08854032      -0.48898611      -8.69395367
Si      10.39005269       3.89117954       0.59209403       1.68435289       0.70772617       0.61138670       0.31731141      -0.39928978       0.42453402      -8.65737440
Si      12.47244797       4.98460750       3.51672972       0.47789542      -1.08199189       1.06342594       1.12711498      -0.07859151       0.29336398      -8.70151238
Si      14.40718046       6.04086328       6.69419413      -1.02914083       0.75768290      -0.66822606       0.16889617      -0.06292485       0.68687121      -8.68031085
Si      12.59838959       7.17760638       0.27927591       0.64848086       0.65306197      -0.24200174      -0.57601697       0.77979289       0.82759409      -8.68048973
Si      14.45489967       8.33580838       3.57899990       0.98856334      -1.74789971       0.28884453      -0.01784116      -0.22230643       0.20659786      -8.68251934
Si      16.16900169       9.39505894       6.80086088      -0.14221191      -0.96829660      -0.70360323       2.20044652      -0.31200362       0.60931385      -8.63246835
Si       8.56084994       4.84827591       8.37083832       1.36632703      -0.46639794       0.37150278      -0.29992928       0.31891525      -0.07235367      -7.79555944
55
Lattice="11.5478352 0.0 0.0 5.773917198490155 10.000722372470358 0.0 5.773916394327279 3.333571176804646 9.428767828939895" Properties=species:S:1:pos:R:3:momenta:R:3:forces:R:3:energies:R:1 spacegroup="_JSON {\"number\": 1, \"setting\": 1}" unit_cell=conventional occupancy="_JSON {\"0\": {\"Si\": 1.0}, \"1\": {\"Si\": 1.0}, \"2\": {\"Si\": 1.0}, \"3\": {\"Si\": 1.0}, \"4\": {\"Si\": 1.0}, \"5\": {\"Si\": 1.0}, \"6\": {\"Si\": 1.0}, \"7\": {\"Si\": 1.0}, \"8\": {\"Si\": 1.0}, \"9\": {\"Si\": 1.0}, \"10\": {\"Si\": 1.0}, \"11\": {\"Si\": 1.0}, \"12\": {\"Si\": 1.0}, \"13\": {\"Si\": 1.0}, \"14\": {\"Si\": 1.0}, \"15\": {\"Si\": 1.0}, \"16\": {\"Si\": 1.0}, \"17\": {\"Si\": 1.0}, \"18\": {\"Si\": 1.0}, \"19\": {\"Si\": 1.0}, \"20\": {\"Si\": 1.0}, \"21\": {\"Si\": 1.0}, \"22\": {\"Si\": 1.0}, \"23\": {\"Si\": 1.0}, \"24\": {\"Si\": 1.0}, \"25\": {\"Si\": 1.0}, \"26\": {\"Si\": 1.0}, \"27\": {\"Si\": 1.0}, \"28\": {\"Si\": 1.0}, \"29\": {\"Si\": 1.0}, \"30\": {\"Si\": 1.0}, \"31\": {\"Si\": 1.0}, \"32\": {\"Si\": 1.0}, \"33\": {\"Si\": 1.0}, \"34\": {\"Si\": 1.0}, \"35\": {\"Si\": 1.0}, \"36\": {\"Si\": 1.0}, \"37\": {\"Si\": 1.0}, \"38\": {\"Si\": 1.0}, \"39\": {\"Si\": 1.0}, \"40\": {\"Si\": 1.0}, \"41\": {\"Si\": 1.0}, \"42\": {\"Si\": 1.0}, \"43\": {\"Si\": 1.0}, \"44\": {\"Si\": 1.0}, \"45\": {\"Si\": 1.0}, \"46\": {\"Si\": 1.0}, \"47\": {\"Si\": 1.0}, \"48\": {\"Si\": 1.0}, \"49\": {\"Si\": 1.0}, \"50\": {\"Si\": 1.0}, \"51\": {\"Si\": 1.0}, \"52\": {\"Si\": 1.0}, \"53\": {\"Si\": 1.0}, \"54\": {\"Si\": 1.0}}" energy=-475.37973638033816 stress="-0.006393691328107643 0.002093183135828925 0.0012355507970229407 0.002093183135828925 -0.01086553448263151 0.0016171624517320302 0.0012355507970229407 0.0016171624517320302 -0.0068370101238601445" free_energy=-475.37973638033816 pbc="T T T"
Si       6.61701311       3.92856065       2.72143072       0.73126817      -0.55268880       0.55617866       0.48508919       0.52987328      -0.44053580      -8.69468056
Si       8.65010765       4.95226258       5.90325459      -0.60360108       0.37741702      -0.29095593      -0.22731193       0.45586008       0.76542895      -8.52488031
Si      10.62077155       6.13246422       8.85310030       1.22796545       0.55371650      -2.34377896      -0.57854498       0.73126190       0.99280350      -8.45966926
Si       8.61749446       7.17947918       2.72567505       0.28443242       0.51614192      -0.64309559      -0.07531031      -0.41688396       0.61463915      -8.69525028
Si      10.60333648       8.40443002       5.73666663       1.27236930       0.85293476       0.29916661      -0.20878573      -0.15831476       0.02944303      -8.69187281
Si      12.45288920       9.48332280       8.95314575      -0.66099135       1.97028921       0.73251968       0.71802853       0.91423026      -0.69702720      -8.68667067
Si      10.67082039      10.49214956       2.82446614       0.05058263       0.20751250       1.12659494      -0.70857511       0.50672239      -0.86259065      -8.65795333
Si      12.42699334      11.70812092       5.89718754      -0.65444606      -0.04224059       0.42794700       0.78275232       0.57006764      -0.39267440      -8.72596851
Si      14.48881662      12.61691424       9.12504307      -1.68182823       0.08545334       0.16496747       0.04441367      -0.20370962      -0.20575257      -8.33409164
Si      10.49293844       3.87596744       3.00122867      -0.51105459      -0.61007669      -0.43321293       1.00788510      -0.50741235      -0.72879451      -8.70518240
Si      12.50066566       4.99847600       5.97390596       0.54480539      -0.54537636       1.24980075      -0.05296680      -0.89232232      -0.89423084      -8.72569099
Si      14.29623686       6.10398567       9.18829688       0.49262070      -0.23714309       0.16926425       0.77309640       0.60292109      -0.91471529      -8.60642150
Si      12.52053553       7.20161424       2.69710810      -0.01960895      -0.05950627       0.25198860       0.99777618      -0.82868420      -0.09726526      -8.69481771
Si      14.37345090       8.23241667       5.97080754      -2.14671997      -0.00595203      -1.36079866       0.20544831       0.53872965      -0.79010353      -8.76086635
Si      16.40817985       9.37373595       9.16514014       0.42260363       0.77781381      -1.06604401       0.21167073       0.19435411      -0.65053669      -8.70191123
Si      14.45699494      10.54128667       2.81557388       0.08207992      -1.07354988       0.73727923      -0.29372269      -0.16935410       1.20362825      -8.68326300
Si      16.42501717      11.53456117       5.98043821       2.38442681       1.02751947      -0.18316217      -0.27836286       0.39345248      -0.06416961      -8.71395138
Si      18.30265433      12.80803212       9.07023935       0.87336839      -0.99178674       0.49214073       0.30798292      -0.04602280       0.11182383      -8.69692948
Si      14.46877594       3.81755948       2.68858652       0.12837825       1.54328944      -0.64378525      -0.60253410      -0.08545069       1.64806817      -8.70710599
Si      16.35114187       4.98411152       5.95229398      -1.65141087      -0.72871711       0.77353046      -0.63284249       0.12168534      -0.13126681      -8.73444162
Si      18.07007992       6.19536066       9.14054303       0.30654521       1.14579815      -1.25084449       0.80388819      -0.70474405       0.07846328      -8.47470646
Si      16.32975646       7.09728905       2.72306905      -0.39316490      -0.57062449      -0.95583942       0.15006046       0.50765309       0.13212273      -8.73780438
Si      18.22355382       8.38441155       5.84570346      -0.59129580      -1.10945724      -0.28327034      -0.81479547      -1.08790191       0.22282576      -8.66926580
Si      20.22942792       9.41091711       8.89493003      -0.51200010      -1.33264643      -0.38001561       0.28722497       0.07998872       0.64786688      -8.69204102
Si      18.26848338      10.48879214       2.82018425       1.04062605      -0.62753944      -1.01067234       0.38744792       0.29711548      -0.63575998      -8.71978217
Si      20.24531495      11.61531638       5.80297688       0.39597021      -0.00424214       0.21510743      -0.06316314       0.55798993       1.61886547      -8.68574689
Si      22.04067059      12.82292317       9.13923049      -0.79287729       1.59641001      -0.87855455       0.83111906      -0.42970082      -0.50279075      -8.70626638
Si       0.96775389       0.47865034       0.43134070      -0.20217108      -0.44725690      -0.17217444      -0.27314373       0.42558234       0.22571560      -8.49944998
Si       2.89564884       1.59775227       3.54287168      -0.21549591      -0.44129572      -0.94912289       0.33964784      -0.02023606      -0.96423904      -8.73142314
Si       4.81284214       2.81575818       6.77497815      -1.10480791      -1.43111296      -2.44299373      -0.72745194      -0.56211198      -0.18631394      -8.71283722
Si       2.76646553       3.90813200       0.46191906       0.47194334      -0.54627767       1.61542254       0.55270794      -0.10116612      -1.93481725      -8.46974897
Si       4.74622742       4.95230798       3.59833172      -0.83905250       0.80765958       1.10616837       0.05681113       0.00680916      -0.03576720      -8.71453346
Si       6.63241217       6.13125253       6.77777606       0.24468065       0.22837427      -1.63384749       0.77268508       0.46204676      -0.50521708      -8.53655144
Si       4.83246210       7.22649708       0.37909582       0.12390888      -0.89046282       0.96802925      -0.90105269      -0.03821545      -0.13058062      -8.70609483
Si       6.68489751       8.27468008       3.49364474      -1.99585549       0.24085101       0.88118443      -0.08396113      -0.28130723       0.21399254      -8.72362837
Si       8.59069922       9.37701627       6.55652739       0.27392098      -1.37134132       1.11964796       1.01004787       0.55637109       0.08973513      -8.75262433
Si       4.85994920       0.64499161       0.39852552      -0.06276780       0.95707030      -0.21747657      -0.00135402      -0.77898752       0.46843120      -8.50386759
Si       6.72175582       1.79690307       3.50383425      -0.24215943       0.20742067       0.30124880       0.43088034      -1.43940497       0.53600593      -8.68981576
Si       8.68563730       2.67793262       6.66570431      -0.98470845       1.60731428       0.74280358       0.03475905       0.02737472       0.30870461      -8.51114329
Si       6.64834147       4.06275032       0.32537622       0.17607893       0.68598377      -0.45798117       0.03854494      -1.50206216       0.89872573      -8.63610365
Si       8.57847185       4.94224870       3.60242487      -0.61040776      -1.02832168      -0.23071712      -0.68631922       0.67251839      -0.68520657      -8.65099806
Si      10.62001994       6.21112626       6.53181711       0.04793959      -1.23161870      -0.35813876      -0.41901124      -0.41351555      -0.08447450      -8.56304094
Si       8.68612802       7.05668026       0.43909414      -0.03434866       1.09629883      -1.47890742      -0.46562549       0.12414656      -0.36414033      -8.65403720
Si      10.59399148       8.21562598       3.37553242       0.18989891       2.02955208      -0.09695444      -0.11655972       0.69976583       0.70608654      -8.72847189
Si      12.53171163       9.51278187       6.55270948      -1.21824664      -0.09353308       0.59331790      -0.62386331      -0.62398214       0.65082529      -8.68756252
Si       8.66669546       0.58442051       0.55896850       0.44044823      -0.79628336      -1.06919290      -0.86289682      -0.05096568      -0.85993418      -8.74059806
Si      10.61822936       1.59556031       3.61078352      -0.59115532       0.08281734       1.21862456      -0.38582202       0.24299607       0.30175797      -8.72755706
Si      12.56449550       2.72423015       6.74810472       0.63707517      -0.50210451       0.22631862      -0.08192769       0.20825598      -0.56254020      -8.71160698
Si      10.47303161       3.91095033       0.63812926       1.19266455       0.07829113       1.03586368      -0.79769114      -0.29216643      -0.00655454      -8.67052465
Si      12.52915946       4.93381798       3.58002441       1.38488599      -0.71626916       1.25586733      -0.01728345       0.47390319      -0.06585114      -8.64381996
Si      14.36875890       6.07274796       6.69958859      -0.31304847       0.39767524       1.05077288       0.64229153      -0.28965025       1.38930309      -8.67073694
Si      12.60690321       7.23307911       0.30057433      -0.30268448       1.21473594       1.03245283      -0.51119059      -0.18535401       0.75788545      -8.70965823
Si      14.49419905       8.24714651       3.59792662       0.30727181      -1.44132000       0.31772599      -0.80706247       0.53051250      -0.24179877      -8.69339545
Si      16.23850385       9.33759798       6.78541500       2.43956684      -1.13457510      -0.03299690       0.87737402       0.06699904       0.07254262      -8.68628529
Si       8.61780557       4.84132662       8.38571528       0.76758269       0.27497966       0.20259954      -0.45050141       0.61044006      -0.05004147      -7.76638901
55
Lattice="11.5478352 0.0 0.0 5.773917198490155 10.000722372470358 0.0 5.773916394327279 3.333571176804646 9.428767828939895" Properties=species:S:1:pos:R:3:momenta:R:3:forces:R:3:energies:R:1 spacegroup="_JSON {\"number\": 1, \"setting\": 1}" unit_cell=conventional occupancy="_JSON {\"0\": {\"Si\": 1.0}, \"1\": {\"Si\": 1.0}, \"2\": {\"Si\": 1.0}, \"3\": {\"Si\": 1.0}, \"4\": {\"Si\": 1.0}, \"5\": {\"Si\": 1.0}, \"6\": {\"Si\": 1.0}, \"7\": {\"Si\": 1.0}, \"8\": {\"Si\": 1.0}, \"9\": {\"Si\": 1.0}, \"10\": {\"Si\": 1.0}, \"11\": {\"Si\": 1.0}, \"12\": {\"Si\": 1.0}, \"13\": {\"Si\": 1.0}, \"14\": {\"Si\": 1.0}, \"15\": {\"Si\": 1.0}, \"16\": {\"Si\": 1.0}, \"17\": {\"Si\": 1.0}, \"18\": {\"Si\": 1.0}, \"19\": {\"Si\": 1.0}, \"20\": {\"Si\": 1.0}, \"21\": {\"Si\": 1.0}, \"22\": {\"Si\": 1.0}, \"23\": {\"Si\": 1.0}, \"24\": {\"Si\": 1.0}, \"25\": {\"Si\": 1.0}, \"26\": {\"Si\": 1.0}, \"27\": {\"Si\": 1.0}, \"28\": {\"Si\": 1.0}, \"29\": {\"Si\": 1.0}, \"30\": {\"Si\": 1.0}, \"31\": {\"Si\": 1.0}, \"32\": {\"Si\": 1.0}, \"33\": {\"Si\": 1.0}, \"34\": {\"Si\": 1.0}, \"35\": {\"Si\": 1.0}, \"36\": {\"Si\": 1.0}, \"37\": {\"Si\": 1.0}, \"38\": {\"Si\": 1.0}, \"39\": {\"Si\": 1.0}, \"40\": {\"Si\": 1.0}, \"41\": {\"Si\": 1.0}, \"42\": {\"Si\": 1.0}, \"43\": {\"Si\": 1.0}, \"44\": {\"Si\": 1.0}, \"45\": {\"Si\": 1.0}, \"46\": {\"Si\": 1.0}, \"47\": {\"Si\": 1.0}, \"48\": {\"Si\": 1.0}, \"49\": {\"Si\": 1.0}, \"50\": {\"Si\": 1.0}, \"51\": {\"Si\": 1.0}, \"52\": {\"Si\": 1.0}, \"53\": {\"Si\": 1.0}, \"54\": {\"Si\": 1.0}}" energy=-475.26514332859006 stress="-0.007476800908121523 -0.0006667071279294188 -0.0003267455465252819 -0.0006667071279294188 -0.0073735293241237254 -0.00032180583493796397 -0.0003267455465252819 -0.00032180583493796397 -0.009998347083549922" free_energy=-475.26514332859006 pbc="T T T"
Si       6.65595239       3.92175219       2.73232259       0.44079326       0.17490156      -0.10633430      -0.73353678       0.10427744      -0.31416399      -8.70745041
Si       8.61069186       4.98801002       5.91091438      -0.86514529       0.91568679       0.38824966      -0.08766896       0.17695318       0.02220455      -8.59197678
Si      10.66175082       6.18490121       8.78322526       0.33541056       1.31498268      -0.16111614      -0.57999809       0.22950657       1.61172296      -8.42609065
Si       8.62341938       7.19232570       2.71600339      -0.13062312       0.03894118       0.22631872      -0.36370185      -0.16522584       0.44137351      -8.63148257
Si      10.64881236       8.42863333       5.75195740       0.24634893      -0.16465329       0.25588994      -1.03612026      -1.07466561      -0.07226101      -8.69253239
Si      12.44970625       9.59882478       8.96572617       0.48808179       1.96038614      -0.14174845       0.51303487      -0.89216911      -0.27663014      -8.70618667
Si      10.64919391      10.52993283       2.84117808      -0.76083014       1.30927968      -0.59814140      -0.26352589       0.79038493      -1.30021729      -8.70432504
Si      12.42760730      11.72242054       5.90159638       0.67754664       0.43937424      -0.24254176       0.78720102       0.01225823      -0.33020979      -8.71078521
Si      14.40949764      12.62236189       9.12475665      -1.22840898       0.30715605      -0.18712442       0.49679799       0.51004073      -0.24365723      -8.33872227
Si      10.50752183       3.83162127       2.96390432       0.99248004      -0.90604307      -0.71470447       0.75632571       0.16376089       0.32424984      -8.70570403
Si      12.52880825       4.93873096       6.00570447       0.57596051      -1.57015146       0.04384521       0.12286989      -0.26607067      -0.59205664      -8.72349441
Si      14.34884228       6.11651822       9.16942921       1.41038589       0.68079303      -0.66700313       0.37602656       0.48346538      -0.03953257      -8.67279059
Si      12.54869891       7.17006143       2.71358420       0.82958579      -1.01667779       0.51902075      -0.01275074      -0.35469169       0.45239462      -8.69263139
Si      14.28915066       8.25271795       5.88975298      -0.79212292       0.70509306      -1.31540467       1.30845416       0.28530746       0.82524055      -8.68067115
Si      16.43526289       9.41488511       9.09733295       0.52248738       0.66350708      -1.25682796      -0.12786506      -0.30602407       0.36145642      -8.71270065
Si      14.44956070      10.48171283       2.88428930      -0.35307488      -1.12855106       1.52736927      -0.24458308       0.10711975      -0.16387424      -8.67095267
Si      16.51951634      11.59256524       5.97846738       0.92540911       0.97649520       0.26051814      -1.44696094      -0.40645685       0.53793661      -8.63581775
Si      18.34876830      12.76629297       9.09402551       0.66259846      -0.43206696       0.28542000      -0.56394660       0.59457748      -0.37760616      -8.70260073
Si      14.45665304       3.88195389       2.72401841      -0.49386333       0.70918956       1.79359273      -0.22004450      -0.89944327       0.92298374      -8.71891685
Si      16.25221590       4.95651749       5.98660547      -1.86306740      -0.25455540       0.53185808       0.36157709       0.39605970      -0.15279091      -8.70961901
Si      18.11752840       6.22476768       9.08030031       1.42265132      -0.03406428      -1.02445759       0.50619648      -0.76178758       0.16425250      -8.44257113
Si      16.31472833       7.08704179       2.69022889      -0.21458273       0.16599830      -0.10626131       0.01932183       0.45875503       0.85826001      -8.73610177
Si      18.18103479       8.29484886       5.84068386      -0.59145985      -2.03491494       0.07022522       0.86031009      -0.03186668       0.12727748      -8.74857455
Si      20.21130173       9.35168816       8.91167305      -0.24576262      -0.78496994       1.11610474       0.03033974       0.63737367       1.02620329      -8.67578659
Si      18.31885405      10.47162923       2.75366985       0.55777097      -0.00887384      -1.28631859      -0.87331795       0.38844948       0.29368904      -8.70032788
Si      20.25342890      11.62116643       5.85670853      -0.30141185      -0.10141611       1.35165426      -0.89931412      -0.73036965      -0.21854541      -8.70771994
Si      22.03783216      12.87011915       9.07042621       0.66615136      -0.04627583      -1.74494020       0.75244639      -1.42488452      -0.50004571      -8.63603948
Si       0.94490123       0.47608815       0.42482201      -0.67444707       0.39792618      -0.20890632      -0.29851647       0.62639329      -0.29003863      -8.53038855
Si       2.89847713       1.58331642       3.47290044       0.28946937       0.05552370      -1.33110182       0.19555841       0.62770274       0.51106642      -8.71135386
Si       4.73531745       2.73148948       6.65941330      -1.56733379      -1.49760414      -1.64858286       0.38013513       0.53949663       1.05158912      -8.74049105
Si       2.81049475       3.87776434       0.46026996       1.18937728      -0.58836004      -1.55790940       0.48239904      -0.00446998      -1.52187484      -8.48725662
Si       4.71584738       4.98798027       3.64819922      -0.15567370       0.46225832       0.69304350       0.70550315      -0.35779372      -0.44054557      -8.68877024
Si       6.66384116       6.14962894       6.68043717       0.69212765       0.19961955      -1.88663688      -0.24186882      -0.60397849       0.24749569      -8.56669425
Si       4.79575356       7.19453266       0.41159463      -1.54785515      -0.11338407       0.06319890      -0.99856840       0.81978556      -0.94036488      -8.66249722
Si       6.59254268       8.27352806       3.53476428      -1.26493468      -0.27391952       0.45547895       0.95377883      -0.25422259      -0.68696026      -8.68917267
Si       8.63462258       9.32845512       6.60535884       1.15738450      -0.49363651       0.56156284       0.08006445       0.52346387      -0.60194649      -8.70359344
Si       4.85927333       0.66241002       0.40291599       0.06091881      -0.28455236       0.29823317       0.09330156      -0.76095121       0.13539257      -8.41941025
Si       6.72830530       1.75266630       3.53961767       0.50104407      -1.73011590       0.98180599       0.47499088      -0.83531346       0.22532844      -8.71286794
Si       8.64440619       2.75253374       6.71157996      -0.45550143       1.08719437       0.91637002       0.56789151      -0.57089136      -0.05387831      -8.49015898
Si       6.66276050       4.05101250       0.33297573       0.45579039      -0.82348198       0.62522766       0.36218064      -0.34629129       0.44805358      -8.63435765
Si       8.53446708       4.92091384       3.56680738      -0.71697089       0.27044176      -1.01412340       0.65169511       0.91122827      -0.26175079      -8.66844398
Si      10.60838792       6.14267998       6.49906666      -0.41244065      -1.18887808      -0.99816239      -0.11381103       0.33321522      -0.49208497      -8.54172658
Si       8.67239441       7.11195667       0.35885895      -0.33012738       0.88594623      -1.34712534       0.15216966      -0.35893863       0.54722229      -8.67166726
Si      10.60208655       8.32910711       3.39693021       0.18216166       1.91233399       0.84509809       0.11064139      -0.77799074       0.44946302      -8.72224274
Si      12.45566785       9.49570891       6.60831414      -1.40776483      -0.30456487       1.45348650       0.42934987       0.33472417       0.36165532      -8.71412877
Si       8.65374822       0.55091961       0.49310549      -0.84044675      -0.31292774      -1.03562742      -0.48938817       0.60334271       0.70860399      -8.75063451
Si      10.58542550       1.60232227       3.67156419      -0.44292209       0.04579121       0.84883687       0.46231926      -0.26507432      -0.67099667      -8.72984146
Si      12.59952936       2.70951011       6.74592851       0.75772800      -0.02378698      -0.13195841       0.13684479       0.33820618       0.11829333      -8.75613351
Si      10.50382075       3.90951486       0.67742562       0.06211257      -0.03270069       0.16409309      -0.50116719       0.10369777      -1.15651828      -8.64691597
Si      12.58559449       4.91674089       3.63797468       0.51748034       0.07218268       0.87099614      -1.00636594       0.50675979      -0.39363370      -8.64540877
Si      14.37234857       6.08760948       6.79926480       0.29595727       0.29971771       2.44995304       0.06013376       0.20507720       0.21925279      -8.73824669
Si      12.57928674       7.27269879       0.37598800      -0.60051328       0.03215638       1.66678242       0.06896906      -1.20555039       0.07018845      -8.71478695
Si      14.47790565       8.19577035       3.59778456      -0.87618704      -0.49551344      -0.43522033      -0.61583756       0.62906294      -0.66820319      -8.73500849
Si      16.37031218       9.28962087       6.77609419       2.04645502      -0.50299452      -0.47633866      -1.23480300       0.80758626      -0.53683907      -8.63289661
Si       8.64146093       4.87794512       8.39851823       0.17180288       1.06675816       0.36038370      -0.30516691       0.40708918       0.23437660      -7.77747577
55
Lattice="11.5478352 0.0 0.0 5.773917198490155 10.000722372470358 0.0 5.773916394327279 3.333571176804646 9.428767828939895" Properties=species:S:1:pos:R:3:momenta:R:3:forces:R:3:energies:R:1 spacegroup="_JSON {\"number\": 1, \"setting\": 1}" unit_cell=conventional occupancy="_JSON {\"0\": {\"Si\": 1.0}, \"1\": {\"Si\": 1.0}, \"2\": {\"Si\": 1.0}, \"3\": {\"Si\": 1.0}, \"4\": {\"Si\": 1.0}, \"5\": {\"Si\": 1.0}, \"6\": {\"Si\": 1.0}, \"7\": {\"Si\": 1.0}, \"8\": {\"Si\": 1.0}, \"9\": {\"Si\": 1.0}, \"10\": {\"Si\": 1.0}, \"11\": {\"Si\": 1.0}, \"12\": {\"Si\": 1.0}, \"13\": {\"Si\": 1.0}, \"14\": {\"Si\": 1.0}, \"15\": {\"Si\": 1.0}, \"16\": {\"Si\": 1.0}, \"17\": {\"Si\": 1.0}, \"18\": {\"Si\": 1.0}, \"19\": {\"Si\": 1.0}, \"20\": {\"Si\": 1.0}, \"21\": {\"Si\": 1.0}, \"22\": {\"Si\": 1.0}, \"23\": {\"Si\": 1.0}, \"24\": {\"Si\": 1.0}, \"25\": {\"Si\": 1.0}, \"26\": {\"Si\": 1.0}, \"27\": {\"Si\": 1.0}, \"28\": {\"Si\": 1.0}, \"29\": {\"Si\": 1.0}, \"30\": {\"Si\": 1.0}, \"31\": {\"Si\": 1.0}, \"32\": {\"Si\": 1.0}, \"33\": {\"Si\": 1.0}, \"34\": {\"Si\": 1.0}, \"35\": {\"Si\": 1.0}, \"36\": {\"Si\": 1.0}, \"37\": {\"Si\": 1.0}, \"38\": {\"Si\": 1.0}, \"39\": {\"Si\": 1.0}, \"40\": {\"Si\": 1.0}, \"41\": {\"Si\": 1.0}, \"42\": {\"Si\": 1.0}, \"43\": {\"Si\": 1.0}, \"44\": {\"Si\": 1.0}, \"45\": {\"Si\": 1.0}, \"46\": {\"Si\": 1.0}, \"47\": {\"Si\": 1.0}, \"48\": {\"Si\": 1.0}, \"49\": {\"Si\": 1.0}, \"50\": {\"Si\": 1.0}, \"51\": {\"Si\": 1.0}, \"52\": {\"Si\": 1.0}, \"53\": {\"Si\": 1.0}, \"54\": {\"Si\": 1.0}}" energy=-475.02968364855553 stress="-0.00949744342124209 -0.0019379003782344223 -0.0014654924903832653 -0.0019379003782344223 -0.008351437216465068 -0.0011152745186420716 -0.0014654924903832653 -0.0011152745186420716 -0.009208131063839739" free_energy=-475.02968364855553 pbc="T T T"
Si       6.64906824       3.92126661       2.72277103      -0.60168522      -0.39495532      -0.08062803      -0.35021160      -0.68519428       0.37393339      -8.69923710
Si       8.56805117       5.03297015       5.92067961      -0.62017452       0.59277415      -0.19756437       0.45953134      -0.62331406      -0.69478772      -8.60440637
Si      10.66064538       6.25263434       8.82475299      -0.25155807       1.07025603       1.43120664      -0.06922703      -0.55208939       0.41971353      -8.43474118
Si       8.60594630       7.19372796       2.73800589      -0.42890736       0.13098989       0.47011846       0.05442994       0.29146240      -0.11783824      -8.63570801
Si      10.62536368       8.37953825       5.76430022      -0.95836537      -1.58571142       0.28106551      -0.35481331      -0.61399543       0.17912345      -8.75058638
Si      12.47818906       9.65386128       8.96075871       0.28809501      -0.00670862       0.20502503      -0.66674310      -1.49271784       0.70731890      -8.66742081
Si      10.61061342      10.61728812       2.76643767      -0.49998294       1.72993207      -2.02737141       0.54136565      -0.31827152      -0.42448969      -8.75235034
Si      12.48223737      11.73900777       5.88549150       1.17577947       0.09168396      -0.17892345      -0.09357196      -0.39162642       0.41027743      -8.69839202
Si      14.36698053      12.66167931       9.10844540      -0.36861193       1.18325726      -0.35150382       0.59989173       0.48484517       0.07826439      -8.37395865
Si      10.57600473       3.79884431       2.94336618       1.36976102      -0.22531525      -0.09993342      -0.22245069       0.62998170       0.21722791      -8.69773751
Si      12.56405705       4.86423195       5.99357199       0.74879273      -0.93321268      -0.35161515       0.05111005       1.04375307       0.00946891      -8.67855598
Si      14.42679562       6.16226824       9.15141690       1.35346170       0.88288948       0.29433225      -0.44102326      -0.22392457       1.15004591      -8.72650275
Si      12.57507562       7.11245590       2.76011963      -0.10876290      -1.00866614       1.23220039      -1.13472160       0.32629470       0.36786668      -8.69493676
Si      14.29676099       8.29541727       5.86511741       0.98282091       0.84917411       0.48428677       0.93811000      -0.00977474       1.26240024      -8.61695644
Si      16.45184583       9.43408406       9.05219040       0.01191513       0.02216238      -0.41980055      -0.51235314      -0.49158446       0.54580413      -8.71723345
Si      14.42610772      10.43216238       2.94263824      -0.42795534      -0.65769212       0.44957333       0.20114273       0.51222235      -1.15458162      -8.67998280
Si      16.51147062      11.62437082       6.01197891      -1.15107198       0.23668547       0.94408668      -1.15331362      -0.41650308       0.25656964      -8.62717634
Si      18.35527168      12.76119604       9.09361513      -0.45993707       0.07878932      -0.24608717      -0.73683357       0.00639397      -0.16476400      -8.71744384
Si      14.42852960       3.88322758       2.82327048      -0.47095259      -0.58594852       1.50153421       0.19159353      -0.60412423      -0.99535884      -8.66771891
Si      16.17907032       4.95634706       6.00857518      -0.78671398       0.19177750       0.29976528       0.91591714       0.18393488      -0.18080581      -8.66749134
Si      18.19855571       6.19833070       9.03219485       1.40618915      -0.85524904      -0.82809833      -0.51351674      -0.29370940       0.10040452      -8.41910762
Si      16.30044949       7.11112552       2.71296374      -0.39582060       0.69856263       0.78727877      -0.23184387       0.25143088       0.16219978      -8.73461583
Si      18.19469327       8.20676389       5.84282384       1.17976393      -0.97763947      -0.08621792       1.14929005       1.29901190      -0.23551043      -8.70860896
Si      20.19520281       9.33981822       8.99426593      -0.45290565       0.36907107       1.67761853      -0.30134851       0.77486531      -0.33328263      -8.68954466
Si      18.31068389      10.48290317       2.70775706      -0.84725727       0.38268345      -0.33724988      -0.80657665       0.17057542       0.79190157      -8.67493898
Si      20.20119626      11.57759052       5.89985543      -1.55864875      -1.60954116       0.05250025      -0.38795522      -0.91753882      -1.18205908      -8.68291456
Si      22.08283310      12.81951076       8.97056057       0.68902349      -1.66474007      -1.82485810      -0.62848652      -0.58503760       0.42810937      -8.67064961
Si       0.90120730       0.51829132       0.39888778      -0.93283740       1.12400761      -0.80327070      -0.07763289       0.28464172      -0.38160352      -8.55916974
Si       2.91052428       1.61165077       3.43704309      -0.05127017       0.96487431       0.14554027      -0.64564838       0.38526007       1.24183496      -8.70291923
Si       4.68719289       2.68478486       6.61529599      -0.05082844      -0.19485837      -0.13198518       1.20908752       0.88647905       0.67987714      -8.73232419
Si       2.88929543       3.84748256       0.35430697       1.72653524      -0.53473675      -1.85774262       0.11998790       0.13585157       0.91792438      -8.52633346
Si       4.73314892       4.99832236       3.66629158       0.71597359      -0.05391417      -0.00303633       0.32682975      -0.30870424      -0.44859261      -8.70692134
Si       6.67726606       6.12387517       6.60438860      -0.40191242      -1.32909890      -0.80275786      -1.11354215      -1.15975086       1.06102693      -8.52108092
Si       4.69483325       7.21787368       0.38196113      -1.89023774       0.90640155      -1.01713121       0.58335974       0.45267912      -0.27204310      -8.68489609
Si       6.57002330       8.25565590       3.52950129       0.47817328      -0.28589356      -0.63484307       1.24336741       0.21902317      -0.62245604      -8.69258512
Si       8.68436844       9.31858977       6.61756647       0.50092439       0.01146257       0.08189184      -0.85719424       0.10259306       0.06791388      -8.67621230
Si       4.86328189       0.62491590       0.41528063       0.02317129      -0.99132451      -0.00451763      -0.17336043      -0.16355384      -0.56669693      -8.42848132
Si       6.76711943       1.64957529       3.58875951       0.82827688      -1.84018730       0.68288950      -0.11415181       0.57818551      -0.58663056      -8.70332452
Si       8.64404450       2.78722704       6.75202121       0.43940227       0.27146969       0.51645908       0.56441262      -0.44335253      -0.48438718      -8.51522566
Si       6.70335956       4.01001557       0.37448463       1.10979967      -0.50551493       0.80944003       0.42685811       0.58488130      -0.13012158      -8.62477700
Si       8.53376011       4.96346108       3.51160689       0.78216976       1.15508616      -0.96602443       1.03133719       0.14380453       0.22984700      -8.65288492
Si      10.58948368       6.09596166       6.44001146      -0.18632148      -0.58865631      -0.97116095       0.35890623       0.35274296       0.58967506      -8.52447461
Si       8.66967523       7.14349650       0.31907486       0.33970314       0.35322846      -0.03795897       0.58379010      -0.22686493       1.07274329      -8.65214941
Si      10.61529509       8.39181664       3.44873922       0.27457238       0.45489692       0.92170704      -0.06895711      -0.90746544      -0.36076119      -8.65814799
Si      12.40880787       9.49689271       6.68449747      -0.27158267       0.33727319       1.15266416       0.86946273       0.30532937      -0.78899833      -8.70388261
Si       8.61175070       0.55888149       0.47178878      -0.39373569       0.58164093       0.23932284       0.91283209       0.46913281       0.79893595      -8.65810889
Si      10.58271012       1.59096853       3.68775127       0.33327871      -0.51158632      -0.19744977       0.44660340      -0.39226439      -0.55386415      -8.72723186
Si      12.63773281       2.71572231       6.75004119       0.51616053       0.11462410       0.36231000      -0.56366838      -0.22004677       0.40822206      -8.76137849
Si      10.50037866       3.91483240       0.63744977       0.07232573       0.28483110      -1.61949779       0.54529633       0.30115008      -0.90650050      -8.62242806
Si      12.57167982       4.93517038       3.66685783      -0.99516798       0.49688006       0.22106889      -0.80619330      -0.01809908      -0.43375914      -8.71637995
Si      14.38158152       6.11522535       6.90812419      -0.06505319       0.78870993       1.19868571      -0.41646291       0.35301876      -1.71089490      -8.69031890
Si      12.55441309       7.23118607       0.45600885      -0.30936467      -1.45097409       1.22426948       0.22018161      -0.59484771      -0.55328734      -8.71527318
Si      14.41883578       8.19069273       3.55520171      -1.16320762       0.22174668      -0.97890476       0.20719882       0.32212153       0.14041062      -8.75836039
Si      16.41852304       9.29912076       6.73062540      -0.25753799       0.86423099      -1.21798985      -1.45343862       0.81149525      -0.38758149      -8.64637578
Si       8.64332656       4.94411505       8.42546738       0.01229955       1.35007202       0.60728177       0.14334690      -0.00880598       0.00261561      -7.77912055
55
Lattice="11.5478352 0.0 0.0 5.773917198490155 10.000722372470358 0.0 5.773916394327279 3.333571176804646 9.428767828939895" Properties=species:S:1:pos:R:3:momenta:R:3:forces:R:3:energies:R:1 spacegroup="_JSON {\"number\": 1, \"setting\": 1}" unit_cell=conventional occupancy="_JSON {\"0\": {\"Si\": 1.0}, \"1\": {\"Si\": 1.0}, \"2\": {\"Si\": 1.0}, \"3\": {\"Si\": 1.0}, \"4\": {\"Si\": 1.0}, \"5\": {\"Si\": 1.0}, \"6\": {\"Si\": 1.0}, \"7\": {\"Si\": 1.0}, \"8\": {\"Si\": 1.0}, \"9\": {\"Si\": 1.0}, \"10\": {\"Si\": 1.0}, \"11\": {\"Si\": 1.0}, \"12\": {\"Si\": 1.0}, \"13\": {\"Si\": 1.0}, \"14\": {\"Si\": 1.0}, \"15\": {\"Si\": 1.0}, \"16\": {\"Si\": 1.0}, \"17\": {\"Si\": 1.0}, \"18\": {\"Si\": 1.0}, \"19\": {\"Si\": 1.0}, \"20\": {\"Si\": 1.0}, \"21\": {\"Si\": 1.0}, \"22\": {\"Si\": 1.0}, \"23\": {\"Si\": 1.0}, \"24\": {\"Si\": 1.0}, \"25\": {\"Si\": 1.0}, \"26\": {\"Si\": 1.0}, \"27\": {\"Si\": 1.0}, \"28\": {\"Si\": 1.0}, \"29\": {\"Si\": 1.0}, \"30\": {\"Si\": 1.0}, \"31\": {\"Si\": 1.0}, \"32\": {\"Si\": 1.0}, \"33\": {\"Si\": 1.0}, \"34\": {\"Si\": 1.0}, \"35\": {\"Si\": 1.0}, \"36\": {\"Si\": 1.0}, \"37\": {\"Si\": 1.0}, \"38\": {\"Si\": 1.0}, \"39\": {\"Si\": 1.0}, \"40\": {\"Si\": 1.0}, \"41\": {\"Si\": 1.0}, \"42\": {\"Si\": 1.0}, \"43\": {\"Si\": 1.0}, \"44\": {\"Si\": 1.0}, \"45\": {\"Si\": 1.0}, \"46\": {\"Si\": 1.0}, \"47\": {\"Si\": 1.0}, \"48\": {\"Si\": 1.0}, \"49\": {\"Si\": 1.0}, \"50\": {\"Si\": 1.0}, \"51\": {\"Si\": 1.0}, \"52\": {\"Si\": 1.0}, \"53\": {\"Si\": 1.0}, \"54\": {\"Si\": 1.0}}" energy=-475.2558657178913 stress="-0.009698863325375503 0.00038379887028385206 0.0009761715811318814 0.00038379887028385206 -0.011223603684428093 0.00022014084550912454 0.0009761715811318814 0.00022014084550912454 -0.004477393904785559" free_energy=-475.2558657178913 pbc="T T T"
Si       6.62141534       3.87562291       2.73850918      -0.13178632      -1.26276724       0.72421696       0.89376997      -0.36994456       0.55160311      -8.67748109
Si       8.55842149       5.03367575       5.88313051       0.28196615      -0.61481663      -1.17767073       0.57473894      -0.82465018      -0.48209642      -8.59146804
Si      10.65962890       6.27861800       8.89990866       0.50057792      -0.20545313       1.18525331       1.02712230      -1.04283562      -0.55609791      -8.35515657
Si       8.59528509       7.21499202       2.75175774       0.21426431       0.69104045      -0.03945632       0.80700387       0.32952551      -0.48256110      -8.70472198
Si      10.57571497       8.28962010       5.78889657      -0.71061811      -1.50692360       0.67555545       0.52501366       0.69384042       0.25507186      -8.75083368
Si      12.46614970       9.60220553       9.00305554      -0.67090252      -1.76331664       1.38492568      -0.39661838      -0.71614822       0.62276885      -8.68268896
Si      10.60571547      10.68338464       2.66492612       0.22912131       0.63059310      -1.45855920       0.23189258      -0.97010099       1.06213204      -8.69919639
Si      12.53315182      11.72881925       5.89577201       0.68037640      -0.44580110       0.56729235      -0.44082972      -0.26285088       0.40260245      -8.71334748
Si      14.36877197      12.73269521       9.09775293       0.36830570       1.32667855      -0.00090766       0.32870008      -0.28208546       0.28874528      -8.42864748
Si      10.62839628       3.80862192       2.93481368       0.45812817       0.48206037      -0.44565847      -0.89202644       0.18349292      -0.63608430      -8.68450045
Si      12.60109494       4.86117693       5.97931524       0.57611107       0.79461861      -0.14796702      -0.29437383       0.97279667       0.18919145      -8.66598622
Si      14.47282491       6.19171874       9.20411359       0.31985308       0.12819334       1.41972441      -0.74926956      -0.65479278       0.05201755      -8.74892803
Si      12.52286144       7.07972635       2.83013608      -1.82216912      -0.11781048       1.25975741      -0.90890405       0.79818601      -0.32029297      -8.72689158
Si      14.37153243       8.33830145       5.92629396       1.58055882       0.76783790       1.52901190      -0.19163748      -0.08861559       0.03101056      -8.69130347
Si      16.43224459       9.41914643       9.04332949      -0.73061739      -0.48702344      -0.10196878      -0.40862650      -0.07761474      -0.16189834      -8.73338997
Si      14.41858129      10.42051338       2.91813696       0.24834791       0.23779693      -1.36475164       0.61411828       0.61187603      -1.08116879      -8.73051997
Si      16.42023032      11.62773460       6.06088245      -2.03700883       0.03834267       0.70294361      -0.01281476       0.14769950      -0.59650158      -8.68603054
Si      18.31375906      12.75930286       9.08481398      -0.86279487      -0.23673189       0.11249539       0.26102694      -0.34629078       0.61270880      -8.70674877
Si      14.41173823       3.84553363       2.85651539      -0.18924187      -0.52766368      -0.28060997       0.12628328       0.63007041      -1.20826029      -8.59824812
Si      16.16983134       4.97006394       6.01496209       0.28751349       0.25861530      -0.11720704       0.33979061      -0.10844867      -0.42725287      -8.69490157
Si      18.24233004       6.15189198       8.99372686       0.13070003      -0.72547641      -0.61316611      -1.03367428       0.44303148       0.19692569      -8.40527491
Si      16.27271399       7.15402254       2.74849766      -0.57475013       0.87305222       0.39035043       0.10475821      -0.00243998      -0.53598089      -8.70857935
Si      18.28506661       8.20478509       5.83210149       1.89087514       0.73088010      -0.25020523      -0.31620041       0.66976132       0.02226421      -8.71608619
Si      20.15967527       9.38063281       9.05509368      -0.84467563       0.98301570       0.45263208      -0.07224687      -0.00249970      -1.08915727      -8.68041485
Si      18.24703217      10.50732125       2.71513508      -1.31024660       0.49652114       0.44933286       0.24623927      -0.03806753       0.14541452      -8.69841791
Si      20.12564445      11.47723700       5.86343928      -0.98701401      -1.80007073      -1.22494944       0.91073985       0.67953584      -0.34148093      -8.70949436
Si      22.08843824      12.72927560       8.90341358      -0.50511946      -1.38117181      -0.56384312      -0.77574215       0.96349369       1.09428767      -8.66218391
Si       0.85066930       0.57889091       0.34907220      -0.97793760       0.99362139      -0.93312008      -0.00557304      -0.47005707       0.24836077      -8.54532266
Si       2.88053105       1.66129633       3.48714060      -1.04904378       0.60383916       1.56016062      -0.50021401      -0.85066585       0.44191588      -8.74652442
Si       4.71774736       2.69768722       6.61801925       0.91048020       0.45093771      -0.06702551       0.05159379      -0.01357325      -0.48041687      -8.72132275
Si       2.97049715       3.83177334       0.30949453       1.09593700       0.07913888       0.36290101      -0.92070187       0.67516665       1.78023816      -8.45449440
Si       4.77273404       4.98602689       3.65097587       0.60090388      -0.35385855      -0.53278384      -0.41903703      -0.07011335      -0.26717500      -8.72340186
Si       6.61577749       6.02482667       6.60147615      -1.73966431      -2.05784205       0.57205421      -0.31233792       0.32591786       0.61999116      -8.57034170
Si       4.63410102       7.27163406       0.33484136      -0.23319717       0.88393847      -0.48366263       1.34887165      -0.57293245       0.88771218      -8.66885823
Si       6.63517092       8.25291712       3.48015560       1.77220146       0.23446145      -1.07866995       0.33799928       0.43661654       0.03379192      -8.74068253
Si       8.67546931       9.31541583       6.63321509      -0.77874012      -0.26783838       0.64362620      -0.62295728      -0.41192749       0.57979394      -8.71787371
Si       4.85459395       0.57523153       0.38635979      -0.39299235      -0.75122086      -1.16384684      -0.31949740       0.43946547      -0.81143177      -8.48073882
Si       6.79665051       1.58645184       3.59759396       0.16009411      -0.43031148      -0.35708380      -0.64283596       1.12245289      -0.64163764      -8.67406129
Si       8.68339614       2.78888448       6.75688540       0.91525185      -0.11252106      -0.35212057      -0.01348577      -0.06657380      -0.56502645      -8.56829734
Si       6.77113688       4.00742444       0.40983885       1.30830458       0.36351643       0.55863976      -0.21446922       0.41954891      -0.05032196      -8.66184980
Si       8.60321359       5.01518016       3.47199493       1.61439090       0.58454559      -0.52752892       0.06209442      -0.75685440       0.29921068      -8.63503621
Si      10.59442518       6.07320263       6.42347345       0.35394217      -0.40626826       0.50435222       0.28719049      -0.13270508       1.24969917      -8.49968015
Si       8.70291982       7.15859016       0.35572366       0.72658329       0.31037782       1.32161283      -0.18354447       0.11239468       0.63629632      -8.65344461
Si      10.62133769       8.38887517       3.47608140      -0.15766152      -0.38851861       0.06071061      -0.51827112      -0.20833788      -0.59847237      -8.62564752
Si      12.42379368       9.51710636       6.70727039       0.73299821       0.24442934      -0.28329868       0.44859610      -0.43628801      -0.79490445      -8.69059689
Si       8.62738352       0.59773086       0.50628984       0.90256673       0.68515504       0.86355326       0.60946608      -0.36263018      -0.03374381      -8.61501084
Si      10.60920555       1.55487847       3.66530780       0.47426350      -0.70234158      -0.46742031      -0.34870862       0.24054617       0.18696736      -8.71341250
Si      12.63513161       2.70734354       6.77917353      -0.69269560      -0.49412837       0.58948011      -0.87428881      -0.45831558      -0.20266509      -8.75400220
Si      10.53610761       3.94066362       0.53581709       1.42313604       0.63898667      -1.91056504       1.05237077       0.04829581       0.42753459      -8.61375526
Si      12.50317017       4.95129184       3.66434371      -1.30541653      -0.02407064      -0.24288515       0.40071302      -0.56102554      -0.15053169      -8.75345726
Si      14.36451192       6.16634052       6.90418219      -0.48687177       1.06477504      -1.15186307      -0.03554976      -0.02079988      -0.99983055      -8.68628798
Si      12.54219894       7.14713812       0.49826003      -0.28768669      -1.47514378       0.43259491      -0.29227853       0.50094323      -0.38933401      -8.69636356
Si      14.37185720       8.21070448       3.52519464      -0.58383507       0.47359555       0.08727441       0.38801812       0.06134333       1.12808718      -8.73750781
Si      16.36660847       9.36448429       6.66014453      -1.31042283       1.39589672      -1.27372189       0.14716601      -0.08098619       0.37725850      -8.72170395
Si       8.65672840       5.00979525       8.45020440       0.61535677       1.09262879       0.20206501       0.59143768      -0.24482967      -0.51927653      -7.73474763
55
Lattice="11.5478352 0.0 0.0 5.773917198490155 10.000722372470358 0.0 5.773916394327279 3.333571176804646 9.428767828939895" Properties=species:S:1:pos:R:3:momenta:R:3:forces:R:3:energies:R:1 spacegroup="_JSON {\"number\": 1, \"setting\": 1}" unit_cell=conventional occupancy="_JSON {\"0\": {\"Si\": 1.0}, \"1\": {\"Si\": 1.0}, \"2\": {\"Si\": 1.0}, \"3\": {\"Si\": 1.0}, \"4\": {\"Si\": 1.0}, \"5\": {\"Si\": 1.0}, \"6\": {\"Si\": 1.0}, \"7\": {\"Si\": 1.0}, \"8\": {\"Si\": 1.0}, \"9\": {\"Si\": 1.0}, \"10\": {\"Si\": 1.0}, \"11\": {\"Si\": 1.0}, \"12\": {\"Si\": 1.0}, \"13\": {\"Si\": 1.0}, \"14\": {\"Si\": 1.0}, \"15\": {\"Si\": 1.0}, \"16\": {\"Si\": 1.0}, \"17\": {\"Si\": 1.0}, \"18\": {\"Si\": 1.0}, \"19\": {\"Si\": 1.0}, \"20\": {\"Si\": 1.0}, \"21\": {\"Si\": 1.0}, \"22\": {\"Si\": 1.0}, \"23\": {\"Si\": 1.0}, \"24\": {\"Si\": 1.0}, \"25\": {\"Si\": 1.0}, \"26\": {\"Si\": 1.0}, \"27\": {\"Si\": 1.0}, \"28\": {\"Si\": 1.0}, \"29\": {\"Si\": 1.0}, \"30\": {\"Si\": 1.0}, \"31\": {\"Si\": 1.0}, \"32\": {\"Si\": 1.0}, \"33\": {\"Si\": 1.0}, \"34\": {\"Si\": 1.0}, \"35\": {\"Si\": 1.0}, \"36\": {\"Si\": 1.0}, \"37\": {\"Si\": 1.0}, \"38\": {\"Si\": 1.0}, \"39\": {\"Si\": 1.0}, \"40\": {\"Si\": 1.0}, \"41\": {\"Si\": 1.0}, \"42\": {\"Si\": 1.0}, \"43\": {\"Si\": 1.0}, \"44\": {\"Si\": 1.0}, \"45\": {\"Si\": 1.0}, \"46\": {\"Si\": 1.0}, \"47\": {\"Si\": 1.0}, \"48\": {\"Si\": 1.0}, \"49\": {\"Si\": 1.0}, \"50\": {\"Si\": 1.0}, \"51\": {\"Si\": 1.0}, \"52\": {\"Si\": 1.0}, \"53\": {\"Si\": 1.0}, \"54\": {\"Si\": 1.0}}" energy=-475.2017437356277 stress="-0.010833920926235053 0.001440358237335212 0.000767162831515096 0.001440358237335212 -0.011350169126595233 0.0007180917519603512 0.000767162831515096 0.0007180917519603512 -0.0027988098915667794" free_energy=-475.2017437356277 pbc="T T T"
Si       6.65379392       3.80713978       2.79157716       1.35469954      -1.07018925       1.16064477       0.86507227       0.72822057       0.01927067      -8.67872181
Si       8.58841650       4.97688736       5.81321530       0.72553117      -1.37534398      -1.27449303       0.05587220      -0.14440496       0.34958259      -8.56552735
Si      10.72546248       6.23229541       8.94070161       1.88514269      -1.39458748       0.46194657       0.58436530      -0.41274660      -0.21422347      -8.35072745
Si       8.64144542       7.25575088       2.73406296       1.51690333       0.67961166      -0.51036528       0.67858830      -0.37769742       0.00407837      -8.75824232
Si      10.56059359       8.24749474       5.83023623       0.11766520      -0.01364448       0.82810706       0.47568533       1.03976085      -0.01826349      -8.69915377
Si      12.42727636       9.50155299       9.08501492      -0.59153301      -1.68595056       1.44014449       0.46512577       0.79209718      -0.53529136      -8.66750473
Si      10.61562945      10.67879348       2.63456121      -0.05737207      -0.77106476       0.27083884      -0.57430603      -0.83873309       0.97875404      -8.63845586
Si      12.55277333      11.70013867       5.93157744       0.10373960      -0.56047809       0.60131201      -0.31284585       0.06708087      -0.35677188      -8.72335618
Si      14.39285581      12.78375271       9.10465323       0.37788740       0.51782590       0.15244837      -0.34253336      -0.68774387      -0.13763785      -8.44426359
Si      10.61883269       3.83051845       2.88296158      -0.71528095       0.17329003      -1.54255293      -0.47550064      -0.51348967      -0.68754628      -8.68058789
Si      12.61534193       4.92428304       5.97750391      -0.10237160       1.27007095       0.03704269      -0.56460969      -0.34978769       0.03160383      -8.69521759
Si      14.47013710       6.17772983       9.26104872      -0.18554919      -0.52347898       0.44749679       0.14531759      -0.13875532      -1.15682260      -8.69161856
Si      12.41029192       7.10175785       2.87749430      -2.08454339       0.82872726       0.46895120       0.58697057       0.31079783      -0.62994979      -8.74273157
Si      14.43203644       8.37310747       5.99057132       0.51772190       0.52180473       0.66108234      -0.98924928      -0.22950196      -0.98924366      -8.73683362
Si      16.38310880       9.40116263       9.02497473      -1.05261299      -0.01303355      -0.67099266      -0.05952425       0.63144494      -0.44436463      -8.70894661
Si      14.45177069      10.45236440       2.82098171       0.88735573       0.86363423      -1.95034030       0.11660642       0.17465787       0.42936455      -8.76359543
Si      16.32879282      11.63870881       6.06562016      -1.18481248       0.39169325      -0.64890257       1.01906776       0.20089649      -1.09699461      -8.69450657
Si      18.28926462      12.73297295       9.11650250       0.06036115      -0.75638856       1.05170116       0.78012340      -0.30225894       0.44819659      -8.66110153
Si      14.40460125       3.84566199       2.80383416      -0.11933448       0.47375530      -1.47811866      -0.01738562       0.43196591      -0.22006366      -8.67609360
Si      16.18263206       4.97491530       5.98758596      -0.06427616      -0.14306358      -1.00477774      -0.65737146      -0.36870642      -0.72421285      -8.70390254
Si      18.21534197       6.13468464       8.97071231      -0.94683700       0.05555043      -0.23810689      -0.20512498       0.38853936       0.30496479      -8.45605559
Si      16.25437864       7.19623781       2.74914071      -0.00592356       0.67741127      -0.28387344       0.56240292      -0.23398326      -0.21762077      -8.70604650
Si      18.34999715       8.25082311       5.81999934       0.22936626       0.71070191      -0.23237111      -1.69861484      -0.54981758      -0.03958571      -8.62195006
Si      20.12272769       9.42361695       9.04118233      -0.39035991       0.54625042      -0.79054281       0.58928921      -0.44120258      -0.33056434      -8.69852178
Si      18.20097355      10.52838510       2.73374373      -0.27762031       0.26337957       0.09905957       0.88986530      -0.19693865      -0.48186293      -8.71034254
Si      20.11064885      11.42171674       5.80743546       0.37394900      -0.19773144      -0.48194637       0.77674403       1.17741438       1.31472402      -8.67129067
Si      22.03875539      12.70684177       8.91190754      -1.23410424       0.61552414       0.73426115      -0.16312067       1.30124035       0.52001775      -8.68200339
Si       0.80144160       0.60554141       0.31738014      -0.84377146      -0.05573797      -0.16910147       0.21333494      -0.77892548       0.66933862      -8.50698815
Si       2.81606141       1.65602782       3.56308790      -1.21475558      -0.74869121       0.87334428       0.26391911      -0.66640309      -1.34226146      -8.72539547
Si       4.75579676       2.71328333       6.59440423       0.36212262       0.04417985      -0.75927924      -0.66392023      -0.41395188      -0.21482289      -8.68443275
Si       2.99053489       3.86099569       0.38837374      -0.25340839       0.93721688       2.33008684      -0.65675436       0.31576930       0.55024356      -8.47910480
Si       4.78519849       4.96861511       3.61426898      -0.11453232      -0.24596019      -0.85466558      -0.38611272       0.18246411      -0.21989505      -8.71101524
Si       6.53952474       5.94833496       6.64432532      -0.69595660      -0.59183373       0.84845126       1.48934401       1.37910917      -0.23225805      -8.50666372
Si       4.66687819       7.28302485       0.34874786       1.27045758      -0.58538411       1.00604122       0.53708553      -1.08323917       0.86084057      -8.71003636
Si       6.72394411       8.28157755       3.43298208       1.33258002       0.81504220      -0.59640440      -0.74930439       0.25991341       0.51879882      -8.72313706
Si       8.62561881       9.28798777       6.68736204      -0.82219739      -0.65962040       1.31464409       0.52602952       0.02584484       0.15548003      -8.76467716
Si       4.82628232       0.55751376       0.30571815      -0.54596176       0.12422094      -1.61350150       0.22947606       0.62530895       0.33250658      -8.53990880
Si       6.78445139       1.60114038       3.56189316      -0.48071273       0.77741905      -0.82964661      -0.10050325       0.29437140       0.03584684      -8.71758457
Si       8.71832668       2.78513747       6.72352997       0.17921092       0.04363521      -0.75381096      -0.93343127       0.21288368       0.07239570      -8.58261713
Si       6.82331306       4.03074494       0.44506944       0.57945008       0.25076483       0.94847736      -0.61236685      -0.64794176       0.57989338      -8.67936970
Si       8.67812745       5.01697704       3.45355798       1.04363266      -0.42938953      -0.24108388      -0.72164986      -0.43899754       0.04786725      -8.63766629
Si      10.61928284       6.04434723       6.49650083       0.48940931      -0.67917998       2.18060663      -0.12236944      -0.07653339       0.86781555      -8.54068131
Si       8.72313315       7.17865905       0.43616683      -0.11128239       0.41595645       1.45006517      -0.80129921      -0.03297594      -0.53031585      -8.62031890
Si      10.58924449       8.37061321       3.46425064      -1.09693012      -0.11168928      -0.30756290      -0.62638250       0.56302741       0.19488461      -8.67425563
Si      12.47208025       9.50573487       6.67737089       0.95730181      -0.76965084      -0.54053933      -0.14810639      -0.78889574       0.42520799      -8.67995563
Si       8.68655462       0.61107313       0.53614669       1.12665011      -0.28235331       0.00832958      -0.28829613      -0.77912998      -1.07811170      -8.66094004
Si      10.60954286       1.53806771       3.65386755      -0.60311280       0.22593530       0.07637212      -0.88617435       0.88027837       0.35683283      -8.67038421
Si      12.57222834       2.66909772       6.79412754      -1.52312181      -0.82770293      -0.11011821      -0.16641002       0.06995579      -0.55554806      -8.72051427
Si      10.63894153       3.96573457       0.46174503       2.15327355       0.14121872      -0.79980387      -0.27752872      -0.60197919       0.89422188      -8.64108955
Si      12.46107034       4.93182840       3.64942557      -0.18740050      -0.58960671      -0.28486863       0.84340470      -0.07919099       0.00821929      -8.74438172
Si      14.34656203       6.21426952       6.82810204      -0.04226874       0.63382507      -1.34947666       0.56699522      -0.52813225       0.56127059      -8.65860960
Si      12.50836644       7.09842149       0.51108599      -1.09130407      -0.26952653       0.13894827      -0.62959229       0.95063699      -0.07448976      -8.68194110
Si      14.35117468       8.23773767       3.57245453      -0.30575094       0.57726656       1.59676895       0.00879343       0.13135103       0.67502952      -8.71507893
Si      16.32481955       9.42656928       6.61831721       0.03846364       0.86508719      -0.17970007       1.39471111      -0.51592309       0.92617808      -8.66735088
Si       8.70893736       5.06007520       8.43789715       1.26212368       0.91028213      -0.69022571       0.16619868       0.08295645      -0.60470618      -7.73034565
55
Lattice="11.5478352 0.0 0.0 5.773917198490155 10.000722372470358 0.0 5.773916394327279 3.333571176804646 9.428767828939895" Properties=species:S:1:pos:R:3:momenta:R:3:forces:R:3:energies:R:1 spacegroup="_JSON {\"number\": 1, \"setting\": 1}" unit_cell=conventional occupancy="_JSON {\"0\": {\"Si\": 1.0}, \"1\": {\"Si\": 1.0}, \"2\": {\"Si\": 1.0}, \"3\": {\"Si\": 1.0}, \"4\": {\"Si\": 1.0}, \"5\": {\"Si\": 1.0}, \"6\": {\"Si\": 1.0}, \"7\": {\"Si\": 1.0}, \"8\": {\"Si\": 1.0}, \"9\": {\"Si\": 1.0}, \"10\": {\"Si\": 1.0}, \"11\": {\"Si\": 1.0}, \"12\": {\"Si\": 1.0}, \"13\": {\"Si\": 1.0}, \"14\": {\"Si\": 1.0}, \"15\": {\"Si\": 1.0}, \"16\": {\"Si\": 1.0}, \"17\": {\"Si\": 1.0}, \"18\": {\"Si\": 1.0}, \"19\": {\"Si\": 1.0}, \"20\": {\"Si\": 1.0}, \"21\": {\"Si\": 1.0}, \"22\": {\"Si\": 1.0}, \"23\": {\"Si\": 1.0}, \"24\": {\"Si\": 1.0}, \"25\": {\"Si\": 1.0}, \"26\": {\"Si\": 1.0}, \"27\": {\"Si\": 1.0}, \"28\": {\"Si\": 1.0}, \"29\": {\"Si\": 1.0}, \"30\": {\"Si\": 1.0}, \"31\": {\"Si\": 1.0}, \"32\": {\"Si\": 1.0}, \"33\": {\"Si\": 1.0}, \"34\": {\"Si\": 1.0}, \"35\": {\"Si\": 1.0}, \"36\": {\"Si\": 1.0}, \"37\": {\"Si\": 1.0}, \"38\": {\"Si\": 1.0}, \"39\": {\"Si\": 1.0}, \"40\": {\"Si\": 1.0}, \"41\": {\"Si\": 1.0}, \"42\": {\"Si\": 1.0}, \"43\": {\"Si\": 1.0}, \"44\": {\"Si\": 1.0}, \"45\": {\"Si\": 1.0}, \"46\": {\"Si\": 1.0}, \"47\": {\"Si\": 1.0}, \"48\": {\"Si\": 1.0}, \"49\": {\"Si\": 1.0}, \"50\": {\"Si\": 1.0}, \"51\": {\"Si\": 1.0}, \"52\": {\"Si\": 1.0}, \"53\": {\"Si\": 1.0}, \"54\": {\"Si\": 1.0}}" energy=-475.25515820148775 stress="-0.008997716153897875 0.0008960164951436972 -0.00023372496805997562 0.0008960164951436972 -0.006407641681901233 -0.001363082093360482 -0.00023372496805997562 -0.001363082093360482 -0.009041518786381328" free_energy=-475.25515820148775 pbc="T T T"
Si       6.74480346       3.79361513       2.84714438       1.81656108       0.72555842       0.88456975      -0.30502042       1.37026389      -0.26338811      -8.69334826
Si       8.62487519       4.91074898       5.76805002       0.61266550      -0.93269550      -0.34579820      -0.15834701       0.69609508       0.75467035      -8.48858445
Si      10.83370339       6.15610390       8.96753718       2.01900298      -1.28457613       0.76893476      -0.29972382       0.47662235       0.59823574      -8.30037869
Si       8.72757260       7.26890489       2.71822972       1.33869990      -0.29560965       0.05753635      -0.96447577      -0.84270268       0.57359173      -8.71211984
Si      10.57940064       8.27695601       5.87186533       0.47310911       0.89730032       0.75870508      -0.01649352       0.11875399      -0.02617610      -8.66703976
Si      12.42153616       9.45300918       9.13066235       0.46901962      -0.15100983       0.21232987       0.84246362       0.85777885      -0.89173525      -8.65997305
Si      10.58639867      10.61481373       2.67424629      -1.06546218      -1.44455639       0.98949705      -0.60971765       0.04073589      -0.00816786      -8.64371035
Si      12.54692033      11.67302266       5.94293836      -0.33309473      -0.52266107      -0.24224294      -0.34185847      -0.11852908      -0.65648578      -8.71015014
Si      14.39312968      12.78693658       9.10201046      -0.42911489      -0.28909555      -0.32615652      -0.58580613      -0.27522257      -0.42656817      -8.47015295
Si      10.57736871       3.81866689       2.78544767      -0.60730058      -0.58180093      -1.93531643       0.51773776      -0.34906618       0.25373967      -8.70502157
Si      12.59009707       4.96438085       5.97885749      -0.78297065       0.08810778      -0.00207745      -0.27240486      -1.03059492      -0.03331680      -8.69086579
Si      14.47399751       6.15143525       9.23664436       0.41324466      -0.39558365      -1.35655674       0.47073928       0.19283569      -1.08540763      -8.63478695
Si      12.33859561       7.14722447       2.88021407      -0.47222157       0.76698456      -0.27803728       1.29328378      -0.22358342      -0.29628837      -8.70144263
Si      14.42967910       8.39117871       5.98907011      -0.33499164       0.16434078      -0.56905660       0.03499655      -0.25389125      -0.41967527      -8.78179887
Si      16.32889840       9.42399010       8.98044168      -0.96099899       0.79586468      -0.81815191       0.15397932       0.31399694       0.36176700      -8.69893114
Si      14.49167347      10.49681563       2.75345229       0.43241565       0.70044649      -0.41944752      -0.67597762      -0.34138014       1.22774410      -8.72064077
Si      16.30656927      11.66244658       5.99420062       0.23194363       0.42741703      -1.88704653       0.63184918      -0.13215605      -0.36736659      -8.74029730
Si      18.31668029      12.68699556       9.17630286       0.80858656      -0.86592096       0.96160604       0.10318195       0.20868696      -0.59381419      -8.64902403
Si      14.39709909       3.87507233       2.74055127      -0.16629666       0.42389213      -0.50884427      -0.01340992      -0.44471885       1.41201881      -8.70738783
Si      16.15886284       4.95615487       5.91087653      -0.62981595      -0.48407449      -1.78669181       0.13090756      -0.04306761      -0.21631004      -8.73111002
Si      18.17682954       6.14118577       8.97093287      -0.18380063      -0.03653668       0.25076200       1.09665229      -0.47915424       0.32326804      -8.46369546
Si      16.27398822       7.22157553       2.73755487       0.67452949       0.28858123       0.08035412       0.26514774      -0.23688973       0.70310278      -8.71705614
Si      18.29983845       8.26324025       5.80783441      -1.90487356      -0.21952056      -0.16907041      -0.79970749      -0.50663081       0.18940550      -8.66796008
Si      20.12457308       9.43655066       9.00890947       0.39505838       0.00226419      -0.03057102       0.35173801      -0.23426399       1.23487901      -8.69611478
Si      18.21147703      10.53764615       2.72142219       0.41364008       0.16114199      -0.50094287      -0.11289798       0.06607070      -0.22921715      -8.74468790
Si      20.15191914      11.45029877       5.83824319       1.00207596       1.12080127       1.54272952      -0.00911908       0.52635738       0.90042436      -8.71852430
Si      21.98058704      12.76787982       8.95843425      -0.70364489       1.21021605       0.80044918       0.93886801      -0.62431789      -0.42257080      -8.69096521
Si       0.76993211       0.57830606       0.33270230      -0.27598772      -0.83498966       0.67726203       0.53576719      -0.21832248       0.37746012      -8.51872190
Si       2.77182234       1.60393378       3.55075160      -0.31193001      -0.99440223      -1.23397668       0.89706178       0.29192697      -0.94676490      -8.71208269
Si       4.74769579       2.70150003       6.55818408      -0.62919125      -0.41165224      -0.40165976      -0.49404365      -0.09421324       0.64624946      -8.72139739
Si       2.96075631       3.91298523       0.49956533      -0.74173621       0.88584247       1.29120059      -0.10449858      -0.31720022      -1.83295801      -8.38010390
Si       4.77147592       4.96426118       3.56074931      -0.26158392       0.10037505      -1.18219925       0.18334310       0.26760805      -0.20041078      -8.69499859
Si       6.55974143       5.96677500       6.66841794       1.28930271       1.12310718      -0.12753646       0.85647589       0.73474214      -0.99492763      -8.50873089
Si       4.73857835       7.22473636       0.41995535       1.17900049      -1.30120874       1.39198860      -0.57080248       0.19159290      -0.35878594      -8.73271117
Si       6.76293740       8.32595929       3.42189341       0.18695779       0.70240704       0.14237969      -0.65127645      -0.41391904       0.41340929      -8.70193634
Si       8.60787990       9.26157028       6.74644327       0.13326093      -0.25352159       0.62594443       0.50038162       0.41155889      -1.03287301      -8.76528663
Si       4.81610360       0.58118284       0.24980777       0.28885581       0.57540362      -0.27749910       0.73116748      -0.16349232       1.28877630      -8.53266193
Si       6.76314782       1.63526598       3.52806814      -0.23592794       0.22746729      -0.33998487       0.27450296      -0.83737114       0.50530521      -8.70469660
Si       8.68927589       2.79195673       6.69425569      -1.22719181       0.08298984      -0.26371533      -0.71875944      -0.29845856       0.46182097      -8.60130520
Si       6.83394598       4.00974533       0.51849284      -0.04906652      -1.09925709       1.78708803      -0.12818482      -0.83391449       0.32664958      -8.67608597
Si       8.70312404       4.98744605       3.43996154      -0.03554513      -0.51166207      -0.30381599      -0.50269116       0.28494939      -0.04971247      -8.65517569
Si      10.63516872       6.01375846       6.62974967       0.04589056      -0.33555116       2.59266525      -0.39545084       0.50983983      -0.33053429      -8.56462753
Si       8.68710133       7.19556573       0.47624339      -1.20307871       0.17665413      -0.13542720      -0.57572945      -0.23113181      -1.35013152      -8.62118648
Si      10.51866604       8.39110837       3.46765240      -1.29763846       0.89485578       0.64160166       0.51179187       0.55718441       0.99836382      -8.71273100
Si      12.50886336       9.44253716       6.67501143       0.32252412      -1.42035695       0.56932829      -0.62407531       0.05348080       0.90688788      -8.69152184
Si       8.72282561       0.57236811       0.49209519       0.03436152      -1.00075449      -1.58907846      -1.16561102      -0.03388075      -0.69242619      -8.72022245
Si      10.55333310       1.58172224       3.66207496      -1.27899645       1.33642591      -0.00125974       0.10554701       0.49733253      -0.56402376      -8.69175980
Si      12.49875900       2.63709412       6.77309270      -1.04247299      -0.24100217      -0.53593964       0.75787828       0.66667330       0.03788622      -8.67484337
Si      10.71820133       3.95517219       0.45108246       0.49451709      -0.36385599       0.25547958      -1.73378438       0.05605464       0.34373614      -8.63335692
Si      12.47485011       4.90647719       3.63294478       0.48528231      -0.23754643      -0.38348070      -0.02534742       0.47344440      -0.13800001      -8.71907001
Si      14.36670679       6.22345746       6.78659872       0.75598500      -0.31923144      -0.19286747       0.36407099      -0.67415701       0.73100989      -8.66248042
Si      12.43471796       7.11639887       0.51487268      -1.51746420       0.80916519      -0.01940894       0.13266456       0.39128836      -0.15886398      -8.71175977
Si      14.33485205       8.27365327       3.66333031      -0.29889701       0.78335540       1.46465581       0.07145373       0.09751513      -0.90287018      -8.67826326
Si      16.37448388       9.45102862       6.63900017       1.59103873       0.08464164       0.77617964       0.39416136      -0.44329929       0.19069133      -8.70443399
Si       8.77329866       5.11561087       8.38188830       1.07376563       1.27302617      -1.35938924      -0.29259815       0.34214029      -0.27132252      -7.75723824
55
Lattice="11.5478352 0.0 0.0 5.773917198490155 10.000722372470358 0.0 5.773916394327279 3.333571176804646 9.428767828939895" Properties=species:S:1:pos:R:3:momenta:R:3:forces:R:3:energies:R:1 spacegroup="_JSON {\"number\": 1, \"setting\": 1}" unit_cell=conventional occupancy="_JSON {\"0\": {\"Si\": 1.0}, \"1\": {\"Si\": 1.0}, \"2\": {\"Si\": 1.0}, \"3\": {\"Si\": 1.0}, \"4\": {\"Si\": 1.0}, \"5\": {\"Si\": 1.0}, \"6\": {\"Si\": 1.0}, \"7\": {\"Si\": 1.0}, \"8\": {\"Si\": 1.0}, \"9\": {\"Si\": 1.0}, \"10\": {\"Si\": 1.0}, \"11\": {\"Si\": 1.0}, \"12\": {\"Si\": 1.0}, \"13\": {\"Si\": 1.0}, \"14\": {\"Si\": 1.0}, \"15\": {\"Si\": 1.0}, \"16\": {\"Si\": 1.0}, \"17\": {\"Si\": 1.0}, \"18\": {\"Si\": 1.0}, \"19\": {\"Si\": 1.0}, \"20\": {\"Si\": 1.0}, \"21\": {\"Si\": 1.0}, \"22\": {\"Si\": 1.0}, \"23\": {\"Si\": 1.0}, \"24\": {\"Si\": 1.0}, \"25\": {\"Si\": 1.0}, \"26\": {\"Si\": 1.0}, \"27\": {\"Si\": 1.0}, \"28\": {\"Si\": 1.0}, \"29\": {\"Si\": 1.0}, \"30\": {\"Si\": 1.0}, \"31\": {\"Si\": 1.0}, \"32\": {\"Si\": 1.0}, \"33\": {\"Si\": 1.0}, \"34\": {\"Si\": 1.0}, \"35\": {\"Si\": 1.0}, \"36\": {\"Si\": 1.0}, \"37\": {\"Si\": 1.0}, \"38\": {\"Si\": 1.0}, \"39\": {\"Si\": 1.0}, \"40\": {\"Si\": 1.0}, \"41\": {\"Si\": 1.0}, \"42\": {\"Si\": 1.0}, \"43\": {\"Si\": 1.0}, \"44\": {\"Si\": 1.0}, \"45\": {\"Si\": 1.0}, \"46\": {\"Si\": 1.0}, \"47\": {\"Si\": 1.0}, \"48\": {\"Si\": 1.0}, \"49\": {\"Si\": 1.0}, \"50\": {\"Si\": 1.0}, \"51\": {\"Si\": 1.0}, \"52\": {\"Si\": 1.0}, \"53\": {\"Si\": 1.0}, \"54\": {\"Si\": 1.0}}" energy=-475.35555556849573 stress="-0.008484743840654679 -0.0026160321863575313 -0.0013515154327008367 -0.0026160321863575313 -0.005103216721110814 -0.0018360872039859609 -0.0013515154327008367 -0.0018360872039859609 -0.011376877093714283" free_energy=-475.35555556849573 pbc="T T T"
Si       6.81141621       3.86868595       2.88660095       0.44546410       1.72889684       0.70715295      -1.38119294      -0.17411707       0.05943254      -8.68601216
Si       8.64942601       4.89409901       5.77600113       0.30306996       0.32618225       0.55170810      -0.23923057       0.81170190       0.38696110      -8.46121394
Si      10.91941369       6.11275663       9.03489919       1.09138702      -0.32594157       1.80734910      -0.93770616       0.64526840       0.63678612      -8.22372575
Si       8.74891648       7.22471046       2.73783349      -0.59048376      -1.21436744       0.54106397      -1.25087048      -0.15781544       0.01768273      -8.69117839
Si      10.59769313       8.31674488       5.91173985       0.13763775       0.43345165       0.79597261      -0.35689024      -0.61679353       0.11681023      -8.66772631
Si      12.47178054       9.46108283       9.11456071       1.20965615       0.11273173      -0.63898122      -0.08330141      -0.47930766      -0.16725559      -8.71611651
Si      10.51779806      10.55570175       2.71497127      -1.29026376      -0.57398059       0.40043400       0.40565510       0.93750370      -0.64151498      -8.67251392
Si      12.51339207      11.63654505       5.90867028      -0.99780344      -0.93735058      -0.94511539      -0.54240723      -0.38708819      -0.19047012      -8.70694346
Si      14.35413673      12.77058520       9.07034547      -0.90671717      -0.16893421      -0.81149539      -0.00289483       0.36871505      -0.15757154      -8.52810558
Si      10.56841116       3.78525039       2.70894296       0.25456670      -0.45412829      -0.75203250       0.50030759       0.58875584       1.12875278      -8.69007752
Si      12.54490180       4.93330703       5.97899874      -0.83310836      -1.11736254       0.03662818       0.14701925      -0.42762241       0.07218751      -8.68990371
Si      14.50767161       6.13651685       9.13657070       0.71046500      -0.23279819      -2.15536515      -0.14981729      -0.03758066       0.09647535      -8.67737503
Si      12.35758741       7.18084701       2.86078530       1.01816203       0.58704120      -0.35310260       0.61685814       0.04319967       0.12967747      -8.68846465
Si      14.42577547       8.38876232       5.95917043       0.31843454      -0.27564231      -0.29756527       0.55956115      -0.32515969       0.62345714      -8.74261179
Si      16.28630032       9.46974694       8.96261776      -0.64027804       0.80982978       0.28053092       0.24936091      -0.23421071       0.91206910      -8.69017580
Si      14.48356475      10.51718214       2.76708975      -0.77155796       0.05357043       0.64160963      -0.79836869      -0.42748223       0.09176985      -8.72155786
Si      16.33077372      11.67730562       5.89960293       0.49004499       0.11306195      -1.39409893      -0.14911916      -0.23464819       0.88755115      -8.71842631
Si      18.35053055      12.65713994       9.19236651       0.25631186      -0.16710351      -0.51640224      -0.78680682       0.61505586      -1.25882617      -8.66589830
Si      14.39022558       3.87412876       2.76731556      -0.04300233      -0.51664715       1.28239595       0.18609554      -0.66601068       0.50227868      -8.73367712
Si      16.14477549       4.93283201       5.81978777       0.30882933      -0.35519502      -1.49094555       0.99222259       0.16218754       0.55516858      -8.67469032
Si      18.20982909       6.11928192       8.99470940       1.30763849      -0.73750562       0.60540112       0.60000640      -0.26742087       0.11955042      -8.51134113
Si      16.31233666       7.23007546       2.77280183       0.64861354       0.09693867       1.22543407      -0.28317186       0.00247473       0.55694814      -8.71768308
Si      18.19560686       8.23994109       5.80785501      -1.57348833      -0.50677671       0.15209484       1.13388025       0.13453402       0.12911598      -8.72140717
Si      20.15173409       9.43215085       9.05500064       0.49932639      -0.07739271       1.60224185      -0.20591309       0.13288113       0.55042375      -8.70472163
Si      18.21656646      10.54944365       2.69397547      -0.36343814       0.28313105      -0.38156429      -0.67470286       0.05277998       0.41590199      -8.72929212
Si      20.18976222      11.51624189       5.92921819       0.18699320       1.14091666       1.47515909      -0.98344918      -0.44755158      -0.85422608      -8.70428480
Si      21.98927262      12.78861753       8.97713102       1.05967773      -0.61117760      -0.11400879       1.02542217      -1.38588807      -0.52319234      -8.66162098
Si       0.77807915       0.53332719       0.37421649       0.59582016      -0.77028704       0.73318628       0.57559929       0.21733777      -0.29326782      -8.56913086
Si       2.79066153       1.57250155       3.47479292       0.93382370      -0.06465527      -1.20159782       0.51032623       0.84008606       0.84935964      -8.70234118
Si       4.70919713       2.68524368       6.56738849      -0.53949723      -0.04075785       0.79093202       0.65281299       0.54690035       0.79822547      -8.75109584
Si       2.92078899       3.94098798       0.49088638      -0.73144629       0.06387052      -1.44861106       0.11082395      -0.78879990      -1.21447859      -8.37331846
Si       4.76922763       4.97951985       3.49477109       0.21608002       0.45824750      -1.24360235       0.33932068       0.17407788       0.15134240      -8.70547219
Si       6.64340809       6.03822712       6.62492383       1.60632273       1.29160312      -1.39996183      -0.30330902      -0.48547709      -0.50097388      -8.52709183
Si       4.77344872       7.17652266       0.46871002       0.15760577      -0.37658862       0.36533365      -0.55626439       0.83831260      -0.76612387      -8.70158954
Si       6.75283885       8.34185765       3.44270350      -0.46988985      -0.13235061       0.61069612      -0.25030781      -0.56192044       0.25530754      -8.69437473
Si       8.62399528       9.26572995       6.73837892       0.27756717       0.43987623      -0.79938739      -0.29264236       0.52181341      -0.54406721      -8.72620527
Si       4.85381154       0.59165400       0.28552305       0.97976208      -0.38113366       1.56945630       0.08631171      -0.95941682       1.02807598      -8.51348206
Si       6.75772110       1.61798961       3.52814307      -0.08092972      -0.72189838       0.27018827      -0.15264242      -0.23344382       0.23276385      -8.68955689
Si       8.60986345       2.77680103       6.69541926      -1.56572662      -0.75497145       0.20082937       0.19334687      -0.66687735       0.04322092      -8.61605173
Si       6.83710206       3.93513140       0.60912533       0.38510403      -1.42518695       1.35817702       0.71901779       0.39877272      -0.86896761      -8.63810499
Si       8.69664655       4.97689807       3.42677257       0.09500428       0.16285749      -0.07952010       0.66612601       0.48862232       0.41298335      -8.65516477
Si      10.62494123       6.01925414       6.73921290      -0.34141034       0.57269750       1.39354256      -0.02941020       0.62852412      -1.07140803      -8.54173802
Si       8.61163510       7.19811820       0.42605328      -1.44496607       0.00155053      -1.49771285       0.32561507       0.08581135      -0.28415617      -8.69489339
Si      10.48308451       8.44312952       3.54018888       0.05930201       0.70668795       2.03517084       0.99266616      -0.90302015       0.65173730      -8.71920323
Si      12.50371693       9.38326403       6.73533705      -0.40729939      -0.65080788       1.56947846      -0.20116258       0.79370936       0.27279423      -8.72545692
Si       8.67773389       0.53145537       0.40284852      -1.61724810      -0.38182163      -1.45856890      -0.61602138       0.65307476       0.67641134      -8.72138124
Si      10.50333784       1.66008414       3.62961526      -0.44812162       1.41989536      -1.35521093       0.81319513      -0.42312086      -1.01680520      -8.69657156
Si      12.47853342       2.65220691       6.75318997       0.28169715       0.79282681      -0.13676105       0.80230198       0.57117174       0.37851096      -8.69338459
Si      10.67888507       3.94418823       0.46026829      -1.80636968      -0.01685571      -0.25223699      -1.04006927       0.22680354      -0.97749774      -8.64032296
Si      12.48886745       4.91427150       3.60832012      -0.09452462       0.53535001      -0.51700112      -0.58805795       0.48076139       0.00829740      -8.69669826
Si      14.41160090       6.18400168       6.79278760       0.78913944      -1.10078573       0.13059791      -0.28317533      -0.35442666      -0.43236939      -8.70620490
Si      12.37109912       7.16275784       0.50809709      -0.73404033       0.75981735      -0.20979781       0.82737087      -0.38153042      -0.04898856      -8.71066080
Si      14.32565919       8.31484000       3.68930104       0.02579777       0.70786831      -0.64718677       0.37829226      -0.21439297      -1.56913733      -8.67838684
Si      16.45055875       9.44532518       6.67397313       0.91022720      -0.14322922       0.36694740      -1.17024057       0.16643057      -0.54561248      -8.69542754
Si       8.81927655       5.19345442       8.30644965       0.73207887       1.63473316      -1.40187831      -0.10036996       0.11385569       0.17887966      -7.77549967
55
Lattice="11.5478352 0.0 0.0 5.773917198490155 10.000722372470358 0.0 5.773916394327279 3.333571176804646 9.428767828939895" Properties=species:S:1:pos:R:3:momenta:R:3:forces:R:3:energies:R:1 spacegroup="_JSON {\"number\": 1, \"setting\": 1}" unit_cell=conventional occupancy="_JSON {\"0\": {\"Si\": 1.0}, \"1\": {\"Si\": 1.0}, \"2\": {\"Si\": 1.0}, \"3\": {\"Si\": 1.0}, \"4\": {\"Si\": 1.0}, \"5\": {\"Si\": 1.0}, \"6\": {\"Si\": 1.0}, \"7\": {\"Si\": 1.0}, \"8\": {\"Si\": 1.0}, \"9\": {\"Si\": 1.0}, \"10\": {\"Si\": 1.0}, \"11\": {\"Si\": 1.0}, \"12\": {\"Si\": 1.0}, \"13\": {\"Si\": 1.0}, \"14\": {\"Si\": 1.0}, \"15\": {\"Si\": 1.0}, \"16\": {\"Si\": 1.0}, \"17\": {\"Si\": 1.0}, \"18\": {\"Si\": 1.0}, \"19\": {\"Si\": 1.0}, \"20\": {\"Si\": 1.0}, \"21\": {\"Si\": 1.0}, \"22\": {\"Si\": 1.0}, \"23\": {\"Si\": 1.0}, \"24\": {\"Si\": 1.0}, \"25\": {\"Si\": 1.0}, \"26\": {\"Si\": 1.0}, \"27\": {\"Si\": 1.0}, \"28\": {\"Si\": 1.0}, \"29\": {\"Si\": 1.0}, \"30\": {\"Si\": 1.0}, \"31\": {\"Si\": 1.0}, \"32\": {\"Si\": 1.0}, \"33\": {\"Si\": 1.0}, \"34\": {\"Si\": 1.0}, \"35\": {\"Si\": 1.0}, \"36\": {\"Si\": 1.0}, \"37\": {\"Si\": 1.0}, \"38\": {\"Si\": 1.0}, \"39\": {\"Si\": 1.0}, \"40\": {\"Si\": 1.0}, \"41\": {\"Si\": 1.0}, \"42\": {\"Si\": 1.0}, \"43\": {\"Si\": 1.0}, \"44\": {\"Si\": 1.0}, \"45\": {\"Si\": 1.0}, \"46\": {\"Si\": 1.0}, \"47\": {\"Si\": 1.0}, \"48\": {\"Si\": 1.0}, \"49\": {\"Si\": 1.0}, \"50\": {\"Si\": 1.0}, \"51\": {\"Si\": 1.0}, \"52\": {\"Si\": 1.0}, \"53\": {\"Si\": 1.0}, \"54\": {\"Si\": 1.0}}" energy=-475.51923523820733 stress="-0.009067876505678052 -0.003064698956737655 -0.001722159299957852 -0.003064698956737655 -0.009356992506481839 -0.0004963674026562385 -0.001722159299957852 -0.0004963674026562385 -0.008411914571623004" free_energy=-475.51923523820733 pbc="T T T"
Si       6.78549661       3.93543837       2.92687896      -1.18712456       0.58849278       0.79675448      -0.43973235      -1.09713266      -0.06744298      -8.65246728
Si       8.65663463       4.93339749       5.81295259       0.00299266       0.95536313       0.72969778      -0.11503455      -0.02901252      -0.11355138      -8.48095241
Si      10.93347341       6.11388379       9.14568673      -0.63579019       0.21526556       2.25375858      -1.24216416       0.06400352       0.01978290      -8.19934963
Si       8.68283043       7.17303643       2.76028965      -1.64449685      -0.44295751       0.21633408      -0.14679797       1.04872470      -0.37493676      -8.66364110
Si      10.59185642       8.31501928       5.96170828      -0.32110783      -0.43955236       1.18452862      -0.21666341      -0.38379625       0.39871581      -8.71907300
Si      12.51311007       9.43892135       9.08696423       0.08550955      -1.04618494      -0.18128673      -1.15531496      -0.82577753       0.74179234      -8.68776012
Si      10.48019278      10.55577298       2.71551789       0.06030593       0.34913042      -0.18140241       1.18750633       0.09305614       0.13524538      -8.71377599
Si      12.44183567      11.57443819       5.86276728      -1.66074164      -1.35964957      -0.59626421      -0.27227518      -0.11249670       0.61981018      -8.72260376
Si      14.31578398      12.77825475       9.02828368      -0.38253034       0.46160875      -0.67759106       0.68555400       0.38119804       0.28189167      -8.57864900
Si      10.59594212       3.79622705       2.70562402       0.68789673       1.03264148       0.35866885       0.07738467       1.18904228       0.12947500      -8.71178439
Si      12.50916362       4.87442593       5.98219663      -0.50940329      -0.80132063       0.02527009       0.23107128       0.84482086      -0.16289021      -8.67333844
Si      14.52935121       6.11778500       9.04259600      -0.04647490      -0.57959625      -1.23278341      -0.78684682      -0.42279812       0.84390146      -8.69916202
Si      12.42306526       7.21604983       2.84829936       1.26591413       0.77761783      -0.12998663      -0.21690304       0.12811588       0.11104477      -8.72432582
Si      14.45594946       8.36288514       5.96564443       0.62872268      -0.67790044       0.40420943      -0.22199368      -0.20109953       0.10439083      -8.71004089
Si      16.26321162       9.49943366       9.00559481      -0.22259051       0.27960217       1.15843204       0.32212988      -0.40373216       0.15225061      -8.72616093
Si      14.42017991      10.50925857       2.78950789      -1.45580479      -0.20732651      -0.02323772      -0.07143306       0.14330845      -0.84109972      -8.73100552
Si      16.34843897      11.67645405       5.86321481       0.16979207      -0.08186947      -0.05748531      -0.22063016       0.00884470       0.66498957      -8.68443263
Si      18.32920983      12.66884196       9.11962907      -1.06494835       0.50788090      -2.10259251      -0.76711305       0.22260501      -0.64929407      -8.72860283
Si      14.39554947       3.83001954       2.82984835       0.22158891      -0.92562863       0.72080576       0.09288300       0.26433919      -0.99919515      -8.69555928
Si      16.20124300       4.92137493       5.76934515       1.82840583      -0.07044029      -0.35541906       0.94128232       0.20698007       0.86354797      -8.64931898
Si      18.28307989       6.07837722       9.02523672       1.12860169      -0.69717802       0.43482801      -0.79878450       0.21978436      -0.36355682      -8.49806048
Si      16.33019080       7.23842424       2.84238447      -0.03410743       0.26866164       1.09677883      -0.53934444       0.18348454      -0.72459920      -8.72136360
Si      18.16846738       8.22777169       5.81773983       0.61417697       0.20959759       0.20931903       1.44984341       0.78119569       0.08204019      -8.71976736
Si      20.16409970       9.43664940       9.13848205      -0.10760311       0.27546045       1.21087929      -0.51349960       0.22790719      -0.89571549      -8.68228615
Si      18.17988836      10.56402943       2.69621111      -0.80510407       0.21297298       0.52036973       0.21265688      -0.19139067       0.62092142      -8.71985854
Si      20.16385481      11.55508473       5.96324206      -0.99123667       0.37410986      -0.26889158      -0.29308638      -0.33138448      -1.23467165      -8.68838631
Si      22.06567513      12.71693662       8.96324478       1.49781280      -1.77642594      -0.16139866      -0.33400422      -0.05196479       0.45427789      -8.72321780
Si       0.82718165       0.50288025       0.39640710       1.16260575      -0.38128993       0.08220104       0.13142244       0.26297094      -0.41337684      -8.61717699
Si       2.84087244       1.59894547       3.45620024       0.63611887       0.94125776       0.62273109      -0.80218990       0.32347763       1.37805292      -8.69689528
Si       4.71273069       2.70388846       6.63002121       0.66938530       0.65933471       1.34816339       0.65426935       0.20294824      -0.16288186      -8.76892605
Si       2.89157731       3.91171600       0.39717902      -0.27668874      -1.13962022      -1.60855630       0.52242928      -0.61880617       0.80234522      -8.43498074
Si       4.78749074       5.00618651       3.44174399       0.31535644       0.47501041      -0.66498880      -0.29915750      -0.14619380       0.59956160      -8.72023369
Si       6.70742982       6.07543072       6.54694686       0.71449572      -0.01627460      -1.30464812      -0.79029659      -1.03799307       0.54798266      -8.49476012
Si       4.77047335       7.18583924       0.46592249      -0.07359917       0.59756878      -0.28284554       0.19746465       0.31246909      -0.04371386      -8.70823421
Si       6.72312728       8.31939331       3.48322069      -0.58350599      -0.57219245       0.90337817       0.06056737       0.02722220       0.13154058      -8.70810536
Si       8.62079067       9.30777827       6.69235716      -0.47196242       1.10924600      -0.66019501      -0.57660776       0.31323621       0.61316200      -8.67164331
Si       4.89713500       0.53772992       0.39337087       0.47063131      -1.53729154       2.22085749      -0.71104380      -0.44468647      -0.23471955      -8.52091867
Si       6.73976217       1.58348792       3.54504121      -0.73671300      -0.38776219       0.25899537      -0.66650988       0.57816192      -0.21511076      -8.67087885
Si       8.54208227       2.71680093       6.69755919      -0.93066727      -1.39643708      -0.30279235       0.55233471      -0.14581676      -0.66759037      -8.59037812
Si       6.89103766       3.88671969       0.63995101       1.70121235      -0.29180783      -0.21044625       0.82560087       0.91108921      -0.99744864      -8.59278272
Si       8.73028456       4.99691419       3.44406850       1.09755474       0.41234318       0.80583548       0.33549467      -0.21402327       0.67772423      -8.66104961
Si      10.61392088       6.06954915       6.77320665       0.06066986       1.23240665       0.01498390       0.51205754       0.18347843      -0.64654188      -8.53705027
Si       8.56077230       7.20837761       0.35463550      -0.33640840       0.49660503      -0.93234968       0.92677153       0.48932612       0.86602927      -8.68384448
Si      10.51622892       8.43496969       3.65396151       1.01362169      -1.06528971       1.92484094       0.25714320      -1.12266812      -0.80889216      -8.68939795
Si      12.48404208       9.37760632       6.81091690      -0.19681343       0.32471595       0.97988491       0.36837767       0.37382958      -1.01120061      -8.72095052
Si       8.59552201       0.53298264       0.35758940      -1.06462908       0.31158874      -0.23561399       1.11624523       0.15521924       0.82002100      -8.65676691
Si      10.50813762       1.70506876       3.53170145       0.49762021       0.10057251      -2.06344010       0.29943136      -1.15719550       0.18002355      -8.73205465
Si      12.51255381       2.70507740       6.75778822       0.74751382       0.98364772       0.21129897      -0.23322884      -0.35339621      -0.02189887      -8.75881893
Si      10.56536564       3.94837084       0.40821054      -2.11243560       0.11125581      -1.59525500       0.56678839      -0.02517306      -0.47982858      -8.63408737
Si      12.46576445       4.95572625       3.58528630      -0.62406406       0.93121946      -0.29575535       0.03718148       0.04710949       0.26415298      -8.70688119
Si      14.43753144       6.11744492       6.76735555       0.15501869      -1.35576148      -1.31109873      -0.46308821      -0.03308156      -1.24371671      -8.70275429
Si      12.36774348       7.18482444       0.49787253       0.61759062       0.08666708      -0.14299004       0.87557641      -0.37162170       0.09235273      -8.71346666
Si      14.34494226       8.33912505       3.61090640       0.75210458       0.14802762      -1.92860389       0.54187143      -0.48108553       0.00698914      -8.74950107
Si      16.44652442       9.44885498       6.67495787      -1.05526033       0.30358726      -0.22303911      -1.14985996       0.27159817      -0.15024081      -8.71500080
Si       8.85651935       5.27854547       8.24349084       0.72859216       1.51629741      -0.96284784       0.06226460      -0.25722045       0.32009905      -7.75675216
55
Lattice="11.5478352 0.0 0.0 5.773917198490155 10.000722372470358 0.0 5.773916394327279 3.333571176804646 9.428767828939895" Properties=species:S:1:pos:R:3:momenta:R:3:forces:R:3:energies:R:1 spacegroup="_JSON {\"number\": 1, \"setting\": 1}" unit_cell=conventional occupancy="_JSON {\"0\": {\"Si\": 1.0}, \"1\": {\"Si\": 1.0}, \"2\": {\"Si\": 1.0}, \"3\": {\"Si\": 1.0}, \"4\": {\"Si\": 1.0}, \"5\": {\"Si\": 1.0}, \"6\": {\"Si\": 1.0}, \"7\": {\"Si\": 1.0}, \"8\": {\"Si\": 1.0}, \"9\": {\"Si\": 1.0}, \"10\": {\"Si\": 1.0}, \"11\": {\"Si\": 1.0}, \"12\": {\"Si\": 1.0}, \"13\": {\"Si\": 1.0}, \"14\": {\"Si\": 1.0}, \"15\": {\"Si\": 1.0}, \"16\": {\"Si\": 1.0}, \"17\": {\"Si\": 1.0}, \"18\": {\"Si\": 1.0}, \"19\": {\"Si\": 1.0}, \"20\": {\"Si\": 1.0}, \"21\": {\"Si\": 1.0}, \"22\": {\"Si\": 1.0}, \"23\": {\"Si\": 1.0}, \"24\": {\"Si\": 1.0}, \"25\": {\"Si\": 1.0}, \"26\": {\"Si\": 1.0}, \"27\": {\"Si\": 1.0}, \"28\": {\"Si\": 1.0}, \"29\": {\"Si\": 1.0}, \"30\": {\"Si\": 1.0}, \"31\": {\"Si\": 1.0}, \"32\": {\"Si\": 1.0}, \"33\": {\"Si\": 1.0}, \"34\": {\"Si\": 1.0}, \"35\": {\"Si\": 1.0}, \"36\": {\"Si\": 1.0}, \"37\": {\"Si\": 1.0}, \"38\": {\"Si\": 1.0}, \"39\": {\"Si\": 1.0}, \"40\": {\"Si\": 1.0}, \"41\": {\"Si\": 1.0}, \"42\": {\"Si\": 1.0}, \"43\": {\"Si\": 1.0}, \"44\": {\"Si\": 1.0}, \"45\": {\"Si\": 1.0}, \"46\": {\"Si\": 1.0}, \"47\": {\"Si\": 1.0}, \"48\": {\"Si\": 1.0}, \"49\": {\"Si\": 1.0}, \"50\": {\"Si\": 1.0}, \"51\": {\"Si\": 1.0}, \"52\": {\"Si\": 1.0}, \"53\": {\"Si\": 1.0}, \"54\": {\"Si\": 1.0}}" energy=-475.5336354341343 stress="-0.01043254353239878 0.00020553794516793927 0.0003350641466369004 0.00020553794516793927 -0.01082406691386902 1.1171958428966945e-05 0.0003350641466369004 1.1171958428966945e-05 -0.006517919685057682" free_energy=-475.5336354341343 pbc="T T T"
Si       6.72980620       3.92470316       2.95788452      -0.55905103      -0.90968614       0.22689127       1.01819298      -0.74957930      -0.68092237      -8.63051170
Si       8.65622332       4.97061148       5.84310534       0.05138117       0.26927320       0.38524403       0.14966133      -0.79521423      -0.24931149      -8.46947972
Si      10.86169361       6.12307275       9.26077917      -1.83037342       0.08104798       2.09911277      -0.19813091      -0.16421699      -0.13428487      -8.19204114
Si       8.60498894       7.19060137       2.75746583      -1.08333642       1.00034674      -0.27666252       0.80101478       0.64227238      -0.19214443      -8.65737050
Si      10.56905553       8.28977877       6.03581330      -0.51536114      -0.25243038       1.49982519      -0.08689623       0.65939380      -0.14745514      -8.73202019
Si      12.48017258       9.36491618       9.10908843      -1.09860582      -1.44708689       0.95959604      -0.24581419       0.44433864       0.48918335      -8.71398283
Si      10.52075067      10.56518537       2.73039500       1.20647789      -0.17811792       1.05263184       0.11581838      -0.67160340       1.28568496      -8.71660642
Si      12.35309295      11.50668009       5.85877112      -1.53856399      -1.06417613       0.41994871       0.45446698       0.51422434       0.53403493      -8.73433993
Si      14.32805930      12.81279816       9.00365879       0.91274785       0.76357686      -0.31351492       0.92326010       0.02487771       0.08581394      -8.64331016
Si      10.62914332       3.88323624       2.71442633       0.47868740       1.92337452      -0.23854303      -0.31122951      -0.17569147      -0.72460081      -8.73539068
Si      12.49014196       4.87381276       5.97210175      -0.24968121       0.82058675      -0.49237151       0.10236605       1.01493501      -0.48353103      -8.68432002
Si      14.49722153       6.06957928       9.00191931      -1.07497714      -1.24472005      -0.56122508      -0.38432543      -0.37098704      -0.07163649      -8.71907425
Si      12.47539716       7.25687900       2.84376044       0.68298776       0.66354377      -0.08251889      -0.40044525      -0.31726449      -0.04472794      -8.75765039
Si      14.47013707       8.32188719       5.97846483      -0.23622012      -0.84600445      -0.12896647      -0.80170465      -0.04568238      -0.73383858      -8.67992063
Si      16.26519652       9.50101127       9.06026808       0.31227196      -0.14067055       0.73541511       0.37409552      -0.10011076      -0.59888450      -8.74054921
Si      14.35023034      10.51046662       2.75543334      -1.08078387       0.32902801      -1.18709957       0.44591528       0.44280927      -0.49794320      -8.74814722
Si      16.34908247      11.67542398       5.87426532      -0.14546155       0.07136854       0.24857886      -0.22456019       0.11651858      -0.23639145      -8.67469960
Si      18.25734061      12.69824612       9.00650779      -1.38297718       0.52043173      -1.75675082       0.35817347      -0.14722320       1.09867904      -8.71910659
Si      14.40613127       3.80582563       2.82516338       0.08938230       0.19005602      -0.87933500      -0.26856979       0.98055778      -0.93126497      -8.63437496
Si      16.32331552       4.92461707       5.78089598       2.56449094       0.14999165       0.68385788      -0.09507693       0.02714096       0.42900251      -8.70234731
Si      18.29991025       6.05139304       9.02898597      -0.61144581      -0.32804803      -0.35721839      -1.29134297       0.24782314      -0.62271726      -8.45443623
Si      16.31242212       7.25725730       2.86107792      -0.48602495       0.36542830      -0.50976604       0.07164279      -0.14445408      -1.22935407      -8.71792087
Si      18.24111668       8.26840027       5.83794261       1.77543583       1.23533506       0.67696285      -0.02978558       0.38529096       0.51742546      -8.73941156
Si      20.14301637       9.45381665       9.16096541      -0.55038839       0.23910719      -0.39495931       0.05039093      -0.31021942      -1.07732400      -8.66905851
Si      18.16033328      10.56226234       2.73935826       0.29290203      -0.37797919       0.94148082       1.11432795      -0.55995985      -0.07345985      -8.70388337
Si      20.11793653      11.57191456       5.91087512      -0.48258824       0.44877745      -1.46240724       0.78909326       0.36886730      -0.18483460      -8.72277324
Si      22.12364977      12.64246326       8.97859592       0.63739311      -0.70836185       0.78673627      -0.65530108       1.33351951       0.62438206      -8.69722843
Si       0.88504279       0.49253450       0.39190378       0.90871186      -0.02568010      -0.09753359      -0.38767729       0.21463490       0.18243955      -8.62434398
Si       2.84082988       1.64574383       3.53345485      -0.57059761       0.58600715       2.04732516      -0.57349313      -0.65267136       0.28973364      -8.74465835
Si       4.76019187       2.73612920       6.68174118       0.88923499       0.40447983       0.46522798      -0.32161253      -0.44083143      -0.78025895      -8.73031152
Si       2.89990711       3.84305134       0.35626032       0.57805907      -1.17134896       0.18449366       0.44741987       0.56122773       1.35474373      -8.49059018
Si       4.78449556       5.02309775       3.43324709      -0.50750351       0.14266298       0.36895863      -0.59058141      -0.26409246       0.71275023      -8.70954176
Si       6.71490578       6.04466220       6.50742241      -0.34107109      -0.85915125      -0.09482448      -0.42799173       0.10710884       0.99485227      -8.51463791
Si       4.77649484       7.21427976       0.45810809       0.28013911       0.19199821       0.11000419       0.11949555      -0.82382412       0.44183816      -8.70871272
Si       6.69642947       8.29886516       3.53253779      -0.42550341      -0.07716802       0.91863291       0.10357506       0.54855550      -0.09250842      -8.73435313
Si       8.58011393       9.37226140       6.68816039      -0.89538988       1.25973941       0.57449836       0.13844377      -0.02329574       0.92007748      -8.69514863
Si       4.88903064       0.45167341       0.48284076      -0.83472179      -1.53696660       0.93258984      -0.93446571       0.37340065      -1.21993025      -8.50502347
Si       6.67776952       1.58853745       3.54878415      -1.49433862       0.58361960      -0.09473655      -0.14606470       0.60128319      -0.13047018      -8.71905982
Si       8.51470148       2.64660024       6.65476135      -0.13683792      -1.12315156      -1.27768214       0.46618289       0.47633356      -0.47893121      -8.53625745
Si       6.99666127       3.90014822       0.60069834       1.96179452       0.60668033      -1.04292898      -0.57339749       0.15073256      -0.05060998      -8.61857137
Si       8.78341510       5.00687967       3.50789815       0.61216098      -0.00423531       1.48689666      -0.89079660      -0.12691551       0.12458821      -8.67358785
Si      10.63748735       6.13023999       6.75990149       0.79670020       0.86336504      -0.30364093       0.35914568      -0.66062105       0.20841511      -8.47303514
Si       8.57064956       7.24917256       0.34238910       0.49409552       0.92438152       0.45526439       0.10956372      -0.01907597       0.84767569      -8.68689180
Si      10.56891187       8.34844210       3.71239216       0.80462047      -1.96600235       0.21877748      -0.49835402      -0.08238691      -1.15556351      -8.63601621
Si      12.48797393       9.39751737       6.81890136       0.31014851       0.19914237      -0.60620905       0.23471514      -0.54986121      -0.75984517      -8.71380768
Si       8.58450868       0.54345294       0.37079818       0.55481321      -0.13934842       0.57283300       0.80983687      -0.72564056       0.16962896      -8.63426255
Si      10.53276294       1.67518715       3.44526302       0.20235666      -0.93954667      -1.02297512      -0.61854436      -0.03220590       1.01417043      -8.71646796
Si      12.53131992       2.73463823       6.75618110      -0.18896511       0.07070751      -0.52349716      -0.85809676      -0.64149323      -0.98911531      -8.75422380
Si      10.49064682       3.95114143       0.32321030      -0.56759491      -0.05671540      -1.36425618       1.23502762      -0.23638733       0.61623809      -8.59779346
Si      12.44735309       5.00286761       3.58066061       0.13677646       0.83425510       0.09923060       0.86953879      -0.08907789       0.18009314      -8.69746310
Si      14.43179417       6.04867024       6.66074995      -0.25707108      -1.20017518      -2.46111357      -0.00705623       0.23231852      -0.13392971      -8.71030849
Si      12.42564591       7.18174857       0.49283623       1.37521146      -0.06062579      -0.08195393       0.04053461       0.18377240      -0.03053163      -8.72484678
Si      14.40041568       8.33188056       3.53033212       1.20575028      -0.28436338      -0.84256927      -0.07588045       0.06315468       1.20227321      -8.73208955
Si      16.36376684       9.46923536       6.66465348      -1.74026409       0.35381159      -0.04459527       0.23535081      -0.18773031       0.34206273      -8.73055881
Si       8.89652692       5.34292789       8.20290302       0.77096779       0.84963617      -0.65115949      -0.04005506      -0.60677432       0.07053448      -7.73111632
55
Lattice="11.5478352 0.0 0.0 5.773917198490155 10.000722372470358 0.0 5.773916394327279 3.333571176804646 9.428767828939895" Properties=species:S:1:pos:R:3:momenta:R:3:forces:R:3:energies:R:1 spacegroup="_JSON {\"number\": 1, \"setting\": 1}" unit_cell=conventional occupancy="_JSON {\"0\": {\"Si\": 1.0}, \"1\": {\"Si\": 1.0}, \"2\": {\"Si\": 1.0}, \"3\": {\"Si\": 1.0}, \"4\": {\"Si\": 1.0}, \"5\": {\"Si\": 1.0}, \"6\": {\"Si\": 1.0}, \"7\": {\"Si\": 1.0}, \"8\": {\"Si\": 1.0}, \"9\": {\"Si\": 1.0}, \"10\": {\"Si\": 1.0}, \"11\": {\"Si\": 1.0}, \"12\": {\"Si\": 1.0}, \"13\": {\"Si\": 1.0}, \"14\": {\"Si\": 1.0}, \"15\": {\"Si\": 1.0}, \"16\": {\"Si\": 1.0}, \"17\": {\"Si\": 1.0}, \"18\": {\"Si\": 1.0}, \"19\": {\"Si\": 1.0}, \"20\": {\"Si\": 1.0}, \"21\": {\"Si\": 1.0}, \"22\": {\"Si\": 1.0}, \"23\": {\"Si\": 1.0}, \"24\": {\"Si\": 1.0}, \"25\": {\"Si\": 1.0}, \"26\": {\"Si\": 1.0}, \"27\": {\"Si\": 1.0}, \"28\": {\"Si\": 1.0}, \"29\": {\"Si\": 1.0}, \"30\": {\"Si\": 1.0}, \"31\": {\"Si\": 1.0}, \"32\": {\"Si\": 1.0}, \"33\": {\"Si\": 1.0}, \"34\": {\"Si\": 1.0}, \"35\": {\"Si\": 1.0}, \"36\": {\"Si\": 1.0}, \"37\": {\"Si\": 1.0}, \"38\": {\"Si\": 1.0}, \"39\": {\"Si\": 1.0}, \"40\": {\"Si\": 1.0}, \"41\": {\"Si\": 1.0}, \"42\": {\"Si\": 1.0}, \"43\": {\"Si\": 1.0}, \"44\": {\"Si\": 1.0}, \"45\": {\"Si\": 1.0}, \"46\": {\"Si\": 1.0}, \"47\": {\"Si\": 1.0}, \"48\": {\"Si\": 1.0}, \"49\": {\"Si\": 1.0}, \"50\": {\"Si\": 1.0}, \"51\": {\"Si\": 1.0}, \"52\": {\"Si\": 1.0}, \"53\": {\"Si\": 1.0}, \"54\": {\"Si\": 1.0}}" energy=-475.3735715194845 stress="-0.011290467691475964 0.00035793385423470343 -4.928346760263536e-05 0.00035793385423470343 -0.006882297203423426 -0.0016464039871212314 -4.928346760263536e-05 -0.0016464039871212314 -0.008580326535006361" free_energy=-475.3735715194845 pbc="T T T"
Si       6.73892659       3.86370835       2.94007447       0.78035973      -1.07554762      -0.92360450       0.55953046       0.56850479      -0.75892670      -8.64457717
Si       8.66400983       4.95183104       5.85713812       0.20305333      -0.96858470       0.23037385      -0.00597119      -0.73980643       0.04845153      -8.44321081
Si      10.77689038       6.12018099       9.36439708      -1.08406977      -0.20787359       1.82963855       1.04539865      -0.22813938      -0.22167324      -8.15854765
Si       8.58327366       7.25448533       2.74286584       0.25060828       1.19985806      -0.12242422       0.78937840      -0.28106134       0.42487052      -8.68602476
Si      10.53911390       8.30788683       6.09600781      -0.61985950       0.92769110       0.59076119      -0.05940555       0.60604493      -0.94927985      -8.68702745
Si      12.42874215       9.32397918       9.16183566      -0.59046463       0.12961547       0.75034379       0.83922961       1.38806048      -0.67120931      -8.67396305
Si      10.56753069      10.52570797       2.82632802       0.22356564      -1.37048253       2.30807721      -1.25262207      -0.82660363       0.17962679      -8.68001965
Si      12.30020923      11.47663734       5.89099485      -0.30173892      -0.02807255       0.61357827       1.15110443       0.72196417      -0.21071834      -8.71062149
Si      14.40189343      12.84908334       8.98409970       1.62031188       0.52894453      -0.55641776      -0.17921531      -0.34379021      -0.40376078      -8.68712475
Si      10.64070965       3.96075969       2.67660996      -0.04014237       0.82258709      -1.06524484      -0.32984014      -1.02112381      -0.19378093      -8.69547520
Si      12.47975783       4.94044215       5.92813029      -0.15672385       1.37523512      -1.14918037       0.06553970      -0.30841709      -0.35358193      -8.71608854
Si      14.44051087       5.99688371       8.96004443      -0.82634930      -1.38620634      -1.14669255       0.62412966       0.17558526      -0.51081618      -8.67491743
Si      12.50136036       7.27455354       2.83615828       0.43394075      -0.04036129      -0.23093798       0.07645422      -0.51398486      -0.13662566      -8.75614225
Si      14.43078338       8.27798484       5.94111096      -1.10785621      -0.78458393      -1.26051907      -0.20139382       0.12456856      -0.59863794      -8.71734846
Si      16.29353981       9.49494101       9.07396615       0.69656866      -0.01465045      -0.18761702       0.09523276       0.19256208      -0.50749038      -8.73655985
Si      14.31138527      10.54124439       2.69030620      -0.41760564       0.75691958      -0.96496763       0.39142170       0.11245202       0.78107063      -8.73066870
Si      16.33183846      11.67953557       5.86969207      -0.53405709      -0.02451539      -0.54774331      -0.31201626      -0.31130287      -0.73251251      -8.71963433
Si      18.20954984      12.71791745       8.96633262      -0.30147221       0.21464457       0.22045993       0.90425157      -0.20734248       1.11204305      -8.68682317
Si      14.39760092       3.84540292       2.75792955      -0.43951905       1.09292129      -1.32826742      -0.36299421       0.13057413       0.45919290      -8.68195562
Si      16.43266856       4.92749589       5.82278052       1.23506921      -0.15355013       0.72098151      -1.50888994      -0.39522068      -0.30650820      -8.69177284
Si      18.22797367       6.04355016       8.98927714      -1.86328697       0.01113307      -1.04917574      -0.25884144       0.17084284      -0.19698548      -8.49505734
Si      16.30027815       7.26411728       2.79509628       0.15835775      -0.19998948      -1.73842417       0.58619915      -0.51086495      -0.17450092      -8.74272274
Si      18.31086319       8.33458274       5.89221931       0.53112926       1.05830699       1.32561728      -1.40092551      -0.49627022       0.27777935      -8.67828117
Si      20.12656201       9.44916953       9.10799077       0.07856142      -0.47312359      -1.36198613       0.65083424      -0.53498047      -0.03661635      -8.67900827
Si      18.21416069      10.52403672       2.77999964       1.54175266      -0.94474085       0.54023429       0.28644456      -0.04385676      -0.35795993      -8.74050854
Si      20.12447564      11.61166680       5.85134306       0.68350240       1.06008631      -0.34797798       0.61508619       0.35832130       1.56777892      -8.70986298
Si      22.13426963      12.65823835       9.03679716      -0.15207252       1.17516131       1.28045431      -0.33770850       0.82470515       0.03318032      -8.72378831
Si       0.91789896       0.49863654       0.39781171       0.40108606       0.24222943       0.35136956      -0.17953096       0.15418476       0.30292815      -8.62841758
Si       2.80068627       1.65229103       3.62385779      -0.72623440      -0.24182607       0.86688280       0.34310719      -0.31894923      -1.74312290      -8.71402439
Si       4.78597918       2.73975506       6.68254806      -0.01862067      -0.22357553      -0.24222935      -0.76607400      -0.28548085      -0.04531316      -8.70299590
Si       2.93527642       3.81216764       0.40901493       0.50954392       0.08570391       1.54197359      -0.55024431       0.93844830       0.24190069      -8.52241133
Si       4.74565011       5.01978293       3.47557912      -0.72126438      -0.27568574       1.11862857       0.37283289      -0.28898030       0.21789160      -8.68348848
Si       6.69707972       6.02224491       6.54233748      -0.01277448       0.28484477       1.41125389       0.80057650       1.19225274       0.92147500      -8.52088754
Si       4.78855209       7.18906249       0.47610785       0.03726239      -1.08552645       0.39406231      -0.43508963      -0.57650053      -0.26742601      -8.73417564
Si       6.67836837       8.31505188       3.57552920      -0.24314106       0.61304559       0.70689619       0.18387682       0.23415465      -0.15105248      -8.75382094
Si       8.55158031       9.43839090       6.74858545       0.01256914       1.30428173       1.55191715       0.92668260       0.12139124       0.21036065      -8.74024283
Si       4.81607313       0.39359666       0.49341321      -1.72777614      -0.53882970      -0.23392174      -0.06424930       0.92865091      -0.10369044      -8.54795814
Si       6.61038988       1.63514776       3.54572356      -0.77827686       1.01415325       0.10786905       0.98491937      -0.10847263       0.36175843      -8.72251350
Si       8.52203244       2.61175783       6.57966514       0.33869710      -0.13220821      -1.38105366       0.16423816       0.76664152       0.31791806      -8.50236541
Si       7.06199231       3.92365903       0.55661747       0.33360222       0.04997292      -0.46408532      -1.36133491      -0.78057641       0.61605921      -8.57510822
Si       8.77626836       5.00865840       3.57679011      -0.87740436       0.17736573       0.86565260      -0.88252871       0.28525930      -0.94533082      -8.66218211
Si      10.68505586       6.14657632       6.75950431       0.84890545      -0.19506541       0.38256766      -0.29642997      -0.49273651       0.58668915      -8.38612255
Si       8.59307792       7.28829882       0.39095207       0.27574929       0.43512071       1.20664288      -0.23761127      -0.53997883       0.10520688      -8.65783253
Si      10.58560700       8.25491870       3.69048960      -0.23311284      -1.39794653      -0.79614594      -0.74840000       0.71173403      -0.16427709      -8.65208671
Si      12.50802204       9.37918057       6.77481197       0.34356621      -0.95651957      -0.76904835      -0.19930382      -0.77204678       0.42092137      -8.70189975
Si       8.63253549       0.50468208       0.39516422       1.03439935      -1.31571204       0.13820030      -0.14637216      -0.63975153      -0.67276010      -8.69361190
Si      10.51915376       1.63904035       3.42970826      -0.62019369      -0.25611732       0.33122562      -0.24726702       0.70411219       0.64107884      -8.66915745
Si      12.49056311       2.72198754       6.68832466      -1.26733303      -0.35319502      -1.95573257      -0.48534464       0.12782090      -0.58085224      -8.75577046
Si      10.50128873       3.93550802       0.27867160       0.75798414      -0.57916322      -0.34168019       0.41014825      -0.38053778       0.60559323      -8.65475098
Si      12.48676751       5.04273306       3.58585122       1.24139767       0.66265166      -0.06632095       0.39492602      -0.18330306      -0.46184291      -8.71141842
Si      14.42663663       5.99847467       6.54452862       0.20484897      -0.65482719      -1.68106204       0.54920611       0.46282630       1.00727744      -8.67220890
Si      12.48636361       7.19026625       0.48582236       0.74936579       0.42808282      -0.21381020      -0.69840033       0.34973613      -0.14831204      -8.71896760
Si      14.44786713       8.33077694       3.53256967       0.41352060       0.41238621       0.81516389      -0.80038251       0.71765330       0.76284298      -8.71970596
Si      16.29392272       9.47711001       6.67711045      -0.78173570      -0.09861840       0.50305807       0.80206558      -0.37276312       0.27880193      -8.69883361
Si       8.93175193       5.36264653       8.17034399       0.50380639      -0.08584440      -0.57761331      -0.30442732      -0.56620924       0.12286719      -7.72288015
55
Lattice="11.5478352 0.0 0.0 5.773917198490155 10.000722372470358 0.0 5.773916394327279 3.333571176804646 9.428767828939895" Properties=species:S:1:pos:R:3:momenta:R:3:forces:R:3:energies:R:1 spacegroup="_JSON {\"number\": 1, \"setting\": 1}" unit_cell=conventional occupancy="_JSON {\"0\": {\"Si\": 1.0}, \"1\": {\"Si\": 1.0}, \"2\": {\"Si\": 1.0}, \"3\": {\"Si\": 1.0}, \"4\": {\"Si\": 1.0}, \"5\": {\"Si\": 1.0}, \"6\": {\"Si\": 1.0}, \"7\": {\"Si\": 1.0}, \"8\": {\"Si\": 1.0}, \"9\": {\"Si\": 1.0}, \"10\": {\"Si\": 1.0}, \"11\": {\"Si\": 1.0}, \"12\": {\"Si\": 1.0}, \"13\": {\"Si\": 1.0}, \"14\": {\"Si\": 1.0}, \"15\": {\"Si\": 1.0}, \"16\": {\"Si\": 1.0}, \"17\": {\"Si\": 1.0}, \"18\": {\"Si\": 1.0}, \"19\": {\"Si\": 1.0}, \"20\": {\"Si\": 1.0}, \"21\": {\"Si\": 1.0}, \"22\": {\"Si\": 1.0}, \"23\": {\"Si\": 1.0}, \"24\": {\"Si\": 1.0}, \"25\": {\"Si\": 1.0}, \"26\": {\"Si\": 1.0}, \"27\": {\"Si\": 1.0}, \"28\": {\"Si\": 1.0}, \"29\": {\"Si\": 1.0}, \"30\": {\"Si\": 1.0}, \"31\": {\"Si\": 1.0}, \"32\": {\"Si\": 1.0}, \"33\": {\"Si\": 1.0}, \"34\": {\"Si\": 1.0}, \"35\": {\"Si\": 1.0}, \"36\": {\"Si\": 1.0}, \"37\": {\"Si\": 1.0}, \"38\": {\"Si\": 1.0}, \"39\": {\"Si\": 1.0}, \"40\": {\"Si\": 1.0}, \"41\": {\"Si\": 1.0}, \"42\": {\"Si\": 1.0}, \"43\": {\"Si\": 1.0}, \"44\": {\"Si\": 1.0}, \"45\": {\"Si\": 1.0}, \"46\": {\"Si\": 1.0}, \"47\": {\"Si\": 1.0}, \"48\": {\"Si\": 1.0}, \"49\": {\"Si\": 1.0}, \"50\": {\"Si\": 1.0}, \"51\": {\"Si\": 1.0}, \"52\": {\"Si\": 1.0}, \"53\": {\"Si\": 1.0}, \"54\": {\"Si\": 1.0}}" energy=-475.30733638230606 stress="-0.009183564852853425 -0.0014324645905069051 -0.0008216842311592196 -0.0014324645905069051 -0.0027122473360581384 -0.00212869519151583 -0.0008216842311592196 -0.00212869519151583 -0.014014002306886519" free_energy=-475.30733638230606 pbc="T T T"
Si       6.78790919       3.84063129       2.86925779       0.82663966       0.28918178      -1.59315704      -0.46761286       0.93630883      -0.03912350      -8.67860900
Si       8.67141434       4.88184136       5.87027740       0.03616140      -1.46681278       0.19231658      -0.17691297       0.18425610      -0.25636195      -8.39846528
Si      10.76225646       6.10131463       9.44936440       0.43219041      -0.47152122       1.36358635       0.69264225      -0.07288214      -0.41358789      -8.19077336
Si       8.61561239       7.29984724       2.75847282       0.72333566       0.43565324       0.76494898      -0.21690618      -0.66417116       0.60472379      -8.71994461
Si      10.50540318       8.36427001       6.08864008      -0.64117062       0.91362664      -0.84857216       0.03807577      -0.58468615      -0.87139791      -8.66355242
Si      12.43805330       9.37570027       9.17070215       1.02273836       1.56636693      -0.41674916       1.13112435       0.34072939      -0.71086488      -8.69161686
Si      10.53186638      10.43299178       2.93650628      -1.42328111      -1.86078897       1.60762210      -0.65868872       0.34659466      -0.96226120      -8.67205340
Si      12.33058235      11.49689237       5.91269188       1.40655902       0.65800492       0.23012744       0.94324806       0.17879843      -0.16046031      -8.70814675
Si      14.45984460      12.85864462       8.93658726       0.29467178      -0.22884149      -1.24874102      -1.30241701      -0.58193919      -0.35836760      -8.63906859
Si      10.62778973       3.96677844       2.62771953      -0.41553801      -0.49689212      -0.54015510      -0.19026999      -0.65885916       0.81072660      -8.64996177
Si      12.47615111       4.98845553       5.85940628       0.05994546       0.31996301      -1.35826778       0.21583340      -0.84979154       0.09080147      -8.70814952
Si      14.42541715       5.93720559       8.88793268       0.26076825      -0.79410904      -1.39282277       0.68092143       0.55508245       0.30383072      -8.62091983
Si      12.52857001       7.25799466       2.81922747       0.58109190      -0.44199918      -0.40281218      -0.00268726       0.06227653      -0.09882854      -8.73627857
Si      14.37845536       8.24359977       5.86617798      -0.65718472      -0.50164225      -1.26857809       0.69458887       0.22659231       0.67476197      -8.73640299
Si      16.32799211       9.49983973       9.05248979       0.51175916       0.13846440      -0.45877450      -0.31867534      -0.04588716       0.16043372      -8.72952421
Si      14.30295074      10.58117014       2.67743404       0.07087644       0.70143298       0.49407314       0.29633433      -0.14287139       0.87327243      -8.71631794
Si      16.29186325      11.66017519       5.81489243      -0.96484125      -0.79817261      -1.42947378      -0.20607373      -0.63889305      -0.29046730      -8.76643980
Si      18.22333429      12.72363138       9.00320941       0.64970167       0.06866568       0.83828023       0.22142846       0.04499830      -0.23612927      -8.67901515
Si      14.36607701       3.89615344       2.72496492      -0.60532129       0.64871451       0.32888960       0.25772824      -0.64631019       1.44204912      -8.68582648
Si      16.44191559       4.90686063       5.84786261      -0.66424595      -0.51837281       0.29171615      -0.70664415       0.02906999      -0.10976859      -8.70794288
Si      18.13823581       6.04699845       8.93977802      -1.23915932       0.04158561      -0.55304386       0.99577007      -0.12876078       0.91915615      -8.46666093
Si      16.32470288       7.23721681       2.72180245       0.61171890      -0.72868196      -0.63621917      -0.01903790      -0.14789963       1.42955094      -8.71882807
Si      18.28709486       8.37039629       5.96718209      -1.24798803       0.37466130       1.43856282      -0.68906810      -0.25708488      -0.10643370      -8.69172899
Si      20.15252177       9.40814542       9.05707003       0.78392485      -0.97367397      -0.20749734       0.16380160      -0.07938681       1.37247689      -8.68859430
Si      18.28628505      10.48433060       2.79416621       0.86647169      -0.37884216       0.00384732      -1.05060912       0.69995902      -0.33958862      -8.73728894
Si      20.17246522      11.67605798       5.89142213       0.87027404       1.28147095       1.59301741      -0.47099888      -0.08919623       0.52730574      -8.74611126
Si      22.12215252      12.72918311       9.09660325      -0.11542277       1.09976771       0.84073805       0.41390975      -0.84293976      -0.59007213      -8.69696111
Si       0.93687330       0.51651747       0.42347198       0.39392005       0.41712972       0.52119657       0.09776039       0.05963704      -0.10901021      -8.61351039
Si       2.78480773       1.63462021       3.60279002       0.25011588      -0.29775789      -1.39467536       0.84865929       0.21487811      -0.74074009      -8.70562094
Si       4.76087829       2.72346109       6.68003083      -0.73152835      -0.27269494       0.34929134       0.04798842       0.20503086       0.75495657      -8.72748187
Si       2.93469370       3.84671611       0.47610319      -0.56067315       1.04734666       0.63082344      -0.68628719       0.21658478      -1.22949498      -8.47515967
Si       4.73210939       4.99544051       3.53194110       0.32972449      -0.61853010       0.82734197       0.87507919      -0.15897489      -0.57298534      -8.64697431
Si       6.72719841       6.07701872       6.63800691       1.03092338       1.55904158       1.88258768       0.34354997       0.27117260      -0.44490613      -8.56748145
Si       4.77060221       7.12587082       0.47206673      -0.71556452      -1.02541184      -0.74875046      -0.39538932       0.58580903      -1.02029070      -8.71917256
Si       6.67491326       8.34564619       3.60718682       0.13758931       0.35517387       0.51837196       0.28302080      -0.52984608      -0.07879652      -8.73098493
Si       8.58400738       9.50973011       6.81784842       1.05386069       1.34897664       0.70913388       0.28574204      -0.13440405      -1.23428316      -8.73616492
Si       4.74357684       0.40382841       0.49466590      -0.69236664       0.90681309       0.53871541       1.24598035       0.82913189       0.89729336      -8.53265452
Si       6.60729836       1.67152558       3.56509620       0.54011974       0.17225851       0.57270240       0.55230284      -0.87416931       0.14681316      -8.70130031
Si       8.54242054       2.63109744       6.52723000       0.38419210       0.74480855      -0.50916311      -0.04539549       0.27657563       0.75546045      -8.54339265
Si       7.03049456       3.89581513       0.54920129      -1.39270719      -1.02493910      -0.04726088      -0.81034355      -0.45550351      -0.26116984      -8.63351642
Si       8.70743226       5.02895971       3.57874501      -1.50400071       0.57250770      -0.81913015       0.06639572       0.19452060      -1.06407657      -8.66182859
Si      10.71189896       6.12954582       6.79963879       0.10847180      -0.24260395       1.06370290      -0.55709542       0.31899889       0.26233962      -8.33828622
Si       8.60123930       7.29010639       0.44694018       0.11815977      -0.32382223       0.74567132       0.08482209      -0.38056439      -0.60339492      -8.63519181
Si      10.55275125       8.21038579       3.65438845      -0.78814428      -0.35047608      -0.38264985       0.14734034       0.52579651       0.62140247      -8.69640206
Si      12.51398505       9.31110208       6.75568162      -0.16434237      -1.36465346       0.05848306      -0.38462980       0.28114353       0.51067531      -8.70015654
Si       8.66933865       0.42489370       0.37658300       0.16412008      -1.41866724      -0.73636370      -0.94297418       0.55560190      -0.25890154      -8.74767654
Si      10.48902508       1.65090494       3.45953833      -0.32864424       0.63308242       0.55048147       0.53519149       0.41959207      -0.36293111      -8.65647990
Si      12.41573229       2.71719596       6.58337658      -1.38942983       0.28911647      -1.68381478       0.27423411       0.59161066       0.82639306      -8.70925351
Si      10.54174007       3.89599743       0.27819906       0.50673735      -0.78732530       0.20154840      -0.67913137       0.15468599       0.13663568      -8.67935303
Si      12.55117662       5.06719618       3.55803547       0.89986208       0.21788430      -1.05561867      -0.84148649      -0.38602402      -0.69894018      -8.71928600
Si      14.45683166       5.98213720       6.49903534       0.83879780       0.01019091      -0.06815065       0.13743738       0.38583726       0.96545027      -8.69023615
Si      12.50106898       7.22048259       0.46751665      -0.08242281       0.58304317      -0.50099697      -0.30587340      -0.19268925      -0.20940498      -8.72704823
Si      14.44290548       8.37657042       3.58434260      -0.45946430       1.20837368       0.72860851      -0.26662140       0.24467774      -0.89840556      -8.72616168
Si      16.27853068       9.45818037       6.70697143       0.03188174      -0.58922964       0.48002949       0.17308947      -0.24031362      -0.32076813      -8.69430769
Si       8.94487185       5.34115290       8.15048671      -0.01386345      -0.62684460      -0.06497742      -0.35217064      -0.15190276       0.56570386      -7.74707047
55
Lattice="11.5478352 0.0 0.0 5.773917198490155 10.000722372470358 0.0 5.773916394327279 3.333571176804646 9.428767828939895" Properties=species:S:1:pos:R:3:momenta:R:3:forces:R:3:energies:R:1 spacegroup="_JSON {\"number\": 1, \"setting\": 1}" unit_cell=conventional occupancy="_JSON {\"0\": {\"Si\": 1.0}, \"1\": {\"Si\": 1.0}, \"2\": {\"Si\": 1.0}, \"3\": {\"Si\": 1.0}, \"4\": {\"Si\": 1.0}, \"5\": {\"Si\": 1.0}, \"6\": {\"Si\": 1.0}, \"7\": {\"Si\": 1.0}, \"8\": {\"Si\": 1.0}, \"9\": {\"Si\": 1.0}, \"10\": {\"Si\": 1.0}, \"11\": {\"Si\": 1.0}, \"12\": {\"Si\": 1.0}, \"13\": {\"Si\": 1.0}, \"14\": {\"Si\": 1.0}, \"15\": {\"Si\": 1.0}, \"16\": {\"Si\": 1.0}, \"17\": {\"Si\": 1.0}, \"18\": {\"Si\": 1.0}, \"19\": {\"Si\": 1.0}, \"20\": {\"Si\": 1.0}, \"21\": {\"Si\": 1.0}, \"22\": {\"Si\": 1.0}, \"23\": {\"Si\": 1.0}, \"24\": {\"Si\": 1.0}, \"25\": {\"Si\": 1.0}, \"26\": {\"Si\": 1.0}, \"27\": {\"Si\": 1.0}, \"28\": {\"Si\": 1.0}, \"29\": {\"Si\": 1.0}, \"30\": {\"Si\": 1.0}, \"31\": {\"Si\": 1.0}, \"32\": {\"Si\": 1.0}, \"33\": {\"Si\": 1.0}, \"34\": {\"Si\": 1.0}, \"35\": {\"Si\": 1.0}, \"36\": {\"Si\": 1.0}, \"37\": {\"Si\": 1.0}, \"38\": {\"Si\": 1.0}, \"39\": {\"Si\": 1.0}, \"40\": {\"Si\": 1.0}, \"41\": {\"Si\": 1.0}, \"42\": {\"Si\": 1.0}, \"43\": {\"Si\": 1.0}, \"44\": {\"Si\": 1.0}, \"45\": {\"Si\": 1.0}, \"46\": {\"Si\": 1.0}, \"47\": {\"Si\": 1.0}, \"48\": {\"Si\": 1.0}, \"49\": {\"Si\": 1.0}, \"50\": {\"Si\": 1.0}, \"51\": {\"Si\": 1.0}, \"52\": {\"Si\": 1.0}, \"53\": {\"Si\": 1.0}, \"54\": {\"Si\": 1.0}}" energy=-475.05668697133854 stress="-0.009194065967592771 -0.0026542374654115516 -0.0013581802129726886 -0.0026542374654115516 -0.006384380607548439 4.7188665349941635e-05 -0.0013581802129726886 4.7188665349941635e-05 -0.011382168603329699" free_energy=-475.05668697133854 pbc="T T T"
Si       6.80389783       3.87879461       2.79682376      -0.33193323       0.86139164      -0.98355645      -0.91378003      -0.23626503       0.66642338      -8.70416124
Si       8.66672614       4.82939982       5.86189559      -0.19679076      -0.22686943      -0.64096004      -0.10752513       1.36594733      -0.74771663      -8.32356660
Si      10.79336845       6.07773193       9.50001841       0.37382574      -0.36418443       0.46541088      -0.78665923       0.17442816      -0.81568980      -8.19993090
Si       8.63403619       7.29721778       2.81330935      -0.15007980      -0.48119138       1.12176825      -0.71248004      -0.44348913      -0.17942674      -8.74019745
Si      10.47576681       8.38149362       6.01920018      -0.43540944      -0.33548393      -1.58072922       0.24852298      -0.90767300      -0.00426855      -8.68179285
Si      12.52251774       9.45259735       9.12883379       1.85988642       1.05437514      -1.02642049      -0.16597028      -0.88609634      -0.11694104      -8.70779236
Si      10.45116310      10.36619386       2.97703888      -1.27819002      -0.45179317      -0.11995500       0.81806954       1.25482596      -1.19157851      -8.65564315
Si      12.42565968      11.53159416       5.92386507       1.89229373       0.54726219       0.28954938      -0.32652528      -0.29128837       0.19826898      -8.68691194
Si      14.43322376      12.82953617       8.87114135      -1.05023099      -0.73923384      -0.92817742      -0.33557977      -0.04718268       0.87021494      -8.60272457
Si      10.59932560       3.92459214       2.63354217      -0.66967481      -0.91372231       0.71822146      -0.18995468       0.12229911       0.64681734      -8.66493442
Si      12.48674139       4.97947382       5.79832033       0.30103520      -0.46749327      -0.86382186       0.05157333      -0.10157902       0.51121790      -8.69436368
Si      14.45857611       5.91814633       8.84058321       0.84451032       0.06115560      -0.18303580       0.05851280       0.53808047       1.19906461      -8.61572767
Si      12.55312615       7.24611244       2.79382964       0.24768511       0.12161413      -0.58351895      -0.42239706       0.57542762      -0.16424504      -8.70665580
Si      14.37300394       8.22695949       5.83801482       0.41780949      -0.10883054       0.29117795       0.58036380       0.32444637       1.04920183      -8.72912433
Si      16.33954394       9.50099895       9.04066360      -0.10067844      -0.16716325       0.07061323      -0.43596213      -0.33393790       0.40810574      -8.71795616
Si      14.31823592      10.61124567       2.72338102       0.51599729       0.44295497       0.95911472       0.30986548      -0.15403470      -0.28579030      -8.73102823
Si      16.23976103      11.59763542       5.74326188      -0.88113560      -1.45835839      -1.02445786       0.34072437      -0.14228466       0.77580467      -8.73549673
Si      18.25193997      12.73190083       9.02673832       0.18776148       0.27796134      -0.09485858      -0.76700001       0.16598557      -0.85013197      -8.65787682
Si      14.35645896       3.90025179       2.78518990       0.43534454      -0.52450451       1.60311417       1.00519220      -0.75957298       0.07128319      -8.70277051
Si      16.39887879       4.88758545       5.86435277      -0.64706195      -0.12068280       0.40968789       0.59128671       0.41531727       0.17451942      -8.67342049
Si      18.11884431       6.04365085       8.95631638       0.54950880      -0.12972431       1.26041277       1.20432481       0.02973766       1.21650648      -8.46033521
Si      16.34964101       7.19880208       2.74093444       0.24628439      -0.64156295       1.15548852      -0.39064807       0.23036547       0.65877791      -8.68577736
Si      18.21581693       8.38675046       6.03159437      -1.07577134       0.35012152       0.87865754       0.84985318       0.13510828      -0.64707725      -8.69455833
Si      20.18842627       9.36332072       9.09129569       0.37245068      -0.54644360       1.16975377      -0.65821275       0.66249874       0.09628768      -8.71193654
Si      18.28672708      10.49292034       2.78452352      -0.81790934       0.67604102      -0.28417045      -0.93667314       0.59060465      -0.00523892      -8.72916065
Si      20.18580354      11.73373044       5.96959046      -0.52618402       0.84699711       0.98718415      -1.09014380      -0.35802296      -1.04252325      -8.70856426
Si      22.13583218      12.74507969       9.11525402       0.60123801      -0.53539118      -0.10540591       0.28006450      -1.02225920      -0.49759825      -8.69374496
Si       0.95989741       0.53681655       0.44090219       0.43401403       0.26316441       0.05808331      -0.09455087      -0.31021150      -0.43975521      -8.61194618
Si       2.82548384       1.63149110       3.52807999       1.09827511       0.22191574      -1.00761851       0.06092388       0.38560845       1.02231590      -8.68477340
Si       4.74293582       2.72096939       6.72918413       0.33620195       0.20927332       1.47027029       1.14612646       0.32045389       0.53178929      -8.73333166
Si       2.88520001       3.89348615       0.46634608      -1.19775153       0.40886708      -0.75094287      -0.18521890      -1.05665609      -0.29490931      -8.47215805
Si       4.77975116       4.95949940       3.54900332       1.36640547      -0.69955320      -0.17788990       0.40478275       0.05172770      -0.57979722      -8.69021732
Si       6.78297325       6.15100928       6.70297830       0.90452968       0.95624628       0.40868528      -0.42150045      -0.93438312      -1.17570114      -8.52415987
Si       4.73206574       7.10301970       0.40523988      -0.41484626       0.24961675      -1.46127323       0.90644464       0.96445314       0.26163866      -8.71415238
Si       6.69055403       8.34176297       3.63292144       0.38319114      -0.46253335       0.49423461      -0.01556869      -0.37948659       0.04183793      -8.72039807
Si       8.63645179       9.56825667       6.80761380       0.70424753       0.74466116      -0.93488270      -0.66247435      -0.67683744      -0.64693670      -8.71190498
Si       4.75269953       0.46891865       0.55295070       0.87949780       1.25247481       1.50928594       0.66744855      -0.41125008       0.23984406      -8.54562781
Si       6.64467017       1.65026729       3.59412376       0.66481810      -0.83786828       0.42050060      -0.31362738      -0.33225889      -0.29350364      -8.66526650
Si       8.56212213       2.66851313       6.52904798       0.42178209       0.46953622       0.51481726       0.16572698      -0.52863468       0.50678067      -8.59727586
Si       6.94313575       3.83845750       0.52247577      -1.57223549      -0.87313073      -1.16227854       0.61857423       0.67646576      -0.99308157      -8.60885959
Si       8.64323587       5.06160344       3.50693266      -0.75113508       0.55021608      -1.64957510       0.82059931      -0.29332457      -0.02446998      -8.66427083
Si      10.70042460       6.13017308       6.85763360      -0.44197801       0.22669606       0.99171148      -0.16628169       0.17777378      -0.35107185      -8.31232183
Si       8.61682571       7.26550752       0.46306411       0.58843711      -0.46492739      -0.05723302       0.51802488       0.19982830      -0.33108365      -8.64328302
Si      10.53074464       8.20350376       3.66066169       0.13963368      -0.07504998       0.58025832       0.88390105      -0.09639655       0.44539845      -8.69309295
Si      12.49470521       9.26188507       6.77088693      -0.46332152      -0.35290807       0.34238935       0.02526264       0.91864680      -0.18676165      -8.70211786
Si       8.64347735       0.38456863       0.34086579      -0.97577931       0.03736796      -0.41329481      -0.27562615       1.17645665       0.56946968      -8.72893186
Si      10.49504242       1.69295756       3.46401946       0.55722985       0.81524474      -0.50686133       0.54013811      -0.19449788      -0.84769655      -8.69309916
Si      12.35783041       2.75086133       6.53525394      -0.79695745       0.85262806      -0.07097198       0.36986334       0.04759541       1.16482571      -8.66514310
Si      10.53601927       3.86694670       0.29086496      -0.75298458      -0.24306089       0.25539904      -0.79365927       0.46213872       0.03350488      -8.66263614
Si      12.55466350       5.06355124       3.48387269      -0.89179364      -0.34758109      -1.58113510      -1.31843483      -0.35955467       0.03045743      -8.72548987
Si      14.49479934       5.99472833       6.52284714       0.41049760       0.40760247       0.76240845      -0.63353163       0.13790809       0.14314845      -8.73111995
Si      12.49205350       7.23712315       0.43536696      -0.14781758      -0.03136747      -0.67212291       0.13798575      -0.51602245      -0.01093386      -8.71757064
Si      14.41736357       8.43861803       3.57770947      -0.36041884       0.93942560      -0.99446801       0.34514869      -0.62016594      -0.95987014      -8.71512620
Si      16.27528717       9.42280060       6.71547349      -0.35970895      -0.65988004      -0.17688639      -0.61628687       0.14769578      -0.40465750      -8.70972952
Si       8.93186279       5.30741358       8.17112686      -0.44661436      -0.58431762       0.84830381      -0.21303249       0.14154131       0.55495106      -7.79652918
55
Lattice="11.5478352 0.0 0.0 5.773917198490155 10.000722372470358 0.0 5.773916394327279 3.333571176804646 9.428767828939895" Properties=species:S:1:pos:R:3:momenta:R:3:forces:R:3:energies:R:1 spacegroup="_JSON {\"number\": 1, \"setting\": 1}" unit_cell=conventional occupancy="_JSON {\"0\": {\"Si\": 1.0}, \"1\": {\"Si\": 1.0}, \"2\": {\"Si\": 1.0}, \"3\": {\"Si\": 1.0}, \"4\": {\"Si\": 1.0}, \"5\": {\"Si\": 1.0}, \"6\": {\"Si\": 1.0}, \"7\": {\"Si\": 1.0}, \"8\": {\"Si\": 1.0}, \"9\": {\"Si\": 1.0}, \"10\": {\"Si\": 1.0}, \"11\": {\"Si\": 1.0}, \"12\": {\"Si\": 1.0}, \"13\": {\"Si\": 1.0}, \"14\": {\"Si\": 1.0}, \"15\": {\"Si\": 1.0}, \"16\": {\"Si\": 1.0}, \"17\": {\"Si\": 1.0}, \"18\": {\"Si\": 1.0}, \"19\": {\"Si\": 1.0}, \"20\": {\"Si\": 1.0}, \"21\": {\"Si\": 1.0}, \"22\": {\"Si\": 1.0}, \"23\": {\"Si\": 1.0}, \"24\": {\"Si\": 1.0}, \"25\": {\"Si\": 1.0}, \"26\": {\"Si\": 1.0}, \"27\": {\"Si\": 1.0}, \"28\": {\"Si\": 1.0}, \"29\": {\"Si\": 1.0}, \"30\": {\"Si\": 1.0}, \"31\": {\"Si\": 1.0}, \"32\": {\"Si\": 1.0}, \"33\": {\"Si\": 1.0}, \"34\": {\"Si\": 1.0}, \"35\": {\"Si\": 1.0}, \"36\": {\"Si\": 1.0}, \"37\": {\"Si\": 1.0}, \"38\": {\"Si\": 1.0}, \"39\": {\"Si\": 1.0}, \"40\": {\"Si\": 1.0}, \"41\": {\"Si\": 1.0}, \"42\": {\"Si\": 1.0}, \"43\": {\"Si\": 1.0}, \"44\": {\"Si\": 1.0}, \"45\": {\"Si\": 1.0}, \"46\": {\"Si\": 1.0}, \"47\": {\"Si\": 1.0}, \"48\": {\"Si\": 1.0}, \"49\": {\"Si\": 1.0}, \"50\": {\"Si\": 1.0}, \"51\": {\"Si\": 1.0}, \"52\": {\"Si\": 1.0}, \"53\": {\"Si\": 1.0}, \"54\": {\"Si\": 1.0}}" energy=-475.25270353412554 stress="-0.008944321504432603 -0.0016204767200616455 -0.000763920494006618 -0.0016204767200616455 -0.009634220199898031 0.0006535948335985752 -0.000763920494006618 0.0006535948335985752 -0.004990970900969915" free_energy=-475.25270353412554 pbc="T T T"
Si       6.75936301       3.90111003       2.76605374      -1.11581982      -0.22610366      -0.35953973       0.05283660      -1.09157537       0.02725199      -8.69157719
Si       8.65488562       4.87052959       5.80413480      -0.19258481       1.67364077      -1.39975070       0.14000815       0.91597499      -0.12640558      -8.34430484
Si      10.77214312       6.06689592       9.49002332      -1.23086287      -0.00887051      -0.85044379      -0.96576436       0.34224858      -0.83212666      -8.18918508
Si       8.60796717       7.26488018       2.85588446      -0.60535277      -0.55344776       0.36187093       0.19236946       0.31322598      -0.73513534      -8.72395969
Si      10.46491040       8.33501770       5.95322964       0.05221120      -1.27288326      -0.62146371       0.37111875      -0.27213620       1.20152866      -8.69991241
Si      12.59728839       9.46880599       9.07706122       0.78544937      -0.43254536      -0.83729165      -0.97430183      -0.87547077       0.31950305      -8.68948624
Si      10.42827615      10.38359135       2.93434298       0.54488483       0.89801227      -1.23292226       1.36006450       0.44742976      -0.11341746      -8.68125359
Si      12.49826098      11.54589911       5.94657485       0.68086316      -0.02087520       0.53894801      -1.09224338      -0.35848915       0.05605297      -8.68432427
Si      14.37956146      12.79518556       8.86809310      -0.75257558      -0.48291823       0.94197781       0.63973724       0.30434604       1.38048341      -8.54347985
Si      10.55594101       3.89115282       2.68261912      -0.99948052      -0.22031400       0.87301243      -0.24066622       0.65931280      -0.43647384      -8.70850077
Si      12.49996078       4.96196498       5.77384094       0.10938313      -0.03604546      -0.07973845      -0.31929656       0.53601284       0.48111625      -8.66581467
Si      14.49557296       5.93904775       8.87626420       0.39470042       0.66678994       1.41345023      -0.61581405       0.27001315       0.69851805      -8.68611004
Si      12.54749368       7.27133573       2.75693818      -0.47202844       0.70614959      -0.80926612      -0.45788197       0.05893274      -0.11211873      -8.71119200
Si      14.40665115       8.23468707       5.87893123       0.61975442       0.38932821       0.93462433      -0.38007289       0.25883570      -0.23842034      -8.73301475
Si      16.32071698       9.47844533       9.05531699      -0.52302699      -0.68721932       0.36650760      -0.06855755      -0.31228744      -0.05886061      -8.72302161
Si      14.35600963      10.62985649       2.75063752       0.87821487       0.27783961      -0.07706281       0.12269523      -0.12518674      -0.90166988      -8.73798978
Si      16.21295255      11.52693974       5.72327935      -0.04658694      -1.02227717       0.23955183       0.71857056       0.70133198       0.71101603      -8.67155688
Si      18.22923931      12.75053461       8.99237677      -1.00390808       0.38059574      -1.06695526      -0.57687817      -0.03277047      -0.26668227      -8.70523131
Si      14.41275299       3.85460513       2.85433813       1.50500414      -0.94605797       0.77288615       0.22270013       0.27328643      -0.97179085      -8.67078369
Si      16.39445084       4.89781461       5.89104713       0.52605563       0.49929652       0.56726921       0.78505036       0.37161457       0.02164658      -8.67357764
Si      18.18408638       6.04531651       9.05539120       1.66651967       0.31039368       2.19766213       0.13283058       0.46050029      -0.01632360      -8.53497034
Si      16.34786908       7.17711414       2.80866012      -0.26714461      -0.14897352       1.11223853      -0.20772043       0.37114388      -0.57998415      -8.65913805
Si      18.20148355       8.40911581       6.04913983       0.57600715       0.44491307      -0.22072977       1.03527062      -0.09017161      -0.69496428      -8.70359096
Si      20.18174645       9.36532782       9.13538540      -0.53169429       0.63148921       0.22427938      -0.29171927       0.69165845      -1.04551051      -8.70961024
Si      18.22380773      10.54250086       2.77292625      -1.22080234       1.01241033      -0.12915830       0.47120245      -0.20484076       0.10835219      -8.71145320
Si      20.12976101      11.76741222       5.97972656      -1.27044636       0.49504647      -0.52111546       0.20198449      -0.15493132      -0.75104391      -8.70031007
Si      22.16627317      12.69244530       9.10077535       0.34957864      -1.12258555      -0.23213994      -0.53475527       0.33623339       0.32658924      -8.73703375
Si       0.97448055       0.53331809       0.42905921       0.03305423      -0.46848791      -0.42203721      -0.44590727      -0.57980357      -0.10194736      -8.61161106
Si       2.86818100       1.65346938       3.52296919       0.25712208       0.48197224       0.87858099      -0.98730295      -0.14176216       1.29017656      -8.69562163
Si       4.79857504       2.73837749       6.80982685       1.56315136       0.32711166       1.23135624       0.31411193      -0.16037683      -0.91214670      -8.72986290
Si       2.82197630       3.86894495       0.43433065      -1.06725589      -1.26846040      -0.16943529       0.40784532      -0.74961379       0.89629314      -8.50031466
Si       4.85404404       4.92906241       3.52770008       1.19612974      -0.36293817      -0.40296433      -0.64898715       0.44053067       0.31508421      -8.74667208
Si       6.80864152       6.16072782       6.68859673       0.00341997      -0.57130377      -0.71930586      -0.69945230      -0.88209388      -0.27079858      -8.53290272
Si       4.75565535       7.14508058       0.35605020       1.36798443       1.08961636      -0.15820587       1.12660308      -0.06832510       1.28534806      -8.68057651
Si       6.70323097       8.31308269       3.66049661      -0.02787920      -0.42800767       0.54157549      -0.50975991       0.40748774      -0.02471491      -8.71628772
Si       8.64345967       9.57732065       6.74849341      -0.44993921      -0.41448151      -1.08329136      -0.71683784      -0.73505851       0.28719872      -8.70149765
Si       4.81300815       0.50729608       0.62665404       1.21935372       0.08151033       1.00710741      -0.13339638      -0.92629151      -0.92792868      -8.49139035
Si       6.66195440       1.60431426       3.60378821      -0.05224393      -0.73025407      -0.04269493      -0.49438698       0.39126906      -0.26681989      -8.63466278
Si       8.59435973       2.67520824       6.56651867       0.85130098      -0.07558900       0.73942432       0.32572927      -0.01528355      -0.16062827      -8.62745027
Si       6.89757497       3.82900956       0.43131467      -0.06212815       0.61197000      -2.08461541       1.01082110       1.05698469      -0.11925011      -8.58274697
Si       8.63482075       5.06989369       3.43076562       0.32683935      -0.38961243      -1.09122851       0.41992511      -0.88257587       0.62597730      -8.67226030
Si      10.67410406       6.14209979       6.88954117      -0.52720688       0.09176169       0.12232941      -0.02643540      -0.35733408      -0.76035781      -8.32034560
Si       8.66649775       7.25391024       0.45515947       1.20361498       0.07295430      -0.10647149       0.11687930       0.39614530       0.20573632      -8.65566705
Si      10.56638749       8.19517093       3.69223049       1.03043201      -0.19819349       0.28315508       0.16323373       0.06677969      -0.84930156      -8.69550032
Si      12.47625410       9.27796129       6.77244789      -0.17531177       0.89860762      -0.42397566       0.28144388       0.66084494      -0.73606697      -8.69787637
Si       8.59864682       0.42595097       0.34305070      -0.48683759       1.34735335       0.47382616       0.67913489       0.42740496       0.48715130      -8.69708372
Si      10.53814882       1.72016639       3.41474333       0.91234268       0.10251671      -1.09223374      -0.14529993      -0.64884006       0.22310421      -8.73422537
Si      12.32582710       2.78767494       6.57155120      -0.51524946       0.40128580       1.30336725       0.02133706      -0.53393338       0.56256374      -8.70300341
Si      10.47740040       3.87005478       0.30900410      -1.20917698       0.30485805       0.52077510       0.26540215       0.24969776       0.35994967      -8.65027205
Si      12.47047212       5.03298840       3.41076719      -1.94928932      -0.76245524      -1.06628182       0.10352872      -0.12784571       0.59581610      -8.73109358
Si      14.48985145       6.01706363       6.56138944      -0.57010135       0.35954751       0.63282009      -0.52765975      -0.18988250      -0.15541624      -8.74648343
Si      12.48959762       7.21940998       0.40145142       0.01059970      -0.52400692      -0.60577317      -0.03109272      -0.05241580       0.05296305      -8.72635125
Si      14.41588706       8.45473479       3.50817196       0.34516605      -0.43691309      -1.27319703       0.50280790      -1.05093354       0.51666966      -8.72053821
Si      16.23393493       9.39721957       6.69775994      -1.07008921      -0.28228500      -0.33697445      -0.03944355       0.28377479       0.21985402      -8.74131262
Si       8.90292111       5.28138210       8.23013518      -0.61411457      -0.46286540       1.23766793      -0.05360848      -0.07279155      -0.08963938      -7.81871006
55
Lattice="11.5478352 0.0 0.0 5.773917198490155 10.000722372470358 0.0 5.773916394327279 3.333571176804646 9.428767828939895" Properties=species:S:1:pos:R:3:momenta:R:3:forces:R:3:energies:R:1 spacegroup="_JSON {\"number\": 1, \"setting\": 1}" unit_cell=conventional occupancy="_JSON {\"0\": {\"Si\": 1.0}, \"1\": {\"Si\": 1.0}, \"2\": {\"Si\": 1.0}, \"3\": {\"Si\": 1.0}, \"4\": {\"Si\": 1.0}, \"5\": {\"Si\": 1.0}, \"6\": {\"Si\": 1.0}, \"7\": {\"Si\": 1.0}, \"8\": {\"Si\": 1.0}, \"9\": {\"Si\": 1.0}, \"10\": {\"Si\": 1.0}, \"11\": {\"Si\": 1.0}, \"12\": {\"Si\": 1.0}, \"13\": {\"Si\": 1.0}, \"14\": {\"Si\": 1.0}, \"15\": {\"Si\": 1.0}, \"16\": {\"Si\": 1.0}, \"17\": {\"Si\": 1.0}, \"18\": {\"Si\": 1.0}, \"19\": {\"Si\": 1.0}, \"20\": {\"Si\": 1.0}, \"21\": {\"Si\": 1.0}, \"22\": {\"Si\": 1.0}, \"23\": {\"Si\": 1.0}, \"24\": {\"Si\": 1.0}, \"25\": {\"Si\": 1.0}, \"26\": {\"Si\": 1.0}, \"27\": {\"Si\": 1.0}, \"28\": {\"Si\": 1.0}, \"29\": {\"Si\": 1.0}, \"30\": {\"Si\": 1.0}, \"31\": {\"Si\": 1.0}, \"32\": {\"Si\": 1.0}, \"33\": {\"Si\": 1.0}, \"34\": {\"Si\": 1.0}, \"35\": {\"Si\": 1.0}, \"36\": {\"Si\": 1.0}, \"37\": {\"Si\": 1.0}, \"38\": {\"Si\": 1.0}, \"39\": {\"Si\": 1.0}, \"40\": {\"Si\": 1.0}, \"41\": {\"Si\": 1.0}, \"42\": {\"Si\": 1.0}, \"43\": {\"Si\": 1.0}, \"44\": {\"Si\": 1.0}, \"45\": {\"Si\": 1.0}, \"46\": {\"Si\": 1.0}, \"47\": {\"Si\": 1.0}, \"48\": {\"Si\": 1.0}, \"49\": {\"Si\": 1.0}, \"50\": {\"Si\": 1.0}, \"51\": {\"Si\": 1.0}, \"52\": {\"Si\": 1.0}, \"53\": {\"Si\": 1.0}, \"54\": {\"Si\": 1.0}}" energy=-475.30542465778177 stress="-0.010873720452805989 -4.412298411670187e-05 0.0003288286794544264 -4.412298411670187e-05 -0.008110612802659147 -0.0015134996810684208 0.0003288286794544264 -0.0015134996810684208 -0.005379130317970305" free_energy=-475.30542465778177 pbc="T T T"
Si       6.71746423       3.84732657       2.73914207      -0.30516179      -1.71582671      -0.78517768       0.73025961      -0.65761302      -0.43504164      -8.65997201
Si       8.65426056       4.97732120       5.73846598       0.23558953       2.08624813      -0.88122427       0.39489253      -0.30514542       0.74639944      -8.39075907
Si      10.68970519       6.08241183       9.41990971      -1.49621359       0.62377581      -1.68727120       0.63059943       0.42464248      -0.31645445      -8.23550788
Si       8.59257160       7.25057121       2.84657663       0.11085846      -0.00793442      -0.66173422       0.55786996       0.26899517      -0.52117340      -8.70858232
Si      10.48121808       8.26907819       5.96736419       0.54212678      -1.02588046       1.01461158       0.26320002       0.57781063       0.65390386      -8.70946548
Si      12.60713070       9.42613765       9.04649639      -0.22873784      -0.86439516      -0.36115553      -0.28687522       0.41401453       0.19128832      -8.71378642
Si      10.49808259      10.43829804       2.88438268       1.81033787       1.04294608      -0.38411661       0.17572530      -0.14104612       0.97970839      -8.70754272
Si      12.49633123      11.53824091       5.97135456      -0.57660527      -0.08342476       0.28347016      -0.40715690       0.37014803      -0.42753545      -8.74219807
Si      14.37227550      12.78204787       8.96036446       0.57493970      -0.02258641       2.30263314       1.02695784       0.29461739       0.33002958      -8.57772375
Si      10.49808196       3.89899635       2.70337566      -1.07171640       0.32266843      -0.15515916       0.29885643      -0.08296404      -0.72341436      -8.72570118
Si      12.48928312       4.97832381       5.78544993      -0.57153542       0.54966150       0.46367448      -0.52783747       0.11720022       0.25010685      -8.67254875
Si      14.48948130       5.98107049       8.96030631      -0.61841393       0.88247243       1.46864275      -0.57869096       0.06076250      -0.55260419      -8.72303078
Si      12.51116883       7.29902549       2.71215794      -0.75561021       0.14236975      -0.86002651       0.15253397      -0.75044617       0.04104428      -8.71851606
Si      14.41326549       8.25884871       5.90542965      -0.50066558       0.40738234      -0.10639643      -0.88103873      -0.21164881      -0.95361129      -8.71140537
Si      16.29718264       9.43468330       9.06648492      -0.26783895      -0.87078641      -0.02152029       0.34336925       0.12366157      -0.37405195      -8.72540583
Si      14.40050697      10.63504221       2.71786683       0.68593334      -0.19154690      -0.97070906      -0.39142592      -0.55396741      -0.11815991      -8.74795779
Si      16.23853734      11.50654993       5.75517780       0.99024336       0.30011037       0.82734176       0.59012449       0.91939976       0.13067044      -8.66509838
Si      18.16924518      12.76660955       8.94255995      -0.97349852       0.17785002      -0.51730924       0.63195448      -0.25112706       0.94801123      -8.70743309
Si      14.48444838       3.82508024       2.85650446       0.95224908      -0.09164335      -0.61350673      -0.86427566       0.62610631      -0.66110657      -8.63543421
Si      16.44248320       4.93399229       5.91921267       1.04576923       0.76679555       0.45574732      -0.23235034      -0.07641568      -0.18405471      -8.71352458
Si      18.25546225       6.07347348       9.15501197       0.67295296       0.58194207       1.36019708      -1.33180566      -0.21393384      -0.96487805      -8.45832604
Si      16.33300992       7.18084672       2.83796796      -0.14660454       0.20714369      -0.05284431       0.38712857       0.04584844      -0.81340089      -8.71214680
Si      18.25536834       8.42184842       6.01710381       1.09860406      -0.11045714      -0.86037111      -0.43365925      -0.67846377      -0.15125808      -8.71569699
Si      20.15744812       9.41377272       9.10901347      -0.12667568       0.98345820      -1.11142040       0.74152202      -0.19834320      -0.58694581      -8.66890370
Si      18.19435513      10.57626823       2.76742126       0.31773897       0.09920383      -0.12887594       1.31307718      -0.88065001      -0.06388816      -8.67246495
Si      20.08452609      11.78551446       5.93846582      -0.27739754       0.14431227      -0.71291027       0.91010645      -0.34223271       0.58366439      -8.67078447
Si      22.16006071      12.66255019       9.10539137      -0.62322738       0.18028733       0.40123333      -0.68768384       1.08822289       0.30778682      -8.73322206
Si       0.95634979       0.49186994       0.41073264      -0.73769468      -0.94747801      -0.14142791      -0.48791597       0.05110271       0.42400000      -8.59934404
Si       2.84665242       1.66436220       3.60676777      -0.91846661      -0.18382197       1.97728207      -0.38342342      -0.58656026      -0.04252887      -8.75286665
Si       4.87762807       2.74676490       6.82729854       1.17985163      -0.01843878      -0.65683362      -0.76687998      -0.20950545      -1.27278510      -8.68738980
Si       2.79290373       3.79906350       0.46462358       0.15722649      -0.89442768       1.33819313       1.15361605       1.17232158       0.93497831      -8.52124811
Si       4.88410701       4.93145789       3.52687101      -0.07985436       0.48817983       0.45547128      -0.76530249       0.55984817       0.64395861      -8.74648646
Si       6.78577146       6.11054370       6.65179760      -0.73405595      -1.02772959      -0.48661225      -0.14051851       0.34059411       0.51898281      -8.54440233
Si       4.85565335       7.18090538       0.39802072       2.11068323       0.01070148       1.68193512      -0.17220066      -1.07919637       0.97627964      -8.67951212
Si       6.68146861       8.31165542       3.68324671      -0.74739652       0.41890889       0.20872506      -0.29634226       0.59069458      -0.48501370      -8.70756441
Si       8.60224000       9.53551592       6.70686207      -0.86826436      -0.98394145      -0.45981054       0.27298675       0.02002960       0.47093982      -8.72824000
Si       4.86387656       0.48273855       0.63208215       0.56766778      -0.82062881      -0.91642002      -0.74322510      -0.16065168      -1.35249506      -8.47504888
Si       6.64779920       1.58449995       3.59396879      -0.28280112      -0.00156889      -0.27182513       0.30527398       0.49178871      -0.02883530      -8.67180022
Si       8.64615225       2.68036985       6.59678119       0.98115601       0.41962543       0.42451092      -0.21873510       0.56659847      -0.13522082      -8.58248868
Si       6.91707884       3.89003397       0.33198567       0.44683103       1.41273688      -1.43773065      -0.36296401      -0.11183030       0.92919001      -8.60818733
Si       8.65337005       5.01976310       3.39815390       0.07625650      -1.33806485      -0.18137835      -0.76355299      -0.18217225       0.52348043      -8.68630837
Si      10.64410052       6.12813286       6.86582591      -0.65188084      -0.69185010      -1.00518163      -0.16191454      -0.62029436      -0.67807530      -8.39992317
Si       8.72109658       7.26785628       0.45961139       0.64783907       0.32026685       0.27941955      -0.77037979      -0.14406177       0.21849996      -8.66214566
Si      10.61337228       8.19403048       3.67024834       0.52584806       0.27707910      -1.04273706      -0.75537377       0.54097058      -0.56758331      -8.69415681
Si      12.47636158       9.34107517       6.72450676       0.12261258       1.29382803      -1.27622708       0.06257331      -0.17968158      -0.24214903      -8.71997061
Si       8.59632939       0.49773116       0.37850568       0.28120410       1.11493211       0.69246050       0.24052253      -0.64128783      -0.24005622      -8.67142088
Si      10.56960838       1.70519256       3.38075379       0.12731522      -0.52539031       0.00643397      -0.74931720      -0.10205099       1.04848669      -8.70641381
Si      12.29918814       2.78932278       6.64570553      -0.46161008      -0.26397140       1.19030065       0.17737458      -0.25262788      -0.73087048      -8.73617386
Si      10.43716528       3.89212762       0.35278974      -0.14376329       0.45705814       1.14992055       0.97332112      -0.07386252       0.35098033      -8.61928338
Si      12.39335655       4.99582501       3.38176046      -0.66803058      -0.50569142       0.00326202       1.36576195       0.44021594       0.76401869      -8.63912004
Si      14.44839470       6.02698940       6.59169836      -0.82897770       0.01982007       0.59543306       0.17424140      -0.18938716       0.11768293      -8.72321014
Si      12.48287893       7.19825844       0.37105286      -0.36834985      -0.14809258      -0.56896953      -0.41126126       0.46600105      -0.00855586      -8.73263900
Si      14.44747247       8.39873406       3.47037756       0.68861698      -1.48940701      -0.08368627      -0.16323756      -0.25056169       0.86345072      -8.71048558
Si      16.19511567       9.39182563       6.69457034      -0.09128064       0.03269985       0.27663383       1.17578993       0.10666665       0.45028936      -8.71342839
Si       8.86687232       5.24785024       8.28140251      -0.82812280      -0.93947986       0.54303565      -0.31429459      -0.55053271      -0.76608395      -7.76302718
55
Lattice="11.5478352 0.0 0.0 5.773917198490155 10.000722372470358 0.0 5.773916394327279 3.333571176804646 9.428767828939895" Properties=species:S:1:pos:R:3:momenta:R:3:forces:R:3:energies:R:1 spacegroup="_JSON {\"number\": 1, \"setting\": 1}" unit_cell=conventional occupancy="_JSON {\"0\": {\"Si\": 1.0}, \"1\": {\"Si\": 1.0}, \"2\": {\"Si\": 1.0}, \"3\": {\"Si\": 1.0}, \"4\": {\"Si\": 1.0}, \"5\": {\"Si\": 1.0}, \"6\": {\"Si\": 1.0}, \"7\": {\"Si\": 1.0}, \"8\": {\"Si\": 1.0}, \"9\": {\"Si\": 1.0}, \"10\": {\"Si\": 1.0}, \"11\": {\"Si\": 1.0}, \"12\": {\"Si\": 1.0}, \"13\": {\"Si\": 1.0}, \"14\": {\"Si\": 1.0}, \"15\": {\"Si\": 1.0}, \"16\": {\"Si\": 1.0}, \"17\": {\"Si\": 1.0}, \"18\": {\"Si\": 1.0}, \"19\": {\"Si\": 1.0}, \"20\": {\"Si\": 1.0}, \"21\": {\"Si\": 1.0}, \"22\": {\"Si\": 1.0}, \"23\": {\"Si\": 1.0}, \"24\": {\"Si\": 1.0}, \"25\": {\"Si\": 1.0}, \"26\": {\"Si\": 1.0}, \"27\": {\"Si\": 1.0}, \"28\": {\"Si\": 1.0}, \"29\": {\"Si\": 1.0}, \"30\": {\"Si\": 1.0}, \"31\": {\"Si\": 1.0}, \"32\": {\"Si\": 1.0}, \"33\": {\"Si\": 1.0}, \"34\": {\"Si\": 1.0}, \"35\": {\"Si\": 1.0}, \"36\": {\"Si\": 1.0}, \"37\": {\"Si\": 1.0}, \"38\": {\"Si\": 1.0}, \"39\": {\"Si\": 1.0}, \"40\": {\"Si\": 1.0}, \"41\": {\"Si\": 1.0}, \"42\": {\"Si\": 1.0}, \"43\": {\"Si\": 1.0}, \"44\": {\"Si\": 1.0}, \"45\": {\"Si\": 1.0}, \"46\": {\"Si\": 1.0}, \"47\": {\"Si\": 1.0}, \"48\": {\"Si\": 1.0}, \"49\": {\"Si\": 1.0}, \"50\": {\"Si\": 1.0}, \"51\": {\"Si\": 1.0}, \"52\": {\"Si\": 1.0}, \"53\": {\"Si\": 1.0}, \"54\": {\"Si\": 1.0}}" energy=-475.449060289275 stress="-0.010050067537147754 -0.0003785920446571227 -0.00012475941087332105 -0.0003785920446571227 -0.005180762242686592 -0.002658070056603615 -0.00012475941087332105 -0.002658070056603615 -0.010888010023909859" free_energy=-475.449060289275 pbc="T T T"
Si       6.72104136       3.75106510       2.68527905       0.22655420      -1.56376964      -1.14717498      -0.08798438       0.85637898       0.03516978      -8.65840339
Si       8.67986888       5.06424844       5.72472554       0.64853586       1.06407937       0.35415922       0.02636813      -0.96645329       0.73363899      -8.42442823
Si      10.64704854       6.12618980       9.32216126      -0.04392094       0.90844095      -2.02157809       0.97476308      -0.10870003      -0.23479147      -8.27803821
Si       8.61290781       7.25511404       2.80094287       0.48507295       0.08022418      -0.88160704      -0.13250950      -0.12613103       0.24532841      -8.69605303
Si      10.51635654       8.24423890       6.02709720       0.71699862       0.14175297       0.92394898      -0.05553017       0.81956145      -0.67297017      -8.67286323
Si      12.59364514       9.41299702       9.02877540      -0.13576636       0.57290987      -0.41314165       0.30055612       1.21073566      -0.17976596      -8.69136734
Si      10.58052079      10.48400688       2.89459142       1.00351001       0.65730100       0.52887799      -1.10592901      -0.29732385       0.06893550      -8.68643673
Si      12.46568337      11.55722647       5.96412602      -0.31475625       0.91684917      -0.62771271       0.67011135       0.79311507      -0.68379400      -8.73662634
Si      14.43556351      12.79106426       9.07846536       1.61106242       0.32070080       1.93673489       0.12970856       0.09638742      -0.71718490      -8.60625285
Si      10.46559931       3.90363963       2.67845761       0.01683503      -0.23804769      -0.48618973       0.99464466      -0.44863441       0.47831723      -8.72719340
Si      12.44338269       5.00233667       5.81609883      -1.03099177       0.20212164       0.63884978       0.05242576      -0.52133249      -0.01114190      -8.69052472
Si      14.44472378       6.02817284       9.00863348      -0.86941752       0.87897337       0.31612072       0.26277405      -0.07968532      -0.78928375      -8.70904315
Si      12.48491069       7.27458659       2.67170876      -0.16142571      -1.05880538      -0.60918983       0.47640373      -0.69125189       0.32789886      -8.73665159
Si      14.36416079       8.27051982       5.86805612      -1.07843137       0.03881745      -1.13538930       0.23649787      -0.22277994      -0.24355297      -8.74636092
Si      16.29620417       9.40095547       9.05318350       0.19322126      -0.30261510      -0.40360326       0.20574321       0.55683367      -0.05957307      -8.73510692
Si      14.41730757      10.59932047       2.67838162      -0.07726652      -1.21589647      -0.25880736      -0.51489432      -0.73167252       0.94708455      -8.71843669
Si      16.30487336      11.55066648       5.79982980       1.33358275       1.19607639       0.82689365      -0.21615505       0.19835952      -0.06529022      -8.71970624
Si      18.15410175      12.76390009       8.95522866       0.54165935      -0.29824843       0.92681529       1.19148948      -0.30365105       0.67914421      -8.68776214
Si      14.49588715       3.83800107       2.81755372      -0.53589740       0.45160910      -0.44076979      -0.94789545       0.11972793       1.00750580      -8.67076556
Si      16.47206398       4.96369491       5.93327334      -0.16681442       0.25352875       0.05179622      -1.18377608      -0.49828207      -0.28238283      -8.71866093
Si      18.24036945       6.08986496       9.18759528      -1.05307608       0.00708185      -0.07119856      -0.60585566      -0.37511879      -0.80106059      -8.44176010
Si      16.34473241       7.18843896       2.81214728       0.61416390       0.01409221      -0.69107250       0.46053901      -0.21648644       0.13298482      -8.78394129
Si      18.28139203       8.38620953       5.97249773      -0.26419410      -1.23950547      -0.73542781      -1.04337364      -0.63192000       0.26128684      -8.71240753
Si      20.18186105       9.45171571       9.04287115       1.02046954       0.40141585      -1.09362333       0.61370937      -0.45522702       0.64947322      -8.59174219
Si      18.25077898      10.55113060       2.76073687       1.50603752      -0.90774582      -0.05399262       0.06431390      -0.30779449       0.20350469      -8.72817759
Si      20.10260203      11.77845433       5.93920670       0.87044489      -0.42746433       0.92268658       0.53972396      -0.40604669       1.25823599      -8.65997882
Si      22.10499107      12.70157804       9.12905078      -1.34740155       0.97664630       0.31542098      -0.17469557      -0.17146741      -0.41297951      -8.72809342
Si       0.90633908       0.45394470       0.42095363      -0.98663211      -0.34895487       0.51064431       0.21100607       0.63825593       0.34815606      -8.59411011
Si       2.79863508       1.63728201       3.68541772      -0.62944806      -0.70725240       0.66447062       0.72739120      -0.04534047      -1.40126024      -8.72133263
Si       4.90002869       2.74166240       6.75812062      -0.46900741      -0.08764727      -1.64836356      -1.31896512       0.12843416       0.00891226      -8.70171517
Si       2.84043694       3.80534459       0.55389944       1.43410976       1.13638512       1.61137180       0.33091813       1.22335894      -0.82591742      -8.53750698
Si       4.86239597       4.97045992       3.56838760      -0.51656394       0.80290351       0.94218168       0.11969412      -0.19635217      -0.07187094      -8.70709733
Si       6.75477348       6.08320929       6.65265464      -0.23784767       0.15309042       0.60467704       0.64978611       0.98198105       0.84985190      -8.52389026
Si       4.94395560       7.14855039       0.50518563       0.99391965      -0.98377870       1.96353775      -1.20747645      -0.09923325      -0.74963618      -8.67029743
Si       6.64132450       8.35070914       3.66921164      -0.56862740       0.91832004      -0.82282033       0.53906524      -0.00780795      -0.78169563      -8.69797242
Si       8.58045788       9.49254478       6.69862699       0.20942959      -0.56813239       0.06607179       0.93234265       0.35470807       0.15929831      -8.74410300
Si       4.86021665       0.44796984       0.54873980      -0.71347017      -0.22700219      -1.84462710      -0.73199726       0.93232344       0.23721101      -8.53205597
Si       6.65732588       1.59936193       3.58213322       0.83901326       0.45805578      -0.12283332       1.04341963       0.05554786       0.18347875      -8.69919218
Si       8.68284299       2.72441839       6.61808734       0.34325962       1.22383935       0.46516748      -0.51176811       0.43109298       0.16536538      -8.47851723
Si       6.91473903       3.94434178       0.29973771      -0.68094410       0.45064191       0.26844916      -0.94056292      -0.90386878       1.15665937      -8.59729953
Si       8.62030343       4.95614020       3.40450515      -1.35648470      -0.88253422       0.32631304      -0.83283294       0.62150173       0.13948933      -8.66677209
Si      10.60221672       6.07198614       6.79325577      -0.95743632      -1.29923198      -1.61196122      -0.20154182      -0.02486513      -0.08673279      -8.51618248
Si       8.72350117       7.27052355       0.47701867      -0.52128839      -0.35301957       0.24424082      -0.64687442      -0.66111899      -0.32615044      -8.65807109
Si      10.60966050       8.23029677       3.60961829      -0.61116675       1.06433678      -0.98861888      -0.54078331       0.37613576       0.52278144      -8.70759929
Si      12.48085704       9.39211972       6.66043057      -0.02060329       0.53304919      -0.95590055      -0.20133627      -0.63150025       0.57555982      -8.73474157
Si       8.61175102       0.52752772       0.39663379       0.14624588       0.03366186      -0.12206074      -0.39244468      -0.60087057      -0.69740250      -8.69121655
Si      10.55334276       1.67856213       3.41840067      -0.56117498      -0.45539247       1.29151348      -0.05200807       0.04647857       0.52455290      -8.70529267
Si      12.29042712       2.77335195       6.67194907       0.31663002      -0.19427723      -0.19703240       0.91671823       0.33725945      -0.76226104      -8.73367293
Si      10.46328392       3.90759996       0.41617465       0.99508362       0.04030151       1.00913702       0.42056552      -0.42480664      -0.64561916      -8.65047440
Si      12.40908445       4.98775101       3.40802352       1.12038953       0.17218014       0.90493018       0.80895789       0.34882468       0.40839850      -8.63632826
Si      14.41670281       6.02413769       6.62856570      -0.33715096      -0.05660495       0.79618204       0.34374609       0.09068061       0.05989360      -8.68072738
Si      12.45120420       7.20703737       0.34030885      -0.70351275       0.39561139      -0.60639325       0.11295886       0.13050955      -0.01349581      -8.74284281
Si      14.46621152       8.32248923       3.49204734      -0.13828592      -1.24613813       0.70725843      -0.79478717       0.42002558       0.06821069      -8.70876649
Si      16.23323876       9.39350248       6.71864419       1.37804501      -0.04285684       0.43749589       0.55098541      -0.17266291      -0.33279598      -8.70283105
Si       8.80748344       5.17626386       8.27955248      -1.47526934      -1.76007667      -0.56485692      -0.46534999      -0.43983221      -0.58771874      -7.75166844
55
Lattice="11.5478352 0.0 0.0 5.773917198490155 10.000722372470358 0.0 5.773916394327279 3.333571176804646 9.428767828939895" Properties=species:S:1:pos:R:3:momenta:R:3:forces:R:3:energies:R:1 spacegroup="_JSON {\"number\": 1, \"setting\": 1}" unit_cell=conventional occupancy="_JSON {\"0\": {\"Si\": 1.0}, \"1\": {\"Si\": 1.0}, \"2\": {\"Si\": 1.0}, \"3\": {\"Si\": 1.0}, \"4\": {\"Si\": 1.0}, \"5\": {\"Si\": 1.0}, \"6\": {\"Si\": 1.0}, \"7\": {\"Si\": 1.0}, \"8\": {\"Si\": 1.0}, \"9\": {\"Si\": 1.0}, \"10\": {\"Si\": 1.0}, \"11\": {\"Si\": 1.0}, \"12\": {\"Si\": 1.0}, \"13\": {\"Si\": 1.0}, \"14\": {\"Si\": 1.0}, \"15\": {\"Si\": 1.0}, \"16\": {\"Si\": 1.0}, \"17\": {\"Si\": 1.0}, \"18\": {\"Si\": 1.0}, \"19\": {\"Si\": 1.0}, \"20\": {\"Si\": 1.0}, \"21\": {\"Si\": 1.0}, \"22\": {\"Si\": 1.0}, \"23\": {\"Si\": 1.0}, \"24\": {\"Si\": 1.0}, \"25\": {\"Si\": 1.0}, \"26\": {\"Si\": 1.0}, \"27\": {\"Si\": 1.0}, \"28\": {\"Si\": 1.0}, \"29\": {\"Si\": 1.0}, \"30\": {\"Si\": 1.0}, \"31\": {\"Si\": 1.0}, \"32\": {\"Si\": 1.0}, \"33\": {\"Si\": 1.0}, \"34\": {\"Si\": 1.0}, \"35\": {\"Si\": 1.0}, \"36\": {\"Si\": 1.0}, \"37\": {\"Si\": 1.0}, \"38\": {\"Si\": 1.0}, \"39\": {\"Si\": 1.0}, \"40\": {\"Si\": 1.0}, \"41\": {\"Si\": 1.0}, \"42\": {\"Si\": 1.0}, \"43\": {\"Si\": 1.0}, \"44\": {\"Si\": 1.0}, \"45\": {\"Si\": 1.0}, \"46\": {\"Si\": 1.0}, \"47\": {\"Si\": 1.0}, \"48\": {\"Si\": 1.0}, \"49\": {\"Si\": 1.0}, \"50\": {\"Si\": 1.0}, \"51\": {\"Si\": 1.0}, \"52\": {\"Si\": 1.0}, \"53\": {\"Si\": 1.0}, \"54\": {\"Si\": 1.0}}" energy=-475.7200414836574 stress="-0.008239034260435662 -0.0023161782385402105 -0.001298568704642535 -0.0023161782385402105 -0.005094868666206301 -0.0009961794059679977 -0.001298568704642535 -0.0009961794059679977 -0.012319881549258331" free_energy=-475.7200414836574 pbc="T T T"
Si       6.71999108       3.71322282       2.63656782      -0.41389700       0.22066961      -0.49680615      -0.66996874       1.25387842       0.87535818      -8.64699064
Si       8.70293687       5.07982008       5.76098735      -0.01660039      -0.48549601       0.78298720      -0.92730587      -1.01755815      -0.21475608      -8.42208885
Si      10.66879756       6.16159824       9.20587546       0.55554557       0.31308295      -2.42717439      -0.24892836      -0.60590482      -0.29242129      -8.38080192
Si       8.62476690       7.25160961       2.77147770      -0.14634701      -0.25091935      -0.15713588      -0.57147624      -0.27499498       0.57395674      -8.68680722
Si      10.54686373       8.27569137       6.04091279       0.36358236       0.86889055      -0.50589932      -0.37086444       0.09648499      -1.11122297      -8.66470304
Si      12.59709647       9.47798804       9.00221427       0.17224688       1.57399827      -0.53259989      -0.07816434      -0.05437090       0.06338553      -8.70643223
Si      10.58914053      10.51168281       2.91294434      -0.57229833       0.52362811      -0.00428886      -0.71559426       0.17453591      -0.63265266      -8.68597448
Si      12.47832979      11.63025133       5.91157036       0.76120504       1.72257307      -1.17765031       0.54048632       0.24086731       0.08533972      -8.72637561
Si      14.50343548      12.80279998       9.14546685       0.58699942      -0.06418724       0.54474699      -1.35425954      -0.62354277      -0.99605611      -8.51340768
Si      10.50047382       3.87960145       2.68770277       1.16574168      -0.55091255       1.02346884       0.43767701       0.03701226       1.18243592      -8.71041105
Si      12.40380814       4.99135246       5.84652256      -0.26219441      -0.58139628       0.48714273       0.88408483      -0.36258107      -0.14031638      -8.69439821
Si      14.41574736       6.06887883       9.00259826      -0.18163516       0.63978382      -0.34992879       0.47762786      -0.20781132      -0.02777629      -8.70568626
Si      12.48921038       7.20277392       2.65559594       0.18205069      -1.44589656       0.02305299      -0.07526302       0.21557405       0.43484045      -8.73756880
Si      14.32966164       8.26547082       5.81492995      -0.06421697      -0.19549700      -0.60292562       0.92137936      -0.07517701       0.86754826      -8.71205181
Si      16.31036347       9.40503571       9.03502772       0.27859515       0.38117573      -0.22177913      -0.05708312       0.26196621       0.19266259      -8.73733723
Si      14.39918035      10.51193215       2.70139297      -0.46469000      -1.98226982       1.02555649       0.06780242      -0.20561491       0.52725836      -8.72995752
Si      16.35531800      11.61073523       5.84141056       0.43723264       0.94135961       0.79621017      -0.79747000      -0.39310836       0.08477569      -8.72655401
Si      18.21867184      12.74311156       9.01525454       1.62229810      -0.33425712       1.08635623       0.04194994       0.30185304      -0.39666114      -8.72259876
Si      14.44061474       3.86187976       2.84552940      -1.33767589       0.38090570       1.51528969      -0.02385809      -0.19445014       1.02649235      -8.71869813
Si      16.42326292       4.96219170       5.93001861      -1.48889153      -0.17266495      -0.05556389      -0.41396433       0.02255825       0.17200729      -8.73276650
Si      18.18226098       6.07997893       9.16049632      -0.79507541      -0.29804403      -0.81275718       0.83863022      -0.03409195      -0.20712969      -8.45344680
Si      16.38586544       7.18282508       2.79685231       0.75976846      -0.17489652       0.31549067      -0.28823700      -0.02074595       0.90245065      -8.76597863
Si      18.24009803       8.30993779       5.94412889      -0.98779566      -1.37615848      -0.39491974       0.19661703       0.49547623       0.07380834      -8.73047359
Si      20.24964604       9.45742262       9.02167729       1.36453407      -0.12163416       0.39056972      -0.17453287      -0.20969396       1.04762236      -8.62078136
Si      18.31390436      10.50500172       2.76778851       0.62410214      -0.58794703       0.33537375      -1.02189545       0.72608662       0.26270714      -8.72521070
Si      20.15919231      11.73984919       6.01903973       1.07036515      -1.06084151       1.67995776      -0.31171280      -0.47148525      -0.42775281      -8.72678497
Si      22.03971523      12.73131977       9.12403860      -0.91165091      -0.04134170      -0.56908383       0.70963729      -0.95053444      -0.65868901      -8.65240870
Si       0.86937382       0.45984014       0.45504708      -0.35414803       0.51425683       0.65550591       0.48660393       0.40991276      -0.17381189      -8.56194454
Si       2.80165486       1.60647485       3.67426483       0.81806877      -0.33304711      -0.80861424       1.00554941       0.48107150      -0.35079040      -8.71312269
Si       4.83141708       2.74418895       6.68648615      -1.88473662       0.19778957      -0.86090713      -0.29150590       0.19330523       0.88965158      -8.73425938
Si       2.91545053       3.89988310       0.58605614       1.23653329       2.19883354      -0.56917898      -0.43322570       0.14997052      -1.52986735      -8.51359293
Si       4.84432969       4.99599776       3.60526471      -0.13694591       0.03543286       0.31781206       0.26999252      -0.73033365      -0.63815003      -8.65821735
Si       6.76237547       6.11857294       6.71307346       0.34305226       0.89475399       1.56236467      -0.04201408      -0.16668663       0.31632143      -8.55896500
Si       4.94592512       7.10638482       0.55729466      -0.90760626      -0.41341604      -0.26680442      -1.16374904       0.74374179      -1.84992245      -8.63712076
Si       6.63947743       8.38673801       3.60257170       0.58674536       0.22418013      -1.52200258       0.88954414      -0.90680158      -0.02584867      -8.68769933
Si       8.62011719       9.47094299       6.70297210       1.09563575      -0.38862160       0.04045775       0.13970032      -0.15322956      -0.05982427      -8.75030879
Si       4.81334519       0.48010584       0.47788836      -0.64948547       1.52502286      -0.63731694       0.86140200       1.20522780       1.10572616      -8.52488952
Si       6.73600102       1.61752782       3.58032299       1.94732838       0.10635169      -0.03657184       0.22348011      -0.43032268      -0.16373770      -8.74417578
Si       8.68438954       2.79900047       6.65020519      -0.19540107       1.47815097       0.76788496      -0.17299575      -0.13163714       0.20243057      -8.46672204
Si       6.84903829       3.94174338       0.34675765      -1.61754770      -0.30482156       1.21755664      -0.14121733       0.01960849      -0.03274297      -8.66049542
Si       8.53346614       4.93457488       3.42225539      -1.59935660       0.04167340       0.28296807       0.53901921       0.56140112      -0.12351363      -8.64174737
Si      10.54931636       6.01826119       6.71526609      -0.91227243      -0.46283738      -1.18294288       0.36920414       1.07732292       0.60111606      -8.54659523
Si       8.68009866       7.22922999       0.47123142      -0.93111549      -1.09953034      -0.51918620       0.15194819      -0.19175300      -0.52542883      -8.67216068
Si      10.56899710       8.29086683       3.58264922      -0.71064208       1.03860059      -0.01318085       0.33981344      -0.42239592       0.63330203      -8.69717501
Si      12.47416772       9.40374181       6.63455033      -0.14562948       0.12011344      -0.05126734       0.14209752       0.16658352       0.50589965      -8.74938096
Si       8.60055224       0.51614718       0.37040474      -0.57656359      -0.25890518      -0.66297348      -0.38643624       0.20546885       0.12657971      -8.74357281
Si      10.53037811       1.65296202       3.49457301      -0.20452611      -0.59306699       1.40067896       0.38755335      -0.23293443      -0.30223280      -8.68679853
Si      12.34909858       2.77966738       6.64817933       1.96748422       0.43092282      -0.39564513       1.08318803       0.30801855       0.44290964      -8.73395715
Si      10.51992407       3.89518176       0.43475704       0.94207587      -0.43274666      -0.35382508      -0.45092039      -0.11559064      -0.84028262      -8.68784896
Si      12.48289380       5.00412865       3.46676199       1.36873669       0.32990279       1.27600833      -0.47099301      -0.12592390       0.17928832      -8.70632540
Si      14.40754383       6.02750801       6.66675536      -0.12161912       0.22880845       0.53221719      -0.07769763       0.26415157      -0.43223622      -8.68292612
Si      12.42985562       7.22347292       0.31120538       0.08434580       0.05557522      -0.41592004       0.87277624      -0.54921831       0.32495096      -8.72264796
Si      14.43167120       8.27234367       3.51775455      -1.05280166      -0.73556432       0.04628307      -0.31589253       0.15483830      -0.79597562      -8.73994457
Si      16.31060123       9.38540494       6.71968091       1.26534163      -0.21634068      -0.50318022      -0.65296259       0.01605452      -0.74087309      -8.68515666
Si       8.71550546       5.07357073       8.23470839      -1.95624909      -2.02317840      -0.99791053      -0.17757617       0.07552268      -0.01015272      -7.77559581
55
Lattice="11.5478352 0.0 0.0 5.773917198490155 10.000722372470358 0.0 5.773916394327279 3.333571176804646 9.428767828939895" Properties=species:S:1:pos:R:3:momenta:R:3:forces:R:3:energies:R:1 spacegroup="_JSON {\"number\": 1, \"setting\": 1}" unit_cell=conventional occupancy="_JSON {\"0\": {\"Si\": 1.0}, \"1\": {\"Si\": 1.0}, \"2\": {\"Si\": 1.0}, \"3\": {\"Si\": 1.0}, \"4\": {\"Si\": 1.0}, \"5\": {\"Si\": 1.0}, \"6\": {\"Si\": 1.0}, \"7\": {\"Si\": 1.0}, \"8\": {\"Si\": 1.0}, \"9\": {\"Si\": 1.0}, \"10\": {\"Si\": 1.0}, \"11\": {\"Si\": 1.0}, \"12\": {\"Si\": 1.0}, \"13\": {\"Si\": 1.0}, \"14\": {\"Si\": 1.0}, \"15\": {\"Si\": 1.0}, \"16\": {\"Si\": 1.0}, \"17\": {\"Si\": 1.0}, \"18\": {\"Si\": 1.0}, \"19\": {\"Si\": 1.0}, \"20\": {\"Si\": 1.0}, \"21\": {\"Si\": 1.0}, \"22\": {\"Si\": 1.0}, \"23\": {\"Si\": 1.0}, \"24\": {\"Si\": 1.0}, \"25\": {\"Si\": 1.0}, \"26\": {\"Si\": 1.0}, \"27\": {\"Si\": 1.0}, \"28\": {\"Si\": 1.0}, \"29\": {\"Si\": 1.0}, \"30\": {\"Si\": 1.0}, \"31\": {\"Si\": 1.0}, \"32\": {\"Si\": 1.0}, \"33\": {\"Si\": 1.0}, \"34\": {\"Si\": 1.0}, \"35\": {\"Si\": 1.0}, \"36\": {\"Si\": 1.0}, \"37\": {\"Si\": 1.0}, \"38\": {\"Si\": 1.0}, \"39\": {\"Si\": 1.0}, \"40\": {\"Si\": 1.0}, \"41\": {\"Si\": 1.0}, \"42\": {\"Si\": 1.0}, \"43\": {\"Si\": 1.0}, \"44\": {\"Si\": 1.0}, \"45\": {\"Si\": 1.0}, \"46\": {\"Si\": 1.0}, \"47\": {\"Si\": 1.0}, \"48\": {\"Si\": 1.0}, \"49\": {\"Si\": 1.0}, \"50\": {\"Si\": 1.0}, \"51\": {\"Si\": 1.0}, \"52\": {\"Si\": 1.0}, \"53\": {\"Si\": 1.0}, \"54\": {\"Si\": 1.0}}" energy=-475.7500085272542 stress="-0.00808001991310762 -0.000998771823431366 -0.0011793267902492934 -0.000998771823431366 -0.010566078994557677 0.0011091344901989742 -0.0011793267902492934 0.0011091344901989742 -0.008234435837622798" free_energy=-475.7500085272542 pbc="T T T"
Si       6.67338484       3.76282126       2.65145379      -1.26658581       1.41693073       1.09780314      -0.28023512       0.27270781       0.98234640      -8.70371951
Si       8.66275933       5.02411898       5.78458320      -1.45871542      -1.38423450       0.01438340      -0.71639986      -0.02754269      -0.61958568      -8.39954086
Si      10.67601044       6.15660026       9.06999650      -0.43051471      -0.39115820      -2.65992138      -0.84310729      -0.16790691       0.08617054      -8.52362704
Si       8.60030390       7.22849508       2.78002950      -0.60427594      -0.60713379       0.33381818       0.14559786      -0.18813380      -0.00479880      -8.71802195
Si      10.55347319       8.31693071       5.97527201      -0.01909226       0.59880895      -1.85160770      -0.01280897      -0.31350099      -0.53431297      -8.72351203
Si      12.59005381       9.54043747       8.97911958      -0.67645989       0.53079508      -0.31486244      -0.97023027      -1.13437768       0.20835363      -8.68912965
Si      10.54957738      10.54830360       2.88746587      -0.56557959       0.84513278      -0.93906760       0.72509384       0.07097180      -0.52275852      -8.70772216
Si      12.52763082      11.72192341       5.86562554       0.89188157       1.62447444      -0.38473835      -0.33993144      -0.34890577       0.81733633      -8.67452439
Si      14.48373099      12.77450094       9.14361313      -1.14637199      -0.93421114      -0.39636046      -0.65532855      -0.33156333      -0.15426642      -8.46991961
Si      10.56782145       3.85597794       2.77407123       1.19364872      -0.31082245       1.95304645      -0.38790070       0.18977921      -0.02664678      -8.66288708
Si      12.42459281       4.95775945       5.86875363       0.98292658      -0.47546151       0.42750153       0.61467613       0.49422512       0.12399717      -8.70319492
Si      14.41843529       6.09460979       8.99295511       0.14102831       0.35030581       0.12203176      -0.07375277      -0.17453315       0.51708985      -8.72019483
Si      12.48825807       7.14518512       2.66997298      -0.34593409      -0.61678244       0.44399049      -0.57801902       0.73311307       0.12747501      -8.70821291
Si      14.35860936       8.25605368       5.81914134       1.04189341      -0.07964297       0.69697749       0.43139282       0.25325463       0.62068962      -8.71402913
Si      16.32272039       9.42769693       9.02693748       0.22359606       0.34253917      -0.18782910       0.06570418      -0.28582137      -0.18980471      -8.73702320
Si      14.38670051      10.41162114       2.76012287       0.14859855      -1.61223788       0.91759480       0.69020526       0.69169845      -0.62043306      -8.71596593
Si      16.35345077      11.64662853       5.88984650      -0.33220330       0.49687342       1.09473728      -0.12894180      -0.13820282       0.24885154      -8.70000744
Si      18.28592397      12.74098396       9.04989891       0.62939340       0.25860310       0.16871396      -1.16754184       0.33770497      -0.65090328      -8.69918420
Si      14.38532760       3.87184114       2.93801138      -0.50045643      -0.02413215       1.49613495       1.00905161      -0.27584313      -0.95488231      -8.69410719
Si      16.34255334       4.96079707       5.93684496      -1.36247955       0.21015163       0.32974994       0.47757550       0.38094364       0.23319606      -8.68612619
Si      18.18131004       6.06841002       9.11871314       0.82588580      -0.02196548      -0.58567754       1.10586153       0.44810398       0.56483963      -8.44374338
Si      16.40722329       7.17402102       2.83486220      -0.04762486      -0.15832422       0.78933380      -0.68836515      -0.00822340      -0.39632975      -8.72826178
Si      18.21152484       8.26684252       5.92057015       0.13232811      -0.16311121      -0.58041353       1.11161324       0.90857823      -0.21455518      -8.67064262
Si      20.30302347       9.44855941       9.06850219       0.44896789      -0.09884723       1.03889192      -1.04220708       0.24210929      -0.31746467      -8.71304582
Si      18.30832875      10.50948846       2.79483984      -0.72319732       0.79514333       0.68704466      -0.58502948       0.85494328       0.22022432      -8.72467284
Si      20.19475151      11.66571380       6.07023416       0.20908863      -1.74282905      -0.02298337      -0.59053819      -0.36891087      -1.59165858      -8.71816672
Si      22.02210248      12.69864493       9.07353996       0.21481189      -0.98869750      -1.21982558       0.62787600      -0.11089920      -0.12823431      -8.67367165
Si       0.86598749       0.49454813       0.47711121       0.13755819       0.64382255       0.11033699       0.15013071      -0.23377146      -0.46662573      -8.54056220
Si       2.87146826       1.60917737       3.63434237       1.52656099       0.43428383      -0.46045416      -0.21877619       0.47964559       0.65023418      -8.71817636
Si       4.74435992       2.76092025       6.67682262      -1.05197392       0.40858323       0.44247314       1.17784092       0.05610061       0.69127459      -8.72539323
Si       2.96005467       4.00184556       0.51748997       0.41455566       1.29004139      -1.60098089      -0.63156435      -1.40970710       0.17133200      -8.42508013
Si       4.84370629       4.97067116       3.60007419       0.00708666      -0.91686017      -0.39248665      -0.15235999      -0.39310289      -0.16031295      -8.70854613
Si       6.76758493       6.14418140       6.79379213      -0.32167330      -0.11066155       1.22391204      -0.74631979      -0.91902397      -0.83185077      -8.51707323
Si       4.86663336       7.11789784       0.48718697      -1.78240658       0.90233861      -1.97361853       0.13524226       0.93774357      -0.20513157      -8.70549576
Si       6.70004804       8.36020075       3.53372488       1.56366842      -1.17643641      -0.91605583       0.25399836      -0.66509950       0.70849844      -8.72312604
Si       8.67043886       9.43941563       6.70770779       0.60720104      -0.88747701       0.24883282      -0.70554889      -0.44934782       0.34556893      -8.69976054
Si       4.81753726       0.59288650       0.48143440       0.73087255       2.40875685       0.57526413       0.60769730      -0.20506380       0.34890966      -8.55428394
Si       6.82906943       1.60927269       3.56656215       1.28283089      -0.31163585      -0.54905974      -1.01893721      -0.01678961      -0.39358819      -8.72539057
Si       8.67187562       2.86139721       6.69648621      -0.21168272       0.69821413       0.95051449       0.10578805      -0.92396854       0.02066829      -8.52655839
Si       6.77272974       3.93697280       0.39305439      -1.08634787       0.25122562       0.31929737       0.65304665       0.52697511      -0.91563602      -8.64517730
Si       8.48343897       4.95448796       3.43294903      -0.13249621       0.61293184       0.14699591       1.23445929       0.14093872      -0.04498510      -8.61852872
Si      10.52291148       6.03777511       6.67622105      -0.03071403       1.12952562      -0.41046879       0.61608668       0.78699223       0.19100064      -8.56102184
Si       8.64804611       7.17504105       0.43238905      -0.12821023      -0.78329708      -0.75978185       0.76946288       0.51144393       0.24026753      -8.67229353
Si      10.54850032       8.32280597       3.59848961      -0.06145714       0.12367956       0.40222612       0.38836629      -0.64280073      -0.21736170      -8.68320140
Si      12.47871452       9.42479904       6.64443527       0.41320634       0.78239586       0.27395327       0.50398038       0.56392344      -0.09899776      -8.71996191
Si       8.56861625       0.51654526       0.35313098      -0.33973916       0.33277593       0.19421444       0.75944283       0.43549484       0.86707222      -8.71502017
Si      10.53292321       1.61157304       3.55252359       0.23606024      -0.97405326       0.79561048       0.13207544      -0.18332962      -0.35716457      -8.70523675
Si      12.48029249       2.80293729       6.65154929       2.69572021       0.22468628       0.58943068      -0.22461677      -0.57164302       0.71278578      -8.72969733
Si      10.54649848       3.87461047       0.39909157       0.03804312      -0.24078896      -0.68381798      -0.58017476       0.31601768       0.39584416      -8.69515980
Si      12.52367026       5.01315447       3.54086950       0.01246970      -0.02369583       1.54195267      -1.13783261      -0.28279834       0.13074290      -8.74565676
Si      14.39414715       6.04975863       6.67482205      -0.43555596       0.60620593      -0.22380795      -0.25758700       0.21450986      -0.42121506      -8.72521937
Si      12.46968925       7.20300231       0.30642362       1.38947596      -0.80683784       0.28844075       0.69115227      -0.43661905       0.53729801      -8.70443333
Si      14.37433828       8.23267492       3.49420891      -0.94195044      -0.90493120      -0.73726130       0.43544288      -0.33612365      -0.00983376      -8.76447402
Si      16.34262980       9.37934258       6.67117039      -0.13790690       0.06296869      -1.17543402      -1.01120109       0.31626413      -0.08659587      -8.70584645
Si       8.60982574       4.97556402       8.18791968      -1.99775329      -1.63592749      -0.68869434       0.12639502       0.37937097       0.37386663      -7.76677829
