54
Lattice="11.5478352 0.0 0.0 5.773917198490155 10.000722372470358 0.0 5.773916394327279 3.333571176804646 9.428767828939895" Properties=species:S:1:pos:R:3:momenta:R:3:forces:R:3:energies:R:1 spacegroup="_JSON {\"number\": 1, \"setting\": 1}" unit_cell=conventional occupancy="_JSON {\"0\": {\"Si\": 1.0}, \"1\": {\"Si\": 1.0}, \"2\": {\"Si\": 1.0}, \"3\": {\"Si\": 1.0}, \"4\": {\"Si\": 1.0}, \"5\": {\"Si\": 1.0}, \"6\": {\"Si\": 1.0}, \"7\": {\"Si\": 1.0}, \"8\": {\"Si\": 1.0}, \"9\": {\"Si\": 1.0}, \"10\": {\"Si\": 1.0}, \"11\": {\"Si\": 1.0}, \"12\": {\"Si\": 1.0}, \"13\": {\"Si\": 1.0}, \"14\": {\"Si\": 1.0}, \"15\": {\"Si\": 1.0}, \"16\": {\"Si\": 1.0}, \"17\": {\"Si\": 1.0}, \"18\": {\"Si\": 1.0}, \"19\": {\"Si\": 1.0}, \"20\": {\"Si\": 1.0}, \"21\": {\"Si\": 1.0}, \"22\": {\"Si\": 1.0}, \"23\": {\"Si\": 1.0}, \"24\": {\"Si\": 1.0}, \"25\": {\"Si\": 1.0}, \"26\": {\"Si\": 1.0}, \"27\": {\"Si\": 1.0}, \"28\": {\"Si\": 1.0}, \"29\": {\"Si\": 1.0}, \"30\": {\"Si\": 1.0}, \"31\": {\"Si\": 1.0}, \"32\": {\"Si\": 1.0}, \"33\": {\"Si\": 1.0}, \"34\": {\"Si\": 1.0}, \"35\": {\"Si\": 1.0}, \"36\": {\"Si\": 1.0}, \"37\": {\"Si\": 1.0}, \"38\": {\"Si\": 1.0}, \"39\": {\"Si\": 1.0}, \"40\": {\"Si\": 1.0}, \"41\": {\"Si\": 1.0}, \"42\": {\"Si\": 1.0}, \"43\": {\"Si\": 1.0}, \"44\": {\"Si\": 1.0}, \"45\": {\"Si\": 1.0}, \"46\": {\"Si\": 1.0}, \"47\": {\"Si\": 1.0}, \"48\": {\"Si\": 1.0}, \"49\": {\"Si\": 1.0}, \"50\": {\"Si\": 1.0}, \"51\": {\"Si\": 1.0}, \"52\": {\"Si\": 1.0}, \"53\": {\"P\": 1.0}}" energy=-473.1231605017995 stress="-4.3067756747654936e-05 -3.135482255662075e-08 -4.4720871265598995e-08 -3.135482255662075e-08 -4.266690862947118e-05 -1.545141623975453e-07 -4.4720871265598995e-08 -1.545141623975453e-07 -4.307583741577972e-05" free_energy=-473.1231605017995 pbc="T T T"
Si       6.73623672       3.88916881       2.75005737      -1.83719745       0.70253587      -0.45588127      -0.00000015      -0.00000043       0.00000015      -8.75831672
Si       8.66673475       5.00374203       5.88927855      -0.59160263       0.17873671      -0.22658366       0.00369042       0.00213033      -0.00393099      -8.75803857
Si      10.59048959       6.11442207       9.03075766       0.75662762      -1.02250621       0.50755829       0.00443986       0.00256302      -0.00270720      -8.75803857
Si       8.66673502       7.22038078       2.75448055      -0.31881019       1.13461644      -0.22776382       0.00369043      -0.00299653       0.00331944      -8.75803855
Si      10.58653487       8.33334423       5.89256343      -1.37240322       0.02449594       1.47471556       0.00228041      -0.00131704      -0.00093083      -8.76046418
Si      12.51015336       9.43937872       9.03075765      -1.36571679      -0.97320303      -0.24793557      -0.00000009      -0.00512726      -0.00270718      -8.75803855
Si      10.59049014      10.55242386       2.75448055      -1.32228966       0.21038334      -1.42867651       0.00443985      -0.00169850       0.00331944      -8.75803854
Si      12.51015363      11.66074176       5.88927853      -0.88321486      -0.50714101       0.17106145      -0.00000009      -0.00426189      -0.00393096      -8.75803855
Si      14.42677764      12.78332518       9.03917461      -0.10588338       1.84175798       1.33270771      -0.00174851       0.00100918       0.00071392      -8.57902973
Si      10.58639907       3.89542412       2.75448054       0.41293084      -0.66231111      -0.24449308      -0.00074953       0.00469374       0.00331942      -8.75803857
Si      12.51015389       5.00153734       5.89256343      -0.16142307      -1.99660881      -0.31114782      -0.00000008       0.00263289      -0.00093083      -8.76046418
Si      14.42981741       6.11442206       9.03075765      -1.34907695       1.42328559       1.55226347      -0.00444005       0.00256302      -0.00270719      -8.75803857
Si      12.51015416       7.22274291       2.75130698       0.78510915      -0.81065391       0.42534967      -0.00000008      -0.00000040       0.00279320      -8.76046418
Si      14.43377263       8.33334422       5.89256342       1.47825982      -1.28932892      -0.60936957      -0.00228058      -0.00131704      -0.00093084      -8.76046418
Si      16.36719161       9.44960386       9.02956667       0.12604808      -0.79484374      -1.00444386      -0.00922019      -0.00532343       0.00752832      -8.74454426
Si      14.42981794      10.55242385       2.75448054       0.43853053       0.51752079       0.32725409      -0.00444004      -0.00169849       0.00331943      -8.75803854
Si      16.36719189      11.66302726       5.89931587       0.62367794       0.21344961      -0.07651742      -0.00922016       0.00532285      -0.00752805      -8.74454429
Si      18.28407082      12.76973749       9.02956666       0.76992253      -0.56069148      -0.68885462      -0.00000001       0.01064612       0.00752839      -8.74454429
Si      14.43390955       3.89542412       2.75448055       0.36615764       0.07559088       0.94478113       0.00074931       0.00469375       0.00331943      -8.75803857
Si      16.35357305       5.00374202       5.88927854       1.43696263       1.43659434      -0.87031333      -0.00369063       0.00213034      -0.00393097      -8.75803857
Si      18.28407110       6.10229497       9.03917458      -0.01635099       0.46260672       1.31130300      -0.00000006      -0.00201900       0.00071384      -8.57902926
Si      16.35357332       7.22038077       2.75448054      -1.15426235      -1.67185094       0.37316329      -0.00369064      -0.00299652       0.00331945      -8.75803854
Si      18.28407135       8.34289363       5.89931586      -0.99109938       1.73112823       1.61693226      -0.00000005      -0.01064667      -0.00752815      -8.74454427
Si      20.20095029       9.44960387       9.02956667       0.53509996       1.19384628      -0.32664062       0.00922013      -0.00532340       0.00752835      -8.74454427
Si      18.28407164      10.55631705       2.74024126      -0.36882082      -0.82524085      -0.38551776      -0.00000006      -0.00000029      -0.00214133      -8.57902985
Si      20.20095054      11.66302726       5.89931588      -0.38651656       0.60683718      -1.25873645       0.00922009       0.00532288      -0.00752803      -8.74454430
Si      22.14136404      12.78332518       9.03917461      -0.04308438      -0.85645662      -0.24764094       0.00174839       0.00100918       0.00071393      -8.57902985
Si       2.89713535       1.67266180       3.52475585       0.38288640       0.45446481      -1.31985145       0.00182572       0.00105442      -0.00284877      -8.74783994
Si       4.82399708       2.78513560       6.67130851      -0.60738888       0.22528971       0.93209799       0.00293449       0.00169457      -0.00103813      -8.74783993
Si       2.89713561       3.88072734       0.40208223      -0.19186757       0.70242222      -0.63250741       0.00182564      -0.00233416       0.00194314      -8.74783985
Si       4.81291735       4.99959820       3.53524902      -0.30816779      -0.35534989       1.71979581       0.00522916      -0.00301871      -0.00213495      -8.75883215
Si       6.73623623       6.09723245       6.67130852      -0.14054234      -0.23269706      -0.95155769       0.00000007      -0.00338815      -0.00103802      -8.74783985
Si       4.82399762       7.21815170       0.40208223      -1.14683188       1.12131847       0.60872053       0.00293454      -0.00041356       0.00194316      -8.74783990
Si       6.73623650       8.32218300       3.52475584      -0.26431202       1.29141152       0.78793232       0.00000007      -0.00210780      -0.00284879      -8.74783990
Si       8.66485828       9.44282516       6.67708441       1.74528362      -0.10482822       1.07681919       0.00079979      -0.00046127      -0.00032663      -8.76932851
Si       4.80937503       0.56863051       0.40208224       0.96473057      -1.02747791       0.03053075      -0.00110875       0.00274861       0.00194312      -8.74783991
Si       6.73623678       1.66831022       3.53524902       0.40121040      -0.93914060      -1.36133455       0.00000004       0.00603845      -0.00213496      -8.75883212
Si       8.64847564       2.78513561       6.67130852      -0.15637366       0.05111996      -1.09432036      -0.00293437       0.00169459      -0.00103813      -8.74783991
Si       6.73623705       3.88916985       0.39448180       0.52053427       1.84145354      -0.47321555       0.00000004       0.00000032       0.00640417      -8.75883216
Si       8.65955595       4.99959820       3.53524902      -0.25520435       1.41563340       0.49437035      -0.00522906      -0.00301869      -0.00213494      -8.75883216
Si      10.58846347       6.11325315       6.67630276       0.91567668      -0.27037362      -0.49831071       0.00718498       0.00414861      -0.00586659      -8.75163331
Si       8.64847617       7.21815171       0.40208223       0.86977503      -0.83363103      -0.26415298      -0.00293442      -0.00041356       0.00194318      -8.74783989
Si      10.58846373       8.33223185       3.53819557      -0.53543660       1.02966677      -0.62643048       0.00718500      -0.00414783       0.00586628      -8.75163329
Si      12.51015368       9.44171973       6.67630276       0.58714574      -0.52362944      -0.05959831       0.00000011      -0.00829602      -0.00586659      -8.75163329
Si       8.66309930       0.56863050       0.40208224      -0.09772522       0.39751734       0.05561211       0.00110886       0.00274861       0.00194312      -8.74783992
Si      10.57533819       1.67266180       3.52475585      -0.69008842      -0.17678238       0.42274767      -0.00182560       0.00105443      -0.00284878      -8.74783992
Si      12.51015394       2.78257567       6.67708441       0.33684164      -0.25139097       0.02608809       0.00000012       0.00092381      -0.00032663      -8.76932847
Si      10.57533846       3.88072734       0.40208223       0.65020594      -0.61085611      -1.27405433      -0.00182553      -0.00233415       0.00194316      -8.74783986
Si      12.51015423       5.00376526       3.53819558       0.84456053      -0.01903752      -0.12997879       0.00000010       0.00829680       0.00586626      -8.75163330
Si      14.43184418       6.11325313       6.67630275       0.38880634      -1.34743999       0.67204238      -0.00718477       0.00414861      -0.00586659      -8.75163330
Si      12.51015448       7.22274396       0.39774340       0.85997574      -1.43899542       0.02889037       0.00000012       0.00000042       0.00097924      -8.76932852
Si      14.43184446       8.33223184       3.53819557      -1.38650210      -0.42711459      -0.10597103      -0.00718479      -0.00414782       0.00586629      -8.75163329
Si      16.35544907       9.44282515       6.67708441       0.05405060       0.69512455      -0.48009713      -0.00079954      -0.00046126      -0.00032662      -8.76932852
P        0.96231956       0.55559569       0.39286526       0.79718330      -0.44922677       0.98915962       0.00000008       0.00000033      -0.00000014      -9.84661886
54
Lattice="11.5478352 0.0 0.0 5.773917198490155 10.000722372470358 0.0 5.773916394327279 3.333571176804646 9.428767828939895" Properties=species:S:1:pos:R:3:momenta:R:3:forces:R:3:energies:R:1 spacegroup="_JSON {\"number\": 1, \"setting\": 1}" unit_cell=conventional occupancy="_JSON {\"0\": {\"Si\": 1.0}, \"1\": {\"Si\": 1.0}, \"2\": {\"Si\": 1.0}, \"3\": {\"Si\": 1.0}, \"4\": {\"Si\": 1.0}, \"5\": {\"Si\": 1.0}, \"6\": {\"Si\": 1.0}, \"7\": {\"Si\": 1.0}, \"8\": {\"Si\": 1.0}, \"9\": {\"Si\": 1.0}, \"10\": {\"Si\": 1.0}, \"11\": {\"Si\": 1.0}, \"12\": {\"Si\": 1.0}, \"13\": {\"Si\": 1.0}, \"14\": {\"Si\": 1.0}, \"15\": {\"Si\": 1.0}, \"16\": {\"Si\": 1.0}, \"17\": {\"Si\": 1.0}, \"18\": {\"Si\": 1.0}, \"19\": {\"Si\": 1.0}, \"20\": {\"Si\": 1.0}, \"21\": {\"Si\": 1.0}, \"22\": {\"Si\": 1.0}, \"23\": {\"Si\": 1.0}, \"24\": {\"Si\": 1.0}, \"25\": {\"Si\": 1.0}, \"26\": {\"Si\": 1.0}, \"27\": {\"Si\": 1.0}, \"28\": {\"Si\": 1.0}, \"29\": {\"Si\": 1.0}, \"30\": {\"Si\": 1.0}, \"31\": {\"Si\": 1.0}, \"32\": {\"Si\": 1.0}, \"33\": {\"Si\": 1.0}, \"34\": {\"Si\": 1.0}, \"35\": {\"Si\": 1.0}, \"36\": {\"Si\": 1.0}, \"37\": {\"Si\": 1.0}, \"38\": {\"Si\": 1.0}, \"39\": {\"Si\": 1.0}, \"40\": {\"Si\": 1.0}, \"41\": {\"Si\": 1.0}, \"42\": {\"Si\": 1.0}, \"43\": {\"Si\": 1.0}, \"44\": {\"Si\": 1.0}, \"45\": {\"Si\": 1.0}, \"46\": {\"Si\": 1.0}, \"47\": {\"Si\": 1.0}, \"48\": {\"Si\": 1.0}, \"49\": {\"Si\": 1.0}, \"50\": {\"Si\": 1.0}, \"51\": {\"Si\": 1.0}, \"52\": {\"Si\": 1.0}, \"53\": {\"P\": 1.0}}" energy=-471.7814655015339 stress="-0.0015812023962701355 0.0022766095146748667 0.0014981371563272546 0.0022766095146748667 -0.001552099408738611 0.00021612891324360905 0.0014981371563272546 0.00021612891324360905 -0.00020562282065283316" free_energy=-471.7814655015339 pbc="T T T"
Si       6.65702554       3.92209234       2.73070255      -0.90220321       0.47919706      -0.21097428       1.10136181      -0.28528073       0.28762213      -8.69649073
Si       8.64402563       5.01390037       5.87831921      -0.14273710       0.21405123      -0.17432712       0.51390900       0.02414096       0.06116310      -8.78129307
Si      10.62914448       6.06759836       9.05201172       0.68748033      -0.64696797       0.21429033      -0.11852300       0.45633357      -0.34908140      -8.69672063
Si       8.65009634       7.27671973       2.74359387      -0.32060409       0.95302159      -0.17408293      -0.01785622      -0.24263114       0.05568057      -8.78443817
Si      10.53495065       8.33086312       5.95272646      -0.25610923      -0.19483531       0.54386455       1.29401647      -0.27914229      -1.07182239      -8.73382274
Si      12.44615461       9.41026330       9.01690726      -0.94822565       0.23277071      -0.30500058       0.50436960       1.41279557      -0.08424565      -8.70920018
Si      10.53577841      10.56211251       2.68707405      -0.52796239       0.13254806      -1.00683429       0.92114828      -0.10358214       0.53082980      -8.76592583
Si      12.46707813      11.63548790       5.89216124      -0.69603837      -0.43182130      -0.15316672       0.24967325       0.08995065      -0.36651505      -8.74049786
Si      14.42490436      12.86183021       9.09410994       0.10675550       0.84475318       0.51388324       0.27200605      -1.20143678      -0.97331973      -8.51469858
Si      10.60306128       3.87007935       2.74031550       0.14188426      -0.15804356      -0.31284996      -0.32206747       0.57480736      -0.06014126      -8.70133594
Si      12.50705886       4.91158607       5.87599357       0.12506569      -1.17971870      -0.31811458       0.31988824       0.98722740       0.01960891      -8.74751324
Si      14.37162984       6.17849220       9.10064764      -0.65376298       0.83291981       0.92042665       0.82032099      -0.72107675      -0.75331528      -8.72903515
Si      12.53617275       7.18622343       2.76961590      -0.04223237      -0.48929735       0.19804005      -0.96697230       0.36632873      -0.28061518      -8.74851373
Si      14.50000114       8.26823548       5.86586467       0.86183513      -1.14552091      -0.32049045      -0.73216474       0.19096903       0.34758442      -8.72614930
Si      16.37709573       9.41046608       8.98231740       0.29787686      -0.64288053      -0.70157896       0.16414936       0.21433758       0.38430760      -8.74359439
Si      14.44908182      10.56893427       2.76702480       0.23027066      -0.05494282       0.07552621      -0.26353625      -0.64332572      -0.28486900      -8.76341157
Si      16.39333472      11.67633760       5.89580907       0.25866048       0.32619808      -0.04364283      -0.46082055       0.13002386       0.04595562      -8.73828848
Si      18.32357539      12.73629876       9.00178474       0.72146893      -0.77692035      -0.23774361      -0.05887542      -0.23236285       0.52233944      -8.71973962
Si      14.45239836       3.90226618       2.79213772       0.31921414       0.22246245       0.29207393      -0.07997063       0.14194073      -0.78001963      -8.73207767
Si      16.41715621       5.06367095       5.86144522       0.78247306       0.60208370       0.11526787      -0.79261344      -0.96178708       1.17410071      -8.72947230
Si      18.28690636       6.11691489       9.09155597       0.19839371      -0.05806465       0.43623029       0.28163517      -0.58773138      -0.97730467      -8.53667918
Si      16.29888708       7.14801796       2.77811013      -0.83401730      -0.83232257       0.57734919       0.38774738       0.99512981       0.20016254      -8.68641297
Si      18.24872513       8.42309110       5.97614743      -0.08041258       1.14818042       1.17236874       1.05829277      -0.69894755      -0.55358999      -8.68441893
Si      20.23005037       9.50385178       9.01684932       0.57829567       0.73029721      -0.08386953       0.01693590      -0.57129604       0.29935034      -8.75677370
Si      18.26478787      10.52481292       2.72436719      -0.36569374      -0.18482602      -0.13735181       0.00335992       0.73571098       0.32476236      -8.58240889
Si      20.18829282      11.68722824       5.83860412       0.02306468       0.19732702      -0.96166432       0.47091303      -0.45768931       0.36292105      -8.69779560
Si      22.13926038      12.75170861       9.03229396      -0.03641039      -0.12888723       0.07992411       0.00488404       0.85510436       0.36759390      -8.55308353
Si       2.90762164       1.69185858       3.45964610      -0.13583295       0.19877559      -1.08347481      -0.58769288      -0.30729673       0.30674302      -8.73086546
Si       4.79570925       2.80088182       6.70700520      -0.40538889       0.41680089       0.21728138       0.26425141       0.16314277      -0.81948864      -8.71221092
Si       2.89633753       3.91616820       0.37714046       0.30688431       0.61298915      -0.19619536       0.56746120      -0.15126001       0.47973870      -8.68858561
Si       4.79510203       4.98059477       3.61075797      -0.39480122      -0.36975216       0.90630525      -0.07893782       0.00200969      -0.96933328      -8.77405390
Si       6.73503248       6.09780905       6.63645503       0.21025862       0.46606079      -0.13389167       0.44320063       0.80980460       0.95099367      -8.70111700
Si       4.77359488       7.26497256       0.43412590      -0.60887409       0.47626990       0.62242423       0.65712873      -0.72052679       0.03252108      -8.74447097
Si       6.71694812       8.37580584       3.56602475      -0.54091167       0.52161554       0.78866810      -0.27575460      -0.90124301      -0.00123669      -8.69840150
Si       8.73587519       9.44880475       6.72621439       0.62899914       0.51931439       0.66479911      -1.26919495       0.70838510      -0.52973489      -8.73270533
Si       4.85882010       0.51976192       0.39849465       0.89815459      -0.75404313      -0.26494320      -0.09366711       0.32498064      -0.37569888      -8.76190429
Si       6.74608231       1.62916895       3.47195917      -0.20414629      -0.38531253      -0.91098435      -0.68300872       0.66039655       0.55268529      -8.70552226
Si       8.63813854       2.78783694       6.62498922      -0.27529787       0.05360605      -0.50217026      -0.15056835       0.00839458       0.66978752      -8.69755986
Si       6.74797380       3.97258082       0.37905712      -0.32056547       1.10522936       0.04238309      -0.95229010      -0.89743579       0.60163258      -8.77015231
Si       8.64455257       5.06446004       3.55185965      -0.33261457       0.90994547      -0.00886655      -0.06403367      -0.58645361      -0.58060319      -8.70987541
Si      10.62894869       6.09512261       6.65625082       0.50325918      -0.47895064      -0.16676797      -0.47948710      -0.22103984       0.38166011      -8.72496513
Si       8.68253781       7.18190532       0.38639371       0.25126399      -0.41912756      -0.35180534      -0.69736406       0.50771037      -0.07177181      -8.67140696
Si      10.56420505       8.37893735       3.51445935      -0.33509910       0.63013287      -0.14138342       0.22438075      -0.48064726       0.54495696      -8.68490224
Si      12.53913751       9.41009207       6.67098612       0.48037712      -0.72865379      -0.17490585      -0.14541376      -0.18487812      -0.13351890      -8.72397137
Si       8.66026736       0.58994799       0.40595663       0.02463498       0.41501356       0.10516381       0.13786429      -0.00223322       0.05215148      -8.71449047
Si      10.54891184       1.66453200       3.54482076      -0.16100397      -0.10278483       0.30252431       0.60073452       0.12117559      -0.16476306      -8.75173861
Si      12.52606993       2.76410427       6.67670198       0.24711383      -0.54283816      -0.06383269      -0.08665413      -0.34083146      -0.09102972      -8.78713785
Si      10.60104654       3.85316474       0.34715525       0.18797343      -0.36254332      -0.62838856      -0.53984363       0.29616899       0.75359057      -8.74902466
Si      12.54781975       4.99599816       3.53408771       0.47280689      -0.38487812       0.00997886      -0.46792934      -0.40363233       0.14263458      -8.75804263
Si      14.44863985       6.04682030       6.71075897       0.19937184      -1.10611386       0.62870925      -0.21459297       0.31926801      -0.05865524      -8.68686297
Si      12.54702196       7.15568191       0.39872630       0.40156358      -0.97591639       0.00673880      -0.55993617       0.55662221      -0.00624020      -8.72852282
Si      14.37287476       8.31397388       3.53262844      -0.62989529      -0.19711179      -0.09999304       0.88684452       0.26801874       0.02636914      -8.74182149
Si      16.35170551       9.47949375       6.65494607      -0.31190954       0.69654059      -0.31350980      -0.43253844      -0.04054355       0.19296106      -8.78048338
P        0.99235839       0.53815725       0.43618337       0.31734975      -0.20502909       0.74858353      -0.57416950       0.30343311      -0.33549451      -9.85087812
54
Lattice="11.5478352 0.0 0.0 5.773917198490155 10.000722372470358 0.0 5.773916394327279 3.333571176804646 9.428767828939895" Properties=species:S:1:pos:R:3:momenta:R:3:forces:R:3:energies:R:1 spacegroup="_JSON {\"number\": 1, \"setting\": 1}" unit_cell=conventional occupancy="_JSON {\"0\": {\"Si\": 1.0}, \"1\": {\"Si\": 1.0}, \"2\": {\"Si\": 1.0}, \"3\": {\"Si\": 1.0}, \"4\": {\"Si\": 1.0}, \"5\": {\"Si\": 1.0}, \"6\": {\"Si\": 1.0}, \"7\": {\"Si\": 1.0}, \"8\": {\"Si\": 1.0}, \"9\": {\"Si\": 1.0}, \"10\": {\"Si\": 1.0}, \"11\": {\"Si\": 1.0}, \"12\": {\"Si\": 1.0}, \"13\": {\"Si\": 1.0}, \"14\": {\"Si\": 1.0}, \"15\": {\"Si\": 1.0}, \"16\": {\"Si\": 1.0}, \"17\": {\"Si\": 1.0}, \"18\": {\"Si\": 1.0}, \"19\": {\"Si\": 1.0}, \"20\": {\"Si\": 1.0}, \"21\": {\"Si\": 1.0}, \"22\": {\"Si\": 1.0}, \"23\": {\"Si\": 1.0}, \"24\": {\"Si\": 1.0}, \"25\": {\"Si\": 1.0}, \"26\": {\"Si\": 1.0}, \"27\": {\"Si\": 1.0}, \"28\": {\"Si\": 1.0}, \"29\": {\"Si\": 1.0}, \"30\": {\"Si\": 1.0}, \"31\": {\"Si\": 1.0}, \"32\": {\"Si\": 1.0}, \"33\": {\"Si\": 1.0}, \"34\": {\"Si\": 1.0}, \"35\": {\"Si\": 1.0}, \"36\": {\"Si\": 1.0}, \"37\": {\"Si\": 1.0}, \"38\": {\"Si\": 1.0}, \"39\": {\"Si\": 1.0}, \"40\": {\"Si\": 1.0}, \"41\": {\"Si\": 1.0}, \"42\": {\"Si\": 1.0}, \"43\": {\"Si\": 1.0}, \"44\": {\"Si\": 1.0}, \"45\": {\"Si\": 1.0}, \"46\": {\"Si\": 1.0}, \"47\": {\"Si\": 1.0}, \"48\": {\"Si\": 1.0}, \"49\": {\"Si\": 1.0}, \"50\": {\"Si\": 1.0}, \"51\": {\"Si\": 1.0}, \"52\": {\"Si\": 1.0}, \"53\": {\"P\": 1.0}}" energy=-471.96601978727966 stress="-8.209781864829179e-05 0.00018540674779847613 0.00023942369675431763 0.00018540674779847613 0.0005223690691101792 0.00010470624985788454 0.00023942369675431763 0.00010470624985788454 -0.0001048823689012092" free_energy=-471.96601978727966 pbc="T T T"
Si       6.65395993       3.93506065       2.73262554       0.73134590       0.01522263       0.31208453       0.88569846      -0.28624031       0.39005183      -8.71926441
Si       8.65560485       5.02539755       5.87116051       0.51522597       0.20803258      -0.11420006       0.24227081      -0.04059259       0.00150979      -8.78315735
Si      10.65763093       6.05269414       9.04897161       0.33016840       0.07124201      -0.31981132      -0.38794807       0.42551649      -0.30815534      -8.70125034
Si       8.63153799       7.31496712       2.73650742      -0.40857218       0.46564608      -0.10075617      -0.09896912      -0.39969881       0.03860702      -8.77198510
Si      10.56750566       8.31117989       5.94080055       1.28262060      -0.49348201      -0.88500565       0.47552172      -0.05226709      -0.63289483      -8.74528140
Si      12.41908450       9.47336337       8.99908091      -0.03859241       1.93818425      -0.32178258       0.67803566       0.50724553       0.11165126      -8.72753277
Si      10.54328517      10.56439875       2.65718066       0.72102278      -0.05384461      -0.12683799       0.55655716      -0.14003087       0.55251885      -8.77076477
Si      12.44252618      11.61645259       5.86975583      -0.20309369      -0.29405650      -0.67540815       0.39573011       0.09287913      -0.26139011      -8.71709056
Si      14.44077621      12.85643721       9.08130129       0.45662542      -1.02403927      -0.97030292       0.11190254      -1.09285464      -0.84432228      -8.51146997
Si      10.59642973       3.88379267       2.72330834      -0.41182633       0.62790031      -0.28609526      -0.38650489       0.36664496       0.13348615      -8.69721841
Si      12.52556789       4.88917212       5.86334026       0.54363654       0.26386692      -0.08056385       0.17238853       0.75116366       0.34053767      -8.74816320
Si      14.36680213       6.19327869       9.11838271       0.33386500      -0.22825247      -0.21592768       0.30191599      -0.56708657      -0.64356863      -8.72925616
Si      12.49713258       7.17531672       2.76967273      -1.34017530       0.06186687      -0.15233077      -0.55079139       0.31758853      -0.11537218      -8.73749714
Si      14.51466223       8.21778056       5.86389648      -0.30101399      -0.73142207       0.25164297      -0.72406571       0.37743918       0.36880906      -8.71250415
Si      16.39563736       9.38787852       8.96292158       0.30739576      -0.16637405      -0.01087132      -0.23255613       0.41528469       0.48836408      -8.73518352
Si      14.44926087      10.54385992       2.76150054      -0.24009045      -0.77247168      -0.22157662      -0.32636426      -0.14234071      -0.03610044      -8.75921617
Si      16.38590786      11.69846559       5.89551200      -0.57692272       0.50088558       0.03268169      -0.59224329       0.06078287       0.04682625      -8.74660798
Si      18.35894929      12.68822457       9.00918391       0.62405905      -0.98883972       0.46224849      -0.07489908       0.03709034       0.29597963      -8.71467734
Si      14.46388782       3.91682219       2.77519003       0.07009508       0.25461087      -0.91872528      -0.26868055      -0.15813522      -0.69339166      -8.74889334
Si      16.42759336       5.05834537       5.91157830      -0.30245342      -0.70913079       1.64362133      -0.47785064      -0.57789047       0.58243110      -8.75152461
Si      18.30868994       6.09369052       9.07839243       0.60863781      -0.70739499      -0.81154386       0.19255286      -0.12197009      -0.47532830      -8.54064395
Si      16.27304016       7.14429086       2.81492708      -0.10008503       0.63751996       0.78374029       0.58855506       0.78530745       0.02862628      -8.69951740
Si      18.28229656       8.45601836       6.01391653       1.17716233       0.16169733       0.25261996       0.35051315      -0.49705580      -0.62160202      -8.70148590
Si      20.25853679       9.51761704       9.02525335       0.44430963      -0.21477494       0.39956827      -0.22776292      -0.60579370       0.27473015      -8.76010650
Si      18.24573770      10.54147438       2.73218691      -0.35912743       0.69705659       0.45611295       0.01089267       0.25696516       0.39347620      -8.60204247
Si      20.20746659      11.68109583       5.80303569       0.66031696      -0.35966095      -0.40618197       0.28482893      -0.17392211       0.31655546      -8.70752835
Si      22.13750179      12.77787878       9.04974657      -0.03031209       1.04309457       0.52945165       0.00748503       0.52735925       0.14745249      -8.55138187
Si       2.87983104       1.68972915       3.41640127      -0.81229261      -0.26733843      -0.54578711      -0.14848807      -0.25521858       0.38973917      -8.72213427
Si       4.78721222       2.82535533       6.68842583       0.12293573       0.40549760      -0.80685215       0.42508692      -0.27846998      -0.35547457      -8.72343795
Si       2.93370714       3.93838745       0.38400105       1.05120196       0.14375681       0.38088527       0.30366662      -0.50285838       0.17435778      -8.67350366
Si       4.77419206       4.96352361       3.62285913      -0.31909485      -0.21940566      -0.29933399       0.24312902       0.24069189      -0.41819348      -8.76446683
Si       6.76361516       6.15134664       6.66620044       0.83580001       1.43252368       1.17754100       0.27343566       0.24902919       0.59052556      -8.73231414
Si       4.76977887       7.26552596       0.46796919       0.46867385      -0.30655683       0.65187049       0.67022840      -0.14792038      -0.03255634      -8.74541666
Si       6.67991947       8.36852453       3.60555877      -0.80037315      -0.71344512       0.66588234       0.00502254      -0.56805152      -0.20551693      -8.68675319
Si       8.72584432       9.49966814       6.73588503      -0.75155196       1.25790028      -0.35004188      -0.27723665       0.08283493      -0.71802668      -8.75731312
Si       4.90054370       0.49383018       0.36908117       0.64999703      -0.23206504      -0.83455985      -0.26356186       0.33606877      -0.28555289      -8.75668225
Si       6.71202564       1.63565796       3.44800715      -0.95065964       0.60358292       0.01627774      -0.12299147       0.54647285       0.62688871      -8.71294622
Si       8.61680023       2.79141770       6.62480820      -0.55006468       0.09261846       0.44982637      -0.19423511       0.04528750       0.48708661      -8.69849504
Si       6.69768930       3.99619634       0.40183147      -1.42070118      -0.10675279       0.69533802      -0.26358398      -0.52713377       0.10389364      -8.78041888
Si       8.62635730       5.08827167       3.52887208      -0.30930175       0.01052979      -0.81692711       0.14160824      -0.53619288      -0.37846020      -8.70963218
Si      10.63706676       6.06292116       6.66173137      -0.14552606      -0.69033467       0.32774212      -0.29053370       0.01229777       0.19230663      -8.73311531
Si       8.66952530       7.18166729       0.36628681      -0.67050714       0.41814914      -0.38388405      -0.39405876       0.53569481       0.05324441      -8.66360750
Si      10.55571527       8.39159164       3.52778129       0.00392213      -0.15334937       0.59360091       0.19184263      -0.50126803       0.32142646      -8.70649902
Si      12.55770435       9.36791700       6.65597324       0.21644634      -0.78356761      -0.39970549      -0.19075230       0.19324255      -0.13579812      -8.72751200
Si       8.66671966       0.60989392       0.41324421       0.20318635       0.30051131       0.16319362       0.06387663      -0.17851994       0.01551283      -8.72551593
Si      10.56132484       1.66603269       3.55188538       0.51356782       0.20162628      -0.07670280       0.12789594       0.28420107      -0.32832296      -8.75136789
Si      12.53698088       2.72389952       6.67039824       0.20379958      -0.91364655      -0.15696967       0.04437171      -0.04285878      -0.01375186      -8.77531619
Si      10.59252802       3.84533482       0.34414826      -0.39376499       0.03229270       0.47131284      -0.08493740       0.17782112       0.58620448      -8.76230516
Si      12.55187000       4.96293850       3.53830192      -0.34109656      -0.76856639       0.09259383      -0.55338387       0.01334945      -0.08008993      -8.75989456
Si      14.45018610       6.00426643       6.74055564      -0.14069537      -0.46286373       0.48631538      -0.21359318       0.53063550      -0.14431140      -8.69252634
Si      12.54544310       7.12731277       0.39991962      -0.43077079      -0.12074529       0.06390018      -0.43865906       0.49885031       0.09264655      -8.73666645
Si      14.37223912       8.31238922       3.52904587       0.47111643       0.06832759      -0.02499857       0.36547617       0.00699074       0.07691393      -8.75431382
Si      16.32108439       9.50984909       6.64552636      -0.74358341       0.34784384      -0.06814372      -0.00291992      -0.47298955       0.11182725      -8.76294811
P        0.98754630       0.53920869       0.45618928      -0.45488527       0.22039454       0.02177560      -0.32291779       0.19262506      -0.60600612      -9.85967197
54
Lattice="11.5478352 0.0 0.0 5.773917198490155 10.000722372470358 0.0 5.773916394327279 3.333571176804646 9.428767828939895" Properties=species:S:1:pos:R:3:momenta:R:3:forces:R:3:energies:R:1 spacegroup="_JSON {\"number\": 1, \"setting\": 1}" unit_cell=conventional occupancy="_JSON {\"0\": {\"Si\": 1.0}, \"1\": {\"Si\": 1.0}, \"2\": {\"Si\": 1.0}, \"3\": {\"Si\": 1.0}, \"4\": {\"Si\": 1.0}, \"5\": {\"Si\": 1.0}, \"6\": {\"Si\": 1.0}, \"7\": {\"Si\": 1.0}, \"8\": {\"Si\": 1.0}, \"9\": {\"Si\": 1.0}, \"10\": {\"Si\": 1.0}, \"11\": {\"Si\": 1.0}, \"12\": {\"Si\": 1.0}, \"13\": {\"Si\": 1.0}, \"14\": {\"Si\": 1.0}, \"15\": {\"Si\": 1.0}, \"16\": {\"Si\": 1.0}, \"17\": {\"Si\": 1.0}, \"18\": {\"Si\": 1.0}, \"19\": {\"Si\": 1.0}, \"20\": {\"Si\": 1.0}, \"21\": {\"Si\": 1.0}, \"22\": {\"Si\": 1.0}, \"23\": {\"Si\": 1.0}, \"24\": {\"Si\": 1.0}, \"25\": {\"Si\": 1.0}, \"26\": {\"Si\": 1.0}, \"27\": {\"Si\": 1.0}, \"28\": {\"Si\": 1.0}, \"29\": {\"Si\": 1.0}, \"30\": {\"Si\": 1.0}, \"31\": {\"Si\": 1.0}, \"32\": {\"Si\": 1.0}, \"33\": {\"Si\": 1.0}, \"34\": {\"Si\": 1.0}, \"35\": {\"Si\": 1.0}, \"36\": {\"Si\": 1.0}, \"37\": {\"Si\": 1.0}, \"38\": {\"Si\": 1.0}, \"39\": {\"Si\": 1.0}, \"40\": {\"Si\": 1.0}, \"41\": {\"Si\": 1.0}, \"42\": {\"Si\": 1.0}, \"43\": {\"Si\": 1.0}, \"44\": {\"Si\": 1.0}, \"45\": {\"Si\": 1.0}, \"46\": {\"Si\": 1.0}, \"47\": {\"Si\": 1.0}, \"48\": {\"Si\": 1.0}, \"49\": {\"Si\": 1.0}, \"50\": {\"Si\": 1.0}, \"51\": {\"Si\": 1.0}, \"52\": {\"Si\": 1.0}, \"53\": {\"P\": 1.0}}" energy=-472.03037419740826 stress="0.00040225701457584075 -0.0021578532952972805 -0.001350403903137127 -0.0021578532952972805 0.0013099266134088904 -0.00014860714789541747 -0.001350403903137127 -0.00014860714789541747 -0.0005804854659751092" free_energy=-472.03037419740826 pbc="T T T"
Si       6.71336256       3.92744722       2.76194593       1.24167751      -0.24555926       0.72497665      -0.25902982      -0.04720794       0.06649126      -8.77192495
Si       8.68354415       5.03376636       5.86394409       0.38610686       0.09223157      -0.18104703      -0.39183963      -0.11238127      -0.07527770      -8.74560092
Si      10.65721003       6.06792296       9.02359466      -0.37125921       0.39862431      -0.57458454      -0.46737661      -0.00840587      -0.01929847      -8.74227062
Si       8.60594634       7.32373795       2.73234616      -0.55651547      -0.12492069      -0.06329866      -0.05100077      -0.37037377       0.01767769      -8.73446632
Si      10.63533612       8.28577768       5.88382549       0.98684379      -0.44600761      -1.00235985      -0.76596968       0.07240864       0.48543529      -8.71084000
Si      12.44100926       9.57255936       8.98798286       0.79114377       1.43714190      -0.10088150       0.34041250      -1.08484921       0.11843310      -8.71801679
Si      10.59006019      10.55574669       2.66644865       0.81837711      -0.28152307       0.35933597      -0.39044544      -0.15386837       0.08086881      -8.75103001
Si      12.44735587      11.60454401       5.82941696       0.38187776      -0.15955673      -0.73785438       0.37031605       0.09218415       0.23164136      -8.70990247
Si      14.46488540      12.77351488       9.00826956       0.39321747      -1.82599670      -1.57201627      -0.15898226       0.14128571       0.11188657      -8.54689800
Si      10.56170471       3.92350506       2.71643406      -0.85066284       0.73215493       0.06913855      -0.13457873      -0.23780063       0.30206553      -8.74178618
Si      12.55578291       4.92041439       5.87493219       0.50065245       0.69116327       0.53055624      -0.24941584      -0.17527795       0.36126567      -8.74585051
Si      14.38426052       6.16683386       9.09013961       0.14232544      -0.62969628      -0.68258183      -0.43300311       0.02582155       0.06065976      -8.72947257
Si      12.41959584       7.18648596       2.76114092      -1.32745159       0.26115778      -0.11038575       0.58061233      -0.08482933       0.12841359      -8.71769294
Si      14.47697567       8.19555605       5.88819086      -0.99011794      -0.09170880       0.59238132      -0.14595922       0.46900380       0.04318843      -8.72947615
Si      16.39602461       9.39542983       8.97881102      -0.40443449       0.43659059       0.55305540      -0.65807384       0.34038091       0.23644669      -8.71736804
Si      14.42580798      10.50963571       2.75366033      -0.60741092      -0.32072803       0.01280970      -0.14088014       0.67520940       0.31477080      -8.72104408
Si      16.33611350      11.72403236       5.89844507      -1.21712470       0.40131462       0.06443367      -0.17339819      -0.22461036      -0.01124209      -8.74983081
Si      18.38866789      12.64463627       9.03698429       0.49863751      -0.53119067       0.43899895      -0.11867715       0.58545408      -0.32245723      -8.71530520
Si      14.45592121       3.92005905       2.71049770      -0.37317922      -0.18149590      -1.29422077      -0.25866387      -0.34829200       0.30273786      -8.76936319
Si      16.40373687       5.01403371       6.00310945      -0.41462726      -0.67407270       1.52013160       0.27499617       0.59903809      -0.69056658      -8.71822702
Si      18.34478828       6.06242041       9.03407071       0.70495201      -0.29689859      -0.53443964      -0.05797160       0.60789456       0.85722142      -8.52729613
Si      16.29036580       7.19601404       2.85300278       0.71798046       1.07565282       0.57598422       0.40208265      -0.22665568      -0.33126287      -8.76186495
Si      18.34066147       8.45211351       6.00510915       0.75138785      -0.19025845      -0.54042051      -0.79932270      -0.02342718      -0.41880704      -8.72711844
Si      20.27094396       9.48794754       9.05253846       0.01147432      -0.79434357       0.54608459      -0.29164153      -0.12338419      -0.09339372      -8.74799731
Si      18.22747785      10.57540112       2.76640145      -0.33070990       0.36368400       0.72080249       0.03695978      -0.64277213      -0.10153123      -8.59005588
Si      20.24719600      11.66426010       5.78947193       0.73803666      -0.10958241      -0.20140953      -0.17149306       0.48792639      -0.02887381      -8.73499686
Si      22.13661216      12.84110199       9.07707259       0.00683171       1.12165535       0.38850831       0.04730100      -0.43624942      -0.33638475      -8.55329805
Si       2.84341858       1.66975102       3.40234595      -0.34781316      -0.40959664      -0.00181185       0.73143037       0.07381581       0.33659751      -8.71118583
Si       4.80992411       2.82661247       6.64548288       0.71976058      -0.51992778      -0.58062737       0.32724721      -0.88204484       0.61442074      -8.71297239
Si       2.99208183       3.92341097       0.40129573       0.99218937      -0.74198639       0.08688868      -0.41433172      -0.59501532      -0.56378899      -8.70119209
Si       4.77091705       4.96405013       3.60377138       0.24039832       0.26796453      -0.21841983       0.41508583       0.34534832       0.40336186      -8.71853717
Si       6.81179376       6.22103786       6.73617071       0.87784430       0.94228111       1.17602631      -0.21385584      -0.84522735      -0.63551410      -8.72992719
Si       4.81304485       7.25587186       0.49890387       1.00636768       0.14260551       0.48213227      -0.01267910       0.64092365      -0.21352507      -8.72991829
Si       6.64476325       8.32101877       3.63029541      -0.39893280      -0.85391174       0.24935686       0.55618692       0.39035678      -0.31350747      -8.70290733
Si       8.69528003       9.55557190       6.69701263      -0.08781077       0.62469209      -0.94376017       0.98907363      -0.88851690       0.00734978      -8.72676534
Si       4.92236483       0.49212783       0.31983467       0.14593454       0.10793824      -0.92270369      -0.40099395       0.10224861       0.18599983      -8.73292975
Si       6.67035938       1.68135268       3.46976293      -0.40724513       0.97795834       0.72092496       0.76657537      -0.09212812       0.25224053      -8.74514827
Si       8.58118280       2.79830694       6.65807861      -0.78072702       0.17170618       0.60579704      -0.08236985       0.05157485      -0.35098359      -8.73626335
Si       6.63038911       3.98129614       0.43304541      -0.81774109      -0.26770767       0.35307646       1.00671733       0.22766870      -0.45111909      -8.70136594
Si       8.61959289       5.07389204       3.47968933       0.12098436      -0.42279528      -0.87668595       0.40205357       0.00064743       0.33499090      -8.74565110
Si      10.62500473       6.03287819       6.68007290      -0.18119761      -0.34305614       0.24331871       0.22451214       0.44403981      -0.30720778      -8.74497167
Si       8.62939178       7.21939325       0.35109898      -0.64588511       0.88798339      -0.12678238       0.43969981       0.00796919       0.32204394      -8.71823590
Si      10.56000888       8.36822286       3.56253853       0.07570984      -0.63834553       0.53985097      -0.13923634      -0.10904883      -0.42600310      -8.76205521
Si      12.56201414       9.34134992       6.63216616      -0.05059095      -0.09561025      -0.44279005      -0.18701760       0.70954506       0.11919244      -8.73692289
Si       8.67688657       0.61645326       0.42186674       0.11838504      -0.08379768       0.15757168      -0.19286400      -0.30334110      -0.01575345      -8.75491174
Si      10.58078565       1.68885593       3.53606737      -0.00473031       0.67650271      -0.47901409      -0.77122286       0.30304345      -0.13979266      -8.73206952
Si      12.55037133       2.68109802       6.66333194       0.30321102      -0.59457987      -0.08024164       0.02618619       0.43954366       0.10995262      -8.73914815
Si      10.57747116       3.85089653       0.38274147      -0.04686520       0.12872861       0.80891062       0.42978895      -0.02345787      -0.16401624      -8.74812255
Si      12.51618068       4.93173874       3.53709778      -0.92171245      -0.26684506      -0.16942788      -0.16334730       0.61047070      -0.19424456      -8.74143653
Si      14.43668125       6.00092841       6.75918525      -0.31677709       0.32832677       0.19447051       0.01404552       0.49526376      -0.25827574      -8.75070195
Si      12.51257734       7.13460462       0.40831283      -0.68417659       0.27737019       0.27807983       0.10248562       0.02388444       0.17195828      -8.76912438
Si      14.39670212       8.31135582       3.53214938       0.19969057      -0.18089294       0.17610117      -0.64764960      -0.27493591       0.19847550      -8.73798604
Si      16.29027261       9.50643485       6.64512971      -0.29536733      -0.49921501       0.03960240       0.52472970      -0.54787294       0.05652988      -8.73001055
P        0.96225610       0.55280391       0.43696036      -0.44093213       0.27637862      -0.77154097       0.33479270      -0.10097701      -0.36949034      -9.84091868
54
Lattice="11.5478352 0.0 0.0 5.773917198490155 10.000722372470358 0.0 5.773916394327279 3.333571176804646 9.428767828939895" Properties=species:S:1:pos:R:3:momenta:R:3:forces:R:3:energies:R:1 spacegroup="_JSON {\"number\": 1, \"setting\": 1}" unit_cell=conventional occupancy="_JSON {\"0\": {\"Si\": 1.0}, \"1\": {\"Si\": 1.0}, \"2\": {\"Si\": 1.0}, \"3\": {\"Si\": 1.0}, \"4\": {\"Si\": 1.0}, \"5\": {\"Si\": 1.0}, \"6\": {\"Si\": 1.0}, \"7\": {\"Si\": 1.0}, \"8\": {\"Si\": 1.0}, \"9\": {\"Si\": 1.0}, \"10\": {\"Si\": 1.0}, \"11\": {\"Si\": 1.0}, \"12\": {\"Si\": 1.0}, \"13\": {\"Si\": 1.0}, \"14\": {\"Si\": 1.0}, \"15\": {\"Si\": 1.0}, \"16\": {\"Si\": 1.0}, \"17\": {\"Si\": 1.0}, \"18\": {\"Si\": 1.0}, \"19\": {\"Si\": 1.0}, \"20\": {\"Si\": 1.0}, \"21\": {\"Si\": 1.0}, \"22\": {\"Si\": 1.0}, \"23\": {\"Si\": 1.0}, \"24\": {\"Si\": 1.0}, \"25\": {\"Si\": 1.0}, \"26\": {\"Si\": 1.0}, \"27\": {\"Si\": 1.0}, \"28\": {\"Si\": 1.0}, \"29\": {\"Si\": 1.0}, \"30\": {\"Si\": 1.0}, \"31\": {\"Si\": 1.0}, \"32\": {\"Si\": 1.0}, \"33\": {\"Si\": 1.0}, \"34\": {\"Si\": 1.0}, \"35\": {\"Si\": 1.0}, \"36\": {\"Si\": 1.0}, \"37\": {\"Si\": 1.0}, \"38\": {\"Si\": 1.0}, \"39\": {\"Si\": 1.0}, \"40\": {\"Si\": 1.0}, \"41\": {\"Si\": 1.0}, \"42\": {\"Si\": 1.0}, \"43\": {\"Si\": 1.0}, \"44\": {\"Si\": 1.0}, \"45\": {\"Si\": 1.0}, \"46\": {\"Si\": 1.0}, \"47\": {\"Si\": 1.0}, \"48\": {\"Si\": 1.0}, \"49\": {\"Si\": 1.0}, \"50\": {\"Si\": 1.0}, \"51\": {\"Si\": 1.0}, \"52\": {\"Si\": 1.0}, \"53\": {\"P\": 1.0}}" energy=-471.72225368747604 stress="-0.0003180763827085176 -0.0009675980546651801 -0.0005951126552178901 -0.0009675980546651801 0.0007724849658794214 -0.00012252081826335287 -0.0005951126552178901 -0.00012252081826335287 -0.0012775173300946794" free_energy=-471.72225368747604 pbc="T T T"
Si       6.75725297       3.91657297       2.79549811       0.27425305      -0.08797146       0.42366546      -0.86660440       0.26959732      -0.43882593      -8.76673281
Si       8.68608703       5.03441154       5.85162604      -0.28527255      -0.05298499      -0.27792348      -0.37116109      -0.05262394      -0.03226360      -8.71529579
Si      10.62617052       6.08393276       8.99550706      -0.62987413       0.13975629      -0.45373730       0.24666194      -0.29110615       0.14758102      -8.75997289
Si       8.57791066       7.30490100       2.72981583      -0.43292166      -0.54412507      -0.02649473       0.25958663      -0.17036464       0.04458455      -8.71258166
Si      10.65251888       8.26584914       5.85852664      -0.35343859      -0.28289857       0.12288506      -0.83950214       0.19505981       0.79801044      -8.71381254
Si      12.48772330       9.59806937       8.98567617       0.83390596      -0.52796280       0.00120483      -0.26789176      -1.31561445       0.07666612      -8.69904945
Si      10.61346190      10.53654135       2.68378127       0.05114410      -0.40347150       0.23110767      -0.48093354       0.03110728      -0.20087813      -8.71923979
Si      12.48002799      11.59935286       5.80606090       0.81338505      -0.04597711      -0.04939530       0.15813322       0.06436663       0.62084640      -8.72947720
Si      14.47879519      12.69986464       8.94108027       0.12932185      -0.68996211      -0.81252618      -0.19709105       1.26984229       0.79948174      -8.50770802
Si      10.51833106       3.94765051       2.72968424      -0.65662221       0.12093702       0.36143619       0.43726405      -0.49430571       0.00692401      -8.77381719
Si      12.56873761       4.94218589       5.91067247      -0.04981203       0.03619084       0.68919800      -0.40865772      -0.57137083      -0.19780789      -8.73212529
Si      14.37518172       6.13985272       9.06479006      -0.42646839      -0.32696148      -0.15909158      -0.18782986       0.30692307       0.53971354      -8.72355778
Si      12.38138905       7.19248949       2.76051375      -0.01462395      -0.08763312       0.07934810       1.01420387      -0.29222689       0.10268634      -8.73191464
Si      14.42692822       8.20861915       5.91620626      -0.78680055       0.58056984       0.39197786       0.36772764       0.42604514      -0.28343852      -8.74845033
Si      16.35065646       9.42779197       9.01330116      -1.23289724       0.70852783       0.69088920      -0.27686594      -0.01665434      -0.05028086      -8.72028021
Si      14.39117428      10.52034610       2.76756721      -0.65768169       0.68188492       0.50800527       0.08250052       0.47871636       0.26841934      -8.71181243
Si      16.27376819      11.73275031       5.90050821      -0.99085121      -0.13212675      -0.00234905       0.49095170      -0.46575157      -0.07551169      -8.70961476
Si      18.40857853      12.64217338       9.04339045       0.21235729       0.43962412      -0.23507102      -0.30819769       0.58147872      -0.47372920      -8.72780397
Si      14.43018496       3.89979654       2.66619619      -0.51578826      -0.51039632      -0.22238316       0.10481681      -0.02941726       0.96321227      -8.73781756
Si      16.39691685       5.00588754       6.04959310       0.20395785       0.33308041       0.18682751       0.46654308       0.48566202      -0.94629753      -8.68361690
Si      18.37712877       6.07269287       9.04670156       0.46924688       0.68108009       1.02522308      -0.29841929       0.56501298       0.86645763      -8.55170766
Si      16.33487055       7.23520991       2.86731118       0.78655572       0.31398616      -0.06658205      -0.34074617      -0.63076603      -0.46267403      -8.77871535
Si      18.34758239       8.44354505       5.96578381      -0.42575953      -0.11849498      -0.83063368      -0.55217772       0.04709432       0.09078642      -8.74841789
Si      20.26307552       9.44779111       9.07424040      -0.24493506      -0.62612713       0.22670485      -0.02972683       0.31248820      -0.31062925      -8.69622556
Si      18.21209500      10.56743744       2.79458616      -0.23856333      -0.62303907       0.26540283       0.10657050      -0.45856699      -0.45043744      -8.54822070
Si      20.27636887      11.67880808       5.77702776       0.33753405       0.60984545      -0.23766672      -0.31388509       0.26724127       0.11101578      -8.75714925
Si      22.13921333      12.87517951       9.08100123       0.09729969       0.07361329      -0.27474315       0.06610655      -0.83207469      -0.46825921      -8.57640766
Si       2.85625267       1.65336258       3.41305320       0.80839808      -0.19375589       0.35324462       0.60724604       0.15994677       0.10929999      -8.73361148
Si       4.85672749       2.76941109       6.64338287       0.97374875      -1.46772692       0.52448996      -0.03928660      -0.12349775       0.70056474      -8.70317229
Si       3.02067979       3.86683841       0.38131877      -0.02186128      -1.25657270      -0.80459419      -0.86745482       0.03973877      -0.37199224      -8.74622629
Si       4.79594276       4.98859327       3.60969544       0.61479029       0.59038753       0.43164556       0.02444265       0.03858999       0.35312854      -8.68420698
Si       6.84509951       6.23349841       6.76391830       0.30527048      -0.48029761      -0.20383833      -0.55498297      -0.88709418      -0.95268060      -8.70898101
Si       4.85786571       7.28845576       0.51338775       0.58894752       1.02800463       0.01643448      -0.45915801       0.34668821      -0.41779076      -8.70954621
Si       6.64972659       8.29967808       3.63218506       0.62230042       0.15327138      -0.16316266       0.66467304       0.81895807      -0.25974429      -8.73299096
Si       8.72988267       9.54966994       6.65533365       1.31415874      -0.85238637      -0.53853777       0.60807333      -0.87672450       0.43571312      -8.70910693
Si       4.91471711       0.49874184       0.28285134      -0.41930032       0.09782949      -0.41691857      -0.32109937      -0.07855997       0.46326706      -8.69489232
Si       6.67974654       1.72072243       3.50953567       0.70828879       0.37221588       0.63563577       0.53534364      -0.67275509      -0.36951614      -8.75434387
Si       8.53988222       2.80916680       6.66633940      -0.71485502       0.23755861      -0.42852545       0.23881119       0.03057212      -0.86350756      -8.74278924
Si       6.63149710       3.97810827       0.43402033       0.86362748       0.13247229      -0.29308203       1.00560941       0.17687723      -0.35859624      -8.66145087
Si       8.63951652       5.05848093       3.45398179       0.54317965      -0.06200058       0.01049136       0.02130519       0.39391353       0.77168480      -8.74719056
Si      10.62640770       6.03354161       6.67734423       0.23184116       0.35619385      -0.38132727       0.21048227       0.38700192      -0.43037589      -8.74874049
Si       8.61838102       7.25731473       0.36018917       0.27227526       0.39535105       0.51328027       0.60378349      -0.61355823       0.45941946      -8.74892415
Si      10.55387479       8.33543163       3.56824303      -0.37633944      -0.53248151      -0.38162204      -0.38572728       0.20171149      -0.64323028      -8.75843578
Si      12.55101234       9.36552747       6.61702126      -0.39136433       0.99605300      -0.07608168      -0.26423368       0.60399784       0.34662385      -8.73646438
Si       8.67345725       0.60173566       0.42979290      -0.26729976      -0.42879241       0.15148283      -0.25518351      -0.10899595       0.01007392      -8.76956916
Si      10.54783885       1.73204192       3.51039084      -1.21971278       0.84633757      -0.40156399      -0.63202724      -0.18951943       0.24796665      -8.72920007
Si      12.56400487       2.66883155       6.66350217       0.14141684       0.13794491       0.07403267      -0.26395069       0.47603031       0.05694549      -8.71840493
Si      10.58963887       3.85608749       0.41185112       0.42556278       0.06988525       0.20689699       0.09536235      -0.02024307      -0.52677899      -8.70414734
Si      12.46792554       4.94267636       3.52399302      -0.79122212       0.65412773      -0.24411635       0.33782819       0.47843135       0.14112803      -8.71561838
Si      14.42407671       6.03435537       6.75868747      -0.10737599       0.87016139      -0.21441890       0.23009979       0.18509430      -0.25395953      -8.78061969
Si      12.48502551       7.14592377       0.42794981      -0.30299680       0.10451208       0.40847135       0.35249241      -0.17057429      -0.07736487      -8.77281727
Si      14.37936196       8.29229620       3.54925178      -0.82616879      -0.49308076       0.45718627      -0.50332542      -0.06320633       0.12100435      -8.71346638
Si      16.29494726       9.46455303       6.64968315       0.42706454      -0.95897406       0.14339943       0.33514981       0.00259770       0.09266983      -8.72590312
P        0.95789346       0.56065736       0.39315100       0.33097478       0.02479834      -0.93418083       0.61435056      -0.21521270       0.17069523      -9.78990825
54
Lattice="11.5478352 0.0 0.0 5.773917198490155 10.000722372470358 0.0 5.773916394327279 3.333571176804646 9.428767828939895" Properties=species:S:1:pos:R:3:momenta:R:3:forces:R:3:energies:R:1 spacegroup="_JSON {\"number\": 1, \"setting\": 1}" unit_cell=conventional occupancy="_JSON {\"0\": {\"Si\": 1.0}, \"1\": {\"Si\": 1.0}, \"2\": {\"Si\": 1.0}, \"3\": {\"Si\": 1.0}, \"4\": {\"Si\": 1.0}, \"5\": {\"Si\": 1.0}, \"6\": {\"Si\": 1.0}, \"7\": {\"Si\": 1.0}, \"8\": {\"Si\": 1.0}, \"9\": {\"Si\": 1.0}, \"10\": {\"Si\": 1.0}, \"11\": {\"Si\": 1.0}, \"12\": {\"Si\": 1.0}, \"13\": {\"Si\": 1.0}, \"14\": {\"Si\": 1.0}, \"15\": {\"Si\": 1.0}, \"16\": {\"Si\": 1.0}, \"17\": {\"Si\": 1.0}, \"18\": {\"Si\": 1.0}, \"19\": {\"Si\": 1.0}, \"20\": {\"Si\": 1.0}, \"21\": {\"Si\": 1.0}, \"22\": {\"Si\": 1.0}, \"23\": {\"Si\": 1.0}, \"24\": {\"Si\": 1.0}, \"25\": {\"Si\": 1.0}, \"26\": {\"Si\": 1.0}, \"27\": {\"Si\": 1.0}, \"28\": {\"Si\": 1.0}, \"29\": {\"Si\": 1.0}, \"30\": {\"Si\": 1.0}, \"31\": {\"Si\": 1.0}, \"32\": {\"Si\": 1.0}, \"33\": {\"Si\": 1.0}, \"34\": {\"Si\": 1.0}, \"35\": {\"Si\": 1.0}, \"36\": {\"Si\": 1.0}, \"37\": {\"Si\": 1.0}, \"38\": {\"Si\": 1.0}, \"39\": {\"Si\": 1.0}, \"40\": {\"Si\": 1.0}, \"41\": {\"Si\": 1.0}, \"42\": {\"Si\": 1.0}, \"43\": {\"Si\": 1.0}, \"44\": {\"Si\": 1.0}, \"45\": {\"Si\": 1.0}, \"46\": {\"Si\": 1.0}, \"47\": {\"Si\": 1.0}, \"48\": {\"Si\": 1.0}, \"49\": {\"Si\": 1.0}, \"50\": {\"Si\": 1.0}, \"51\": {\"Si\": 1.0}, \"52\": {\"Si\": 1.0}, \"53\": {\"P\": 1.0}}" energy=-471.9293674905256 stress="-0.000579817906152385 0.0016651771054333408 0.0012229242637069755 0.0016651771054333408 -0.000748004893265298 1.08166176760721e-05 0.0012229242637069755 1.08166176760721e-05 0.0009177083655102444" free_energy=-471.9293674905256 pbc="T T T"
Si       6.74240798       3.92455807       2.79920201      -0.70471828       0.39791833      -0.28181917      -0.33210547       0.27799525      -0.43117308      -8.74978599
Si       8.66352933       5.03172209       5.83712426      -0.42796468      -0.00566298      -0.23731418       0.19866922       0.11850778       0.12167549      -8.72878747
Si      10.61243209       6.08037965       8.97682923       0.24061562      -0.23764997      -0.26726404       0.74935980      -0.13617194       0.11904216      -8.74255128
Si       8.56874492       7.27265609       2.73117824       0.13143034      -0.62407884       0.10225717       0.43380453       0.07301414       0.13559366      -8.73133222
Si      10.61206883       8.26085977       5.88520287      -0.92166617       0.12219481       0.62413573       0.21378479       0.29690177      -0.25257306      -8.75442612
Si      12.51821974       9.53093693       8.99099737       0.29933371      -1.73353876       0.24507484      -0.38645712      -0.13177513       0.23397054      -8.72438165
Si      10.60404035      10.51897685       2.68750074      -0.26902044      -0.23066997      -0.09265889       0.07056813       0.16762317      -0.21005274      -8.71839762
Si      12.52351935      11.59996969       5.82475326       0.71471376       0.09410786       0.65262141      -0.35085704       0.16012301       0.18797428      -8.74819034
Si      14.47664698      12.71330430       8.92827337      -0.24464316       1.11329502       0.26073336      -0.31523652       0.90157201       0.54451519      -8.54238901
Si      10.50549106       3.93858540       2.74328725       0.21314559      -0.35632830       0.06706077       0.60044810      -0.06372831      -0.33278244      -8.77377864
Si      12.55396308       4.92626376       5.93298653      -0.41605221      -0.50569168       0.05843400      -0.02780714      -0.02811985      -0.59440758      -8.73841081
Si      14.35477549       6.13254060       9.07476072      -0.15072041      -0.01862158       0.43685799       0.59340802       0.04435311       0.13664716      -8.73934400
Si      12.41313506       7.18028026       2.76727806       1.02871560      -0.27468683       0.14133469       0.23755506       0.10486307      -0.04923638      -8.78564909
Si      14.40040431       8.25480331       5.92533171      -0.24240533       1.15008670      -0.03007320       0.29749803       0.29065953      -0.22343891      -8.76653279
Si      16.28780343       9.45883889       9.04492368      -0.88461506       0.36185469       0.45667672       0.80390614      -0.45382137      -0.27762508      -8.72544120
Si      14.36222387      10.56286903       2.79944577      -0.39173092       0.67081954       0.57584083       0.29481210      -0.57110345      -0.24809898      -8.72660893
Si      16.24583278      11.70764972       5.89723567       0.00088590      -0.80003150      -0.11888552       0.77484065      -0.35607050      -0.05815560      -8.66812163
Si      18.40429717      12.68066586       9.01709739      -0.44127995       0.86868636      -0.65238508      -0.55148699      -0.04251397      -0.01970241      -8.74542616
Si      14.41151841       3.87742751       2.68801495      -0.12218227      -0.23491020       0.93381988       0.38885050       0.38780839       0.48845524      -8.68905566
Si      16.42237030       5.03083110       6.02847469       0.65774997       0.39603324      -0.84805933       0.02618712      -0.38139502      -0.36812457      -8.70955900
Si      18.38501396       6.12153431       9.11598422      -0.28826659       0.95809316       1.21525447      -0.74820820      -0.30935904      -0.68758644      -8.57585942
Si      16.35815368       7.23298878       2.84914887       0.05463717      -0.24614555      -0.54161721      -0.52303998      -0.03691345      -0.13086079      -8.75655175
Si      18.31674521       8.43578718       5.93188977      -0.49009158      -0.25739946      -0.36426213       0.45318378      -0.25769423       0.46290119      -8.73202000
Si      20.25231297       9.42848877       9.07333665      -0.11061019      -0.09806800      -0.26703288       0.18344820       0.35609161      -0.32462586      -8.66037980
Si      18.20517691      10.52957478       2.79031385       0.00756420      -0.54594072      -0.43517309       0.23049883       0.61010299      -0.46926805      -8.49460291
Si      20.28411567      11.71022603       5.77554662       0.01129856       0.37131334       0.31007176      -0.10701024      -0.57011059       0.59869976      -8.73751401
Si      22.14685100      12.85217906       9.05253091       0.19190557      -0.78815643      -0.69246394       0.05674967      -0.18800090       0.00474162      -8.62063711
Si       2.91115886       1.64778362       3.43283235       1.04397042      -0.04812601       0.35602841      -0.33480494       0.04815248      -0.06366238      -8.76552198
Si       4.90091915       2.70327304       6.69003039       0.60232138      -0.77111558       1.04792629      -0.46044915       0.97490951      -0.11905109      -8.68898836
Si       2.99014546       3.81410089       0.33882557      -0.96249880      -0.52674859      -0.52331925      -0.14659178       0.91327715       0.75020306      -8.76536049
Si       4.82309555       5.01654232       3.64002075       0.30395176       0.39083995       0.57971763      -0.43014904      -0.28865223      -0.22095824      -8.71307429
Si       6.83750315       6.18305206       6.72712993      -0.60843358      -1.22210587      -0.94613029      -0.58465667      -0.01240798       0.03354078      -8.72272315
Si       4.87168547       7.34287305       0.49730011      -0.03111848       0.74990837      -0.61785206      -0.33722746      -0.81118044      -0.35803394      -8.69853651
Si       6.69968152       8.33427880       3.61306901       1.07017120       1.00184073      -0.56892010      -0.16038633       0.16897049      -0.25563446      -8.77878579
Si       8.80438549       9.48308337       6.64457325       1.11585762      -1.39500293       0.14786200      -0.99465433       0.26794772       0.50872184      -8.71059869
Si       4.88337838       0.50142597       0.27940702      -0.69805224       0.03354946       0.28400072      -0.01046850       0.03465026       0.44765502      -8.70885073
Si       6.72581032       1.71451732       3.52539302       0.78176733      -0.53563131      -0.04585963      -0.50987487      -0.37396069      -0.42125804      -8.74742047
Si       8.51852607       2.82243110       6.61715985       0.05556821       0.25573419      -1.23655895       0.83181632      -0.02071609      -0.04234175      -8.74022384
Si       6.70330728       3.98564858       0.40918663       1.57960527       0.02098736      -0.54319689      -0.15603964      -0.34604463       0.08211757      -8.71964427
Si       8.66005287       5.06787699       3.48240005       0.09345536       0.31856485       0.97618428      -0.53395193      -0.00620761       0.37361492      -8.74900399
Si      10.64126802       6.06088707       6.64513697       0.22060652       0.54243395      -0.72833742      -0.22884750      -0.17490917       0.03344726      -8.74680568
Si       8.64659853       7.25511514       0.40042810       0.57095297      -0.39431288       0.88719057      -0.29885162      -0.27848748      -0.06641000      -8.76575276
Si      10.52263340       8.31491377       3.53015113      -0.69652003      -0.26812860      -0.90133260       0.08178183       0.13633143       0.01905619      -8.73182882
Si      12.52086543       9.43135871       6.62716996      -0.72107060       1.27161349       0.46855121      -0.11303287      -0.34620728       0.36194089      -8.73254568
Si       8.65303430       0.57883367       0.43858143      -0.42183163      -0.37169551       0.18635312       0.09369100       0.17237679       0.01710918      -8.75495165
Si      10.47122272       1.76032210       3.50231867      -1.42669535       0.07467837       0.14533248       0.44817941      -0.78416789       0.43860862      -8.72937499
Si      12.55854366       2.69040363       6.66676020      -0.38181882       0.57719720      -0.01316068      -0.38018908       0.04722250      -0.18840915      -8.74047094
Si      10.60786093       3.86094474       0.40565088       0.11619066       0.15726749      -0.34662117      -0.49734915       0.13907483      -0.14748476      -8.68621647
Si      12.44318200       4.98586804       3.52129076      -0.09240921       0.76605058       0.21803989       0.56587488      -0.40489649       0.43263952      -8.70984226
Si      14.42675794       6.08194964       6.74003111       0.18134715       0.83269854      -0.43862229       0.12032847      -0.25316725      -0.02560959      -8.76967696
Si      12.48213470       7.14709270       0.44056098       0.16992012      -0.00176829      -0.03856937       0.26044970       0.05356012      -0.49867494      -8.74983245
Si      14.32838008       8.26987436       3.57503450      -0.85235888      -0.23358015       0.46350136       0.53249652       0.43486154      -0.12416374      -8.69856970
Si      16.32311410       9.42204194       6.66190656       0.49723694      -0.51859380       0.34324332      -0.24443135       0.55641719       0.16709565      -8.74050488
P        0.99287525       0.55463432       0.35919663       1.04385598      -0.25337728      -0.40661552       0.22197412      -0.10958489       0.50943724      -9.77852707
54
Lattice="11.5478352 0.0 0.0 5.773917198490155 10.000722372470358 0.0 5.773916394327279 3.333571176804646 9.428767828939895" Properties=species:S:1:pos:R:3:momenta:R:3:forces:R:3:energies:R:1 spacegroup="_JSON {\"number\": 1, \"setting\": 1}" unit_cell=conventional occupancy="_JSON {\"0\": {\"Si\": 1.0}, \"1\": {\"Si\": 1.0}, \"2\": {\"Si\": 1.0}, \"3\": {\"Si\": 1.0}, \"4\": {\"Si\": 1.0}, \"5\": {\"Si\": 1.0}, \"6\": {\"Si\": 1.0}, \"7\": {\"Si\": 1.0}, \"8\": {\"Si\": 1.0}, \"9\": {\"Si\": 1.0}, \"10\": {\"Si\": 1.0}, \"11\": {\"Si\": 1.0}, \"12\": {\"Si\": 1.0}, \"13\": {\"Si\": 1.0}, \"14\": {\"Si\": 1.0}, \"15\": {\"Si\": 1.0}, \"16\": {\"Si\": 1.0}, \"17\": {\"Si\": 1.0}, \"18\": {\"Si\": 1.0}, \"19\": {\"Si\": 1.0}, \"20\": {\"Si\": 1.0}, \"21\": {\"Si\": 1.0}, \"22\": {\"Si\": 1.0}, \"23\": {\"Si\": 1.0}, \"24\": {\"Si\": 1.0}, \"25\": {\"Si\": 1.0}, \"26\": {\"Si\": 1.0}, \"27\": {\"Si\": 1.0}, \"28\": {\"Si\": 1.0}, \"29\": {\"Si\": 1.0}, \"30\": {\"Si\": 1.0}, \"31\": {\"Si\": 1.0}, \"32\": {\"Si\": 1.0}, \"33\": {\"Si\": 1.0}, \"34\": {\"Si\": 1.0}, \"35\": {\"Si\": 1.0}, \"36\": {\"Si\": 1.0}, \"37\": {\"Si\": 1.0}, \"38\": {\"Si\": 1.0}, \"39\": {\"Si\": 1.0}, \"40\": {\"Si\": 1.0}, \"41\": {\"Si\": 1.0}, \"42\": {\"Si\": 1.0}, \"43\": {\"Si\": 1.0}, \"44\": {\"Si\": 1.0}, \"45\": {\"Si\": 1.0}, \"46\": {\"Si\": 1.0}, \"47\": {\"Si\": 1.0}, \"48\": {\"Si\": 1.0}, \"49\": {\"Si\": 1.0}, \"50\": {\"Si\": 1.0}, \"51\": {\"Si\": 1.0}, \"52\": {\"Si\": 1.0}, \"53\": {\"P\": 1.0}}" energy=-471.81526053921453 stress="-0.0007549077425024398 0.0014354396618759034 0.0010588668466283537 0.0014354396618759034 -0.0018805028843272037 0.00024947527468099814 0.0010588668466283537 0.00024947527468099814 0.0004681673881246043" free_energy=-471.81526053921453 pbc="T T T"
Si       6.70147475       3.95078857       2.77141244      -0.69743339       0.47282195      -0.69014607       0.28774360      -0.22652667      -0.07892806      -8.72106334
Si       8.65279341       5.03755229       5.83319647       0.05740600       0.24554716       0.17239501       0.34335932       0.17904675       0.44060843      -8.74744715
Si      10.64861006       6.06788879       8.96814131       0.97481905      -0.13494484      -0.03785360       0.10477151       0.26349993       0.21503234      -8.71973041
Si       8.58949273       7.24441642       2.74268891       0.57202953      -0.42445095       0.34029006       0.08860183       0.18160158       0.14114827      -8.76118067
Si      10.58457038       8.27675954       5.89614286       0.03052549       0.44681163      -0.36479136       0.79042216       0.15825913      -0.84324334      -8.73288032
Si      12.52075459       9.45105392       9.01275947      -0.16777235      -1.03654397       0.56533986      -0.24214817       0.92390000       0.15991989      -8.72120352
Si      10.59713809      10.51252113       2.67635794       0.05031666      -0.03555721      -0.27597133       0.23541675       0.09040465       0.01842139      -8.74339352
Si      12.54245285      11.61361309       5.85809653      -0.05557508       0.46581968       0.48252109      -0.57765441       0.30310109      -0.33737015      -8.74470664
Si      14.45210885      12.79201434       8.95586175      -0.63832245       1.57535263       0.64510896      -0.09564559      -0.32903553      -0.03517071      -8.56863149
Si      10.53410567       3.92299757       2.73623161       0.73461411      -0.16797329      -0.24686240       0.03780215       0.20446512       0.01765461      -8.75129105
Si      12.53576172       4.90842306       5.91357253      -0.20423281      -0.00758970      -0.73923888       0.25830316       0.60834744      -0.33996221      -8.75193543
Si      14.37657783       6.12821597       9.09467693       1.04252904      -0.22692836       0.17388663       0.79474651      -0.26311839      -0.43866553      -8.75077797
Si      12.46456157       7.17420519       2.76979276       0.73749445       0.09081116      -0.09756476      -0.51176394       0.28547862      -0.24256427      -8.77950081
Si      14.39533892       8.32296296       5.91912459      -0.01793259       1.34931332      -0.11899873       0.03387477      -0.10538067       0.11886716      -8.76693533
Si      16.28027567       9.45883445       9.05700184       0.66129102      -0.33750843       0.00072729       1.02208048      -0.34027330      -0.27909162      -8.73943414
Si      14.35434869      10.56575207       2.81385404       0.09216351      -0.67996201      -0.11562728       0.28284598      -0.99613192      -0.57861968      -8.73987239
Si      16.27432290      11.65629816       5.89020893       1.02850040      -1.04825627      -0.11436324       0.53588620       0.07867619       0.07529120      -8.69626966
Si      18.35952168      12.71925728       8.98809171      -1.23112840       0.52347336      -0.35327184      -0.39829269      -0.35147534       0.36470856      -8.74248223
Si      14.42040941       3.88195875       2.74848157       0.44648176       0.40789022       1.22773737       0.32181408       0.37341829      -0.08828824      -8.68928980
Si      16.44789394       5.03064801       5.97802267       0.11274451      -0.47865223      -0.92688469      -0.74896307      -0.65937275       0.21245263      -8.72349514
Si      18.33971963       6.15012032       9.14054095      -1.36477068       0.00552074      -0.43365284      -0.43052503      -0.77979032      -1.26865350      -8.54015718
Si      16.34435585       7.22643912       2.81961614      -0.49588389       0.11125841      -0.51721452      -0.18133740       0.40523599       0.13333009      -8.71206332
Si      18.31327285       8.40964770       5.92899075       0.35911497      -0.75136836       0.19317656       0.44324682      -0.29355205       0.22103652      -8.71307479
Si      20.25367477       9.43519215       9.04890540       0.14394578       0.30845377      -0.59645681       0.10479210       0.16970811      -0.04673394      -8.69909122
Si      18.21542291      10.53376138       2.75089426       0.39142294       0.81126688      -1.00322502       0.25603754       0.99387894      -0.19482752      -8.47987874
Si      20.28224130      11.70284266       5.81667062      -0.07741206      -0.69455512       1.23944461      -0.08658373      -0.71739126       0.51062006      -8.70020156
Si      22.15905977      12.81398800       9.02504616       0.26934489      -0.49850539      -0.18840598       0.03811867       0.45976010       0.64215889      -8.58772874
Si       2.94517055       1.64683265       3.45057660       0.14684975       0.01453989       0.36282333      -0.73564957       0.05463486       0.09747773      -8.75097088
Si       4.91276984       2.70453794       6.72839124      -0.16808744       0.84112975       0.20625580      -0.52063091       1.03801898      -0.90631906      -8.69373488
Si       2.94871722       3.82430430       0.34651800      -0.39534229       0.88305339       0.85384855       0.69049513       0.76139432       0.87767310      -8.74695352
Si       4.81980478       5.02531589       3.65392696      -0.45025535      -0.04060173      -0.19019007      -0.49406177      -0.21836428      -0.75285459      -8.75777346
Si       6.78882520       6.12874988       6.68907360      -1.08886369      -0.68005808      -0.34229226       0.03675751       0.63349316       0.66366204      -8.70485024
Si       4.85971240       7.33931181       0.45500978      -0.37628430      -1.03040025      -0.90235926      -0.13612073      -1.33258868       0.00607415      -8.70351408
Si       6.74109366       8.38252992       3.57548497       0.37897991       0.65121207      -0.80296068      -0.66248057      -0.54820249      -0.01743121      -8.76449353
Si       8.80972062       9.43210657       6.67210125      -1.06583063      -0.39226981       0.85735158      -1.53292310       0.85130747       0.30224703      -8.71933329
Si       4.85026995       0.50754381       0.30938235      -0.49446234       0.25518884       0.79601048       0.25576499       0.24623314       0.18787063      -8.74724551
Si       6.73680178       1.68188820       3.51188361      -0.48821075      -0.52463275      -0.36490053      -0.96288313       0.33373847      -0.01517559      -8.71938028
Si       8.55813388       2.83362143       6.56299378       1.47621462       0.12801062      -0.61467467       0.88176553      -0.18856211       0.78788266      -8.71973448
Si       6.76765051       3.96781734       0.38970072       0.68005208      -0.78073335      -0.11076202      -0.89345036      -0.63993025       0.41305902      -8.75089982
Si       8.64541180       5.07595566       3.53713391      -0.58585897      -0.15658654       0.87907967      -0.27370627      -0.56356329      -0.52403505      -8.74301679
Si      10.64151034       6.07786912       6.61382154      -0.22547072       0.05452972      -0.37259644      -0.27722299      -0.35972187       0.39372341      -8.73616251
Si       8.65603362       7.23267000       0.43631968      -0.31103357      -0.30655043       0.33217543      -0.66863967       0.32311428      -0.64007434      -8.72671309
Si      10.49842024       8.30534244       3.49095359      -0.05052569      -0.09463240      -0.47164539       0.75677507       0.13998995       0.49001298      -8.69764253
Si      12.48226450       9.47457029       6.66463714      -0.66883757       0.23399847       0.91242918       0.20787686      -0.87579873       0.16033184      -8.72502419
Si       8.63846171       0.56633926       0.44772315      -0.07336067      -0.12241562       0.12060663       0.32565489       0.09928971      -0.14632776      -8.72237392
Si      10.42544191       1.73448986       3.52453773      -0.12277518      -0.98814998       0.60948945       1.19187913      -0.49597755       0.06412167      -8.71830689
Si      12.52617187       2.71618998       6.65645235      -0.77220699       0.29908923      -0.40359753      -0.05519458      -0.35895498      -0.27092389      -8.76095259
Si      10.59158858       3.87549343       0.38771386      -0.74255247       0.39302663      -0.23050054      -0.49782207       0.11570547       0.27198040      -8.72391760
Si      12.45974273       5.00232224       3.54833595       0.69258794      -0.22833749       0.73664253       0.42779477      -0.73234443       0.11533289      -8.73711701
Si      14.43889228       6.11302935       6.71786898       0.24637477       0.31536250      -0.38183202      -0.01856628      -0.39111833       0.07109536      -8.71429358
Si      12.49950660       7.15193443       0.41841089       0.46315928       0.23095673      -0.77661499       0.13923097       0.22573960      -0.37074491      -8.72937148
Si      14.31385681       8.27856741       3.59227879       0.42407273       0.60468072       0.14825734       0.99552787       0.56689981      -0.30028056      -8.70862172
Si      16.33713938       9.41719722       6.68621372       0.03784714       0.29967528       0.55724173      -0.23751502       0.40688213       0.05840577      -8.75886531
P        1.04153584       0.54258117       0.35844636       0.77954001      -0.15063020       0.37261662      -0.64960531       0.29195189       0.48408505      -9.81028076
54
Lattice="11.5478352 0.0 0.0 5.773917198490155 10.000722372470358 0.0 5.773916394327279 3.333571176804646 9.428767828939895" Properties=species:S:1:pos:R:3:momenta:R:3:forces:R:3:energies:R:1 spacegroup="_JSON {\"number\": 1, \"setting\": 1}" unit_cell=conventional occupancy="_JSON {\"0\": {\"Si\": 1.0}, \"1\": {\"Si\": 1.0}, \"2\": {\"Si\": 1.0}, \"3\": {\"Si\": 1.0}, \"4\": {\"Si\": 1.0}, \"5\": {\"Si\": 1.0}, \"6\": {\"Si\": 1.0}, \"7\": {\"Si\": 1.0}, \"8\": {\"Si\": 1.0}, \"9\": {\"Si\": 1.0}, \"10\": {\"Si\": 1.0}, \"11\": {\"Si\": 1.0}, \"12\": {\"Si\": 1.0}, \"13\": {\"Si\": 1.0}, \"14\": {\"Si\": 1.0}, \"15\": {\"Si\": 1.0}, \"16\": {\"Si\": 1.0}, \"17\": {\"Si\": 1.0}, \"18\": {\"Si\": 1.0}, \"19\": {\"Si\": 1.0}, \"20\": {\"Si\": 1.0}, \"21\": {\"Si\": 1.0}, \"22\": {\"Si\": 1.0}, \"23\": {\"Si\": 1.0}, \"24\": {\"Si\": 1.0}, \"25\": {\"Si\": 1.0}, \"26\": {\"Si\": 1.0}, \"27\": {\"Si\": 1.0}, \"28\": {\"Si\": 1.0}, \"29\": {\"Si\": 1.0}, \"30\": {\"Si\": 1.0}, \"31\": {\"Si\": 1.0}, \"32\": {\"Si\": 1.0}, \"33\": {\"Si\": 1.0}, \"34\": {\"Si\": 1.0}, \"35\": {\"Si\": 1.0}, \"36\": {\"Si\": 1.0}, \"37\": {\"Si\": 1.0}, \"38\": {\"Si\": 1.0}, \"39\": {\"Si\": 1.0}, \"40\": {\"Si\": 1.0}, \"41\": {\"Si\": 1.0}, \"42\": {\"Si\": 1.0}, \"43\": {\"Si\": 1.0}, \"44\": {\"Si\": 1.0}, \"45\": {\"Si\": 1.0}, \"46\": {\"Si\": 1.0}, \"47\": {\"Si\": 1.0}, \"48\": {\"Si\": 1.0}, \"49\": {\"Si\": 1.0}, \"50\": {\"Si\": 1.0}, \"51\": {\"Si\": 1.0}, \"52\": {\"Si\": 1.0}, \"53\": {\"P\": 1.0}}" energy=-472.45681721332636 stress="0.0004887947162318068 -0.0014621575338996478 -0.0010658226946737438 -0.0014621575338996478 0.0004060851227718669 -1.5920793391645347e-05 -0.0010658226946737438 -1.5920793391645347e-05 -0.0017130374357481552" free_energy=-472.45681721332636 pbc="T T T"
Si       6.67722142       3.96107254       2.73681475      -0.23857702      -0.17794207      -0.53507675       0.24226749      -0.59764838       0.28465085      -8.72588192
Si       8.66467275       5.05494946       5.86041432       0.28593324       0.33839388       0.83302668      -0.08311962      -0.13475353       0.30054704      -8.76636029
Si      10.69308746       6.07313902       8.97568058       0.50439376       0.35140307       0.33762881      -0.74177004       0.32349971       0.25386976      -8.71242845
Si       8.61816249       7.22860036       2.76348304       0.44280909      -0.18915836       0.38179464      -0.21279856       0.13770643      -0.13426944      -8.77937969
Si      10.60599021       8.30654781       5.85212320       0.52233212       0.67375343      -1.08368042      -0.21681626       0.08501491       0.05392608      -8.73377888
Si      12.50463898       9.42918349       9.04772195      -0.39686708       0.04417238       0.74015937      -0.03705237       0.30112285       0.04135492      -8.76089239
Si      10.60341595      10.51343092       2.66768288       0.04979685       0.06222762       0.04854657      -0.30084591       0.05625480       0.41315315      -8.76520312
Si      12.52194360      11.64880287       5.87092728      -0.59812892       0.82751584       0.04735495      -0.07382962       0.11249767      -0.17931857      -8.74625234
Si      14.42185758      12.85136092       8.98379822      -0.38250590       0.52431707       0.35982930       0.40212055      -0.94917554      -0.26303199      -8.54753979
Si      10.56772842       3.91861576       2.73135916       0.44045650      -0.08851356       0.19255553      -0.37621047      -0.14030295       0.51942212      -8.71256058
Si      12.53445623       4.93099109       5.87165757       0.12387052       0.79888937      -0.63399816       0.13650725       0.33618588       0.52256270      -8.76204607
Si      14.45136297       6.10632265       9.08482435       1.51905635      -0.58187554      -0.55639186      -0.32753811      -0.16462498      -0.46003772      -8.76146152
Si      12.48564364       7.18692704       2.75588426       0.17038098       0.31684337      -0.40165926      -0.10444065      -0.01585362      -0.12346454      -8.73747268
Si      14.39488216       8.38429965       5.92051259       0.00632632       0.87248267       0.20515793       0.05415203      -0.55425233       0.24177408      -8.75179970
Si      16.34355231       9.43644240       9.04963507       1.48413375      -0.33841853      -0.20889053      -0.02237090       0.34380573       0.00579121      -8.75226462
Si      14.36596478      10.50351230       2.78861334       0.26875797      -1.34946069      -0.75260633      -0.03157427       0.34625982      -0.21401282      -8.77410794
Si      16.34395484      11.60902670       5.88786239       1.50270582      -0.66932549       0.02065359       0.04096218       0.40026726       0.05177166      -8.76015306
Si      18.28544289      12.73481067       8.98249320      -1.44164213       0.12115238       0.08304863       0.19753758      -0.14397718       0.14052031      -8.73122997
Si      14.45255502       3.91150594       2.80516257       0.67703688       0.55530564       0.84234213      -0.08544191      -0.26818256      -0.44367882      -8.75684932
Si      16.42164492       4.98664990       5.93767347      -1.09882113      -0.97585955      -0.65086184      -0.67517190       0.23014302       0.05468638      -8.75752015
Si      18.26460643       6.12702575       9.07782677      -1.24122661      -0.70081063      -1.67995396       0.56047826      -0.05503909      -0.16250002      -8.54119358
Si      16.31638073       7.24597477       2.79726275      -0.46532630       0.54875770      -0.36145594       0.23363642       0.07156852       0.02576915      -8.71800087
Si      18.33692499       8.36313879       5.94200292       0.26625909      -0.91430207       0.18357100      -0.62284665       0.12263017      -0.24871092      -8.71731357
Si      20.26140599       9.45441085       9.02176671       0.06081317       0.33940806      -0.31550609      -0.24607099      -0.16703461       0.41909384      -8.76862311
Si      18.24469559      10.60622736       2.69850522       0.68449766       1.70548089      -0.81145228       0.09561172       0.02676684       0.50970577      -8.55604765
Si      20.27145643      11.64509940       5.89489037      -0.40043082      -1.31674737       1.57109641      -0.33248218       0.04109702      -0.16588787      -8.70389009
Si      22.17429605      12.80296934       9.04087653       0.29550579      -0.02527039       0.73744118      -0.02719709       0.06020373       0.41706524      -8.54894577
Si       2.92910176       1.65023216       3.47641457      -0.61985996       0.12418725       0.67219961      -0.18180861       0.08922902       0.29205526      -8.71950989
Si       4.88598328       2.78029536       6.70714991      -0.79912799       1.79449767      -0.85580895      -0.29954639       0.01674839      -0.27003154      -8.75747816
Si       2.94973186       3.88855742       0.41591644       0.29222294       1.31193860       1.55359318       0.14731990      -0.23617580      -0.06237493      -8.68676086
Si       4.78271385       5.01999117       3.61542769      -0.79553287      -0.04069713      -1.19454775       0.17505779       0.25763972      -0.41343388      -8.77372645
Si       6.73945818       6.11479233       6.69487434      -0.70676371       0.03221184       0.45779892       0.36892374       0.17611455       0.23342974      -8.74438744
Si       4.83651140       7.24418275       0.41161214      -0.46650499      -2.27412914      -0.66517233       0.03178691      -0.06282059       0.35206815      -8.74233380
Si       6.73715055       8.39627168       3.53479876      -0.45459427      -0.06434413      -0.70551440      -0.35811757      -0.30291162       0.15201263      -8.72336211
Si       8.71201977       9.43588604       6.71882416      -2.21882846       0.31646251       0.70695743       0.17100953      -0.00522226      -0.52390183      -8.77885519
Si       4.83305043       0.53146027       0.35368839      -0.20896842       0.65374461       0.78726819       0.06977499       0.22883022      -0.22330614      -8.76914762
Si       6.68412531       1.66892744       3.49483520      -1.24063985       0.02617493      -0.23943987       0.12247046       0.32008823       0.17169789      -8.71815298
Si       8.66033827       2.83058433       6.56279280       2.16816501      -0.27491561       0.59192821      -0.10876841      -0.29854281       0.71488705      -8.71162928
Si       6.77380513       3.90495507       0.39635092      -0.27428427      -1.49377589       0.25594471      -0.21875865      -0.15362686      -0.00419359      -8.77155791
Si       8.61049998       5.04550672       3.55809672      -0.60927325      -0.95834145      -0.10631485       0.25992280      -0.37448113      -0.61102692      -8.74214773
Si      10.62330858       6.07274682       6.60937229      -0.36056724      -0.09530932       0.18230411       0.14236383       0.24091527       0.30895003      -8.74548561
Si       8.62191469       7.23077803       0.42813241      -0.77904714       0.24515678      -0.60648155       0.15065637       0.36408564      -0.47672659      -8.69617924
Si      10.52736182       8.30668216       3.48430630       1.13079562       0.15452117       0.16185147       0.64418049       0.16571100       0.26022790      -8.73983500
Si      12.45782192       9.45968922       6.71361158      -0.22200402      -0.60795240       0.83593480       0.35826722      -0.11890909      -0.29783846      -8.75147514
Si       8.64646632       0.55954262       0.44518783       0.34381143      -0.22094801      -0.27608403       0.18280898      -0.22586776      -0.36780544      -8.71942983
Si      10.46322634       1.67101672       3.54996361       1.44666442      -1.27440306       0.18115800       0.71336428       0.12806433      -0.61677433      -8.71491350
Si      12.49058850       2.71987579       6.62779851      -0.42820715      -0.07597765      -0.59584224       0.54926335      -0.03394172       0.09674352      -8.75842194
Si      10.54249207       3.89777932       0.38833834      -0.89529798       0.39153331       0.27920834       0.41009035      -0.13408380       0.36343704      -8.77162715
Si      12.50789487       4.97017142       3.58099522       1.01992770      -0.78619855       0.28670985      -0.06393541       0.09087556      -0.72762512      -8.75743662
Si      14.45062979       6.11690555       6.69942017       0.19111353      -0.10479754      -0.34382453      -0.06078297      -0.13769268      -0.01401680      -8.68273669
Si      12.52840244       7.17315843       0.37006271       0.61196477       0.57098347      -0.90596581       0.02786698       0.19422714       0.25876366      -8.74479701
Si      14.36749865       8.32550761       3.58812660       1.40415095       0.99148674      -0.28305741       0.14049338      -0.19196929      -0.19217870      -8.76663999
Si      16.33632418       9.43999399       6.71458387       0.05794302       0.38250525       0.45541332       0.25018510      -0.31852592      -0.20739907      -8.75474176
P        1.04789094       0.54997571       0.38899275      -0.62879779       0.52396662       0.77711028      -1.06978442       0.51806266      -0.05639109      -9.86485119
54
Lattice="11.5478352 0.0 0.0 5.773917198490155 10.000722372470358 0.0 5.773916394327279 3.333571176804646 9.428767828939895" Properties=species:S:1:pos:R:3:momenta:R:3:forces:R:3:energies:R:1 spacegroup="_JSON {\"number\": 1, \"setting\": 1}" unit_cell=conventional occupancy="_JSON {\"0\": {\"Si\": 1.0}, \"1\": {\"Si\": 1.0}, \"2\": {\"Si\": 1.0}, \"3\": {\"Si\": 1.0}, \"4\": {\"Si\": 1.0}, \"5\": {\"Si\": 1.0}, \"6\": {\"Si\": 1.0}, \"7\": {\"Si\": 1.0}, \"8\": {\"Si\": 1.0}, \"9\": {\"Si\": 1.0}, \"10\": {\"Si\": 1.0}, \"11\": {\"Si\": 1.0}, \"12\": {\"Si\": 1.0}, \"13\": {\"Si\": 1.0}, \"14\": {\"Si\": 1.0}, \"15\": {\"Si\": 1.0}, \"16\": {\"Si\": 1.0}, \"17\": {\"Si\": 1.0}, \"18\": {\"Si\": 1.0}, \"19\": {\"Si\": 1.0}, \"20\": {\"Si\": 1.0}, \"21\": {\"Si\": 1.0}, \"22\": {\"Si\": 1.0}, \"23\": {\"Si\": 1.0}, \"24\": {\"Si\": 1.0}, \"25\": {\"Si\": 1.0}, \"26\": {\"Si\": 1.0}, \"27\": {\"Si\": 1.0}, \"28\": {\"Si\": 1.0}, \"29\": {\"Si\": 1.0}, \"30\": {\"Si\": 1.0}, \"31\": {\"Si\": 1.0}, \"32\": {\"Si\": 1.0}, \"33\": {\"Si\": 1.0}, \"34\": {\"Si\": 1.0}, \"35\": {\"Si\": 1.0}, \"36\": {\"Si\": 1.0}, \"37\": {\"Si\": 1.0}, \"38\": {\"Si\": 1.0}, \"39\": {\"Si\": 1.0}, \"40\": {\"Si\": 1.0}, \"41\": {\"Si\": 1.0}, \"42\": {\"Si\": 1.0}, \"43\": {\"Si\": 1.0}, \"44\": {\"Si\": 1.0}, \"45\": {\"Si\": 1.0}, \"46\": {\"Si\": 1.0}, \"47\": {\"Si\": 1.0}, \"48\": {\"Si\": 1.0}, \"49\": {\"Si\": 1.0}, \"50\": {\"Si\": 1.0}, \"51\": {\"Si\": 1.0}, \"52\": {\"Si\": 1.0}, \"53\": {\"P\": 1.0}}" energy=-471.78439180083683 stress="-0.0011673972429092467 -0.0021851717244869852 -0.0014712510907931348 -0.0021851717244869852 -8.78726026028963e-05 -0.00029766707724172733 -0.0014712510907931348 -0.00029766707724172733 -0.0018695184821134734" free_energy=-471.78439180083683 pbc="T T T"
Si       6.66999120       3.92847858       2.72128050      -0.09920317      -1.02489876      -0.04903786       0.00778610      -0.42616986       0.30991023      -8.75302754
Si       8.67207470       5.06142116       5.90836175      -0.05111409      -0.19973031       0.83727379      -0.25659037      -0.54342944      -0.30880956      -8.75075251
Si      10.68405236       6.10229635       9.00141235      -0.93177939       0.71997705       0.59061511      -1.03520470       0.16577000       0.04667157      -8.72507667
Si       8.63406494       7.22315340       2.77455378       0.20076686      -0.03335587      -0.02331621      -0.06621302       0.07539335      -0.37574910      -8.74642634
Si      10.61604616       8.34213013       5.81109419      -0.24878266       0.61782940      -0.24345936      -0.64296754      -0.16200049       0.96043306      -8.69281619
Si      12.48644983       9.42851882       9.08513976      -0.20381721      -0.31143892       0.60707320       0.32171522      -0.62861078      -0.26220463      -8.76657120
Si      10.58851314      10.51934189       2.68824977      -0.68134213       0.17905992       0.73871042      -0.53050411       0.11847566       0.41735507      -8.75956260
Si      12.49480957      11.69310443       5.87092877      -0.30975440       0.78791419       0.03694896       0.41961531      -0.17528189       0.15278110      -8.69645753
Si      14.41686979      12.84569997       8.99582199       0.14212416      -0.61494881       0.18061762       0.20983438      -0.44828813       0.05169076      -8.55105963
Si      10.57650083       3.90395806       2.76223806      -0.07354053      -0.53670785       0.94629815      -0.24372950      -0.39150212       0.36084766      -8.71285404
Si      12.54316189       4.97892737       5.86317652       0.14919688       0.89343967       0.31304055      -0.09469738      -0.19133049       0.52117165      -8.75636635
Si      14.50625253       6.07156515       9.04130943       0.41117816      -0.68672054      -1.00550470      -0.94216733       0.06224233      -0.07036238      -8.74807333
Si      12.50057750       7.19945555       2.73184038       0.56909266       0.10678706      -0.48020591       0.54750682      -0.22143481       0.01815274      -8.69530497
Si      14.39960735       8.40595934       5.93795583       0.21368974      -0.08124166       0.38935297       0.20048271      -0.67314769      -0.03145449      -8.73298778
Si      16.40914335       9.43617044       9.04177213       0.82324058       0.36442321      -0.04001545      -0.77382366       0.48214427       0.20614238      -8.71517576
Si      14.37771553      10.46530631       2.74513178       0.17395128       0.18660316      -0.82336807      -0.05482165       1.45210184       0.11779464      -8.72237461
Si      16.41852056      11.58861991       5.88745305       1.22015117      -0.14074432      -0.11091849      -0.42093715       0.27466877      -0.23046557      -8.76897481
Si      18.22444265      12.74047337       8.98706329      -0.75113035       0.18890450       0.00443197       0.70569699       0.22442159      -0.19217910      -8.70113199
Si      14.47874745       3.92153849       2.82999591       0.22775232      -0.30439618       0.07701859      -0.43085951      -0.75488572      -0.53334856      -8.77206435
Si      16.34713721       4.96213960       5.89842302      -1.52702442       0.33265701      -0.96154510       0.16926233       1.30173421      -0.37615917      -8.73852421
Si      18.22523693       6.09860426       9.00361792      -0.21479189      -0.19685131      -0.77083243       0.73637623       0.66944917       1.28198202      -8.48983814
Si      16.30470544       7.27068136       2.77508648       0.07675572       0.27347374      -0.55624443       0.44500693      -0.38225460      -0.24590192      -8.73698706
Si      18.31790161       8.32354452       5.93731295      -1.07875053      -0.54003171      -0.43004240      -0.93935195       0.33040387      -0.50458789      -8.71244431
Si      20.25102455       9.46123782       9.02224171      -0.51051853      -0.15272566       0.30005265      -0.44221265      -0.44175371       0.28400534      -8.77085447
Si      18.28239495      10.68226533       2.68094905       0.72394958       0.91722315       0.18867680      -0.01232208      -1.04721352       0.67131576      -8.58013612
Si      20.23761563      11.59062816       5.96258477      -0.84518667      -0.52299825       0.85859090      -0.15211906       0.93598420      -0.73970038      -8.69566806
Si      22.18706003      12.79610871       9.08590989       0.14922520      -0.36773135       0.77661510      -0.18907933      -0.45021587      -0.37297369      -8.51084677
Si       2.89903928       1.66047471       3.52486773      -0.35602264       0.26604387       1.19203731       0.47571753       0.08464710       0.34956968      -8.69046132
Si       4.83550199       2.85553132       6.66711779      -1.05250756       0.71401251      -0.39898422      -0.00674318      -1.33086274       0.76636397      -8.73056050
Si       2.96324974       3.93872177       0.48290716       0.09007276       0.43629400       0.78170582      -0.38175290      -0.87328045      -0.90511693      -8.59888207
Si       4.75933321       5.03310539       3.54660914       0.09584834       0.59885455      -1.23867717       0.89001319       0.46182334       0.31776009      -8.73331551
Si       6.71354417       6.11306741       6.71494114      -0.35100411      -0.26680823       0.05377657       0.09657461      -0.47256936      -0.73176889      -8.75081183
Si       4.81518474       7.14234835       0.39455877      -0.30768215      -1.25248020       0.08288561       0.18173573       1.30344812       0.59180438      -8.71482869
Si       6.70722829       8.38761546       3.50455223      -0.52658767      -0.15363285      -0.42715155       0.26612159       0.13515316       0.22550020      -8.67439696
Si       8.61924514       9.44035173       6.73165445      -1.06128253      -0.34621586      -0.24082758       1.16697529      -0.77396024      -0.61485788      -8.73677902
Si       4.82009442       0.57203787       0.38384982      -0.36552931       0.82233820       0.33752116      -0.24129334      -0.04973628      -0.31399554      -8.76584606
Si       6.63731630       1.67882250       3.49067477      -0.33163635       0.26159719       0.11450011       0.93913928      -0.04017896       0.29684252      -8.71560425
Si       8.75740489       2.80666119       6.61489986       1.30103715      -0.58078436       1.23679433      -1.00174850      -0.08066334       0.08696423      -8.69407354
Si       6.76375568       3.83006150       0.40403732       0.09981893      -1.18161665      -0.04201579       0.57902172       0.53621459      -0.31167345      -8.73438595
Si       8.59296287       4.98803549       3.53771094      -0.00305074      -1.07163500      -0.47733598       0.46673059       0.25259067       0.14094904      -8.74609802
Si      10.61389839       6.08499111       6.62835282       0.03989073       0.67422172       0.49146873       0.27773265       0.66339743       0.10942380      -8.74152646
Si       8.59688680       7.25520861       0.38614057      -0.02003985       0.60554013      -0.81655653       0.74380816       0.03268781       0.21826948      -8.68245906
Si      10.60180753       8.31931338       3.49596339       1.47883230       0.27432798       0.15703805      -0.24634185      -0.04234215      -0.21975712      -8.78039295
Si      12.45823699       9.43459016       6.74261602       0.18647936      -0.15639777       0.22290253       0.15592897       0.62974091      -0.47566750      -8.74677378
Si       8.66744743       0.53687630       0.41583411       0.36204724      -0.65874085      -0.83024052      -0.18588568      -0.27965631      -0.31055305      -8.72123948
Si      10.55319629       1.61486241       3.53391376       1.68558721      -0.74951589      -0.75477048      -0.45588046       0.58146168      -0.45612886      -8.70615757
Si      12.49407960       2.72234009       6.60673215       0.60136366       0.30913694      -0.08745210       0.67862048       0.50131591       0.55316565      -8.74101767
Si      10.52096305       3.91120293       0.41524447       0.19524454       0.08743113       0.68847731       0.86097835      -0.26194917       0.13046492      -8.75915497
Si      12.55163839       4.94276227       3.56513511       0.50303934      -0.08978863      -0.84909162      -0.61927694       0.74186506      -0.55149162      -8.73842381
Si      14.45729385       6.11098366       6.68010294       0.03117736      -0.02001132      -0.39351386      -0.18526219       0.25904818      -0.01744721      -8.70972443
Si      12.55894836       7.20938881       0.33941729       0.48226554       0.77558376      -0.14829915      -0.24604179       0.05594936       0.69181721      -8.76167523
Si      14.43305690       8.35965331       3.57171693       0.85162814       0.16046491      -0.22604503      -0.79892580      -0.74750328       0.24632752      -8.75371841
Si      16.35169118       9.44221046       6.72863236       0.53851151      -0.35338188       0.05389067       0.28478155      -0.52269127      -0.30403940      -8.75272746
P        0.98690538       0.58985530       0.41533243      -1.72183956       1.04139207       0.16713697      -0.23040911       0.08078009      -0.66908274      -9.90099946
54
Lattice="11.5478352 0.0 0.0 5.773917198490155 10.000722372470358 0.0 5.773916394327279 3.333571176804646 9.428767828939895" Properties=species:S:1:pos:R:3:momenta:R:3:forces:R:3:energies:R:1 spacegroup="_JSON {\"number\": 1, \"setting\": 1}" unit_cell=conventional occupancy="_JSON {\"0\": {\"Si\": 1.0}, \"1\": {\"Si\": 1.0}, \"2\": {\"Si\": 1.0}, \"3\": {\"Si\": 1.0}, \"4\": {\"Si\": 1.0}, \"5\": {\"Si\": 1.0}, \"6\": {\"Si\": 1.0}, \"7\": {\"Si\": 1.0}, \"8\": {\"Si\": 1.0}, \"9\": {\"Si\": 1.0}, \"10\": {\"Si\": 1.0}, \"11\": {\"Si\": 1.0}, \"12\": {\"Si\": 1.0}, \"13\": {\"Si\": 1.0}, \"14\": {\"Si\": 1.0}, \"15\": {\"Si\": 1.0}, \"16\": {\"Si\": 1.0}, \"17\": {\"Si\": 1.0}, \"18\": {\"Si\": 1.0}, \"19\": {\"Si\": 1.0}, \"20\": {\"Si\": 1.0}, \"21\": {\"Si\": 1.0}, \"22\": {\"Si\": 1.0}, \"23\": {\"Si\": 1.0}, \"24\": {\"Si\": 1.0}, \"25\": {\"Si\": 1.0}, \"26\": {\"Si\": 1.0}, \"27\": {\"Si\": 1.0}, \"28\": {\"Si\": 1.0}, \"29\": {\"Si\": 1.0}, \"30\": {\"Si\": 1.0}, \"31\": {\"Si\": 1.0}, \"32\": {\"Si\": 1.0}, \"33\": {\"Si\": 1.0}, \"34\": {\"Si\": 1.0}, \"35\": {\"Si\": 1.0}, \"36\": {\"Si\": 1.0}, \"37\": {\"Si\": 1.0}, \"38\": {\"Si\": 1.0}, \"39\": {\"Si\": 1.0}, \"40\": {\"Si\": 1.0}, \"41\": {\"Si\": 1.0}, \"42\": {\"Si\": 1.0}, \"43\": {\"Si\": 1.0}, \"44\": {\"Si\": 1.0}, \"45\": {\"Si\": 1.0}, \"46\": {\"Si\": 1.0}, \"47\": {\"Si\": 1.0}, \"48\": {\"Si\": 1.0}, \"49\": {\"Si\": 1.0}, \"50\": {\"Si\": 1.0}, \"51\": {\"Si\": 1.0}, \"52\": {\"Si\": 1.0}, \"53\": {\"P\": 1.0}}" energy=-472.13253174887615 stress="-0.0006911686738464085 0.001474821070333246 0.0012274947041230146 0.001474821070333246 -0.0003022616121036319 -0.00016626349680263873 0.0012274947041230146 -0.00016626349680263873 0.0008356383592070005" free_energy=-472.13253174887615 pbc="T T T"
Si       6.66727378       3.86577554       2.72746603       0.07323472      -1.18496201       0.21121177       0.30265329       0.27768909       0.02097533      -8.76318448
Si       8.66433694       5.02995589       5.93614653      -0.12605831      -0.95128911       0.16544565       0.19159254      -0.34459855      -0.52488180      -8.73930128
Si      10.60300678       6.14530269       9.03115379      -1.91062050       0.87786046       0.47654956      -0.05558302      -0.01377502      -0.21882036      -8.75833110
Si       8.64588415       7.22334055       2.75923509       0.31963078       0.01912433      -0.52217165       0.20422051      -0.01154393      -0.21593519      -8.70556832
Si      10.58299756       8.36750479       5.83438238      -0.85406917       0.34244334       1.01199356      -0.01579243      -0.18990135       0.48239683      -8.74978193
Si      12.49125967       9.38865154       9.10399666       0.41733698      -1.09596301       0.06801195       0.43091317      -0.18585164      -0.43041616      -8.75163283
Si      10.53883406      10.53460650       2.73902225      -1.02265964       0.41252883       1.09383069       0.21271913       0.14509310       0.01108538      -8.75741241
Si      12.49657229      11.72563560       5.88161856       0.37925123       0.41655419       0.40954794       0.41838251      -0.31061714       0.30046617      -8.69204344
Si      14.42728841      12.80704884       9.01069401       0.15701385      -0.64563138       0.42559017      -0.17937993       0.38118470       0.20431293      -8.53687192
Si      10.56807709       3.86264809       2.81857817      -0.15162976      -0.94422883       1.03374669       0.12873833      -0.01079125      -0.29700578      -8.74969192
Si      12.54539422       5.01637689       5.88967050      -0.09919325       0.52681405       0.49003637      -0.23368533      -0.21488360      -0.28104258      -8.73789871
Si      14.49838837       6.04095465       8.99216183      -0.51811709      -0.42915513      -0.74575206      -0.18705010       0.25439068       0.40097641      -8.74193880
Si      12.55158631       7.19809042       2.70909080       1.29299270      -0.09761644      -0.33999210       0.21498859       0.01954214       0.20257805      -8.74518115
Si      14.41745901       8.37941683       5.95382142       0.41309993      -0.81299119       0.15626617      -0.01273351      -0.19435898      -0.26461558      -8.73668884
Si      16.42172285       9.46981004       9.04873903      -0.30840271       0.80814843       0.31270515      -0.62180817       0.04422528       0.22751605      -8.71294271
Si      14.38639989      10.52407695       2.70959916       0.18970907       1.79403954      -0.47597071       0.06986095       0.43641776       0.32172741      -8.71626223
Si      16.46469928      11.58957088       5.87169959       0.52277052       0.14880336      -0.47218238      -0.48941746       0.15967948      -0.15707562      -8.72943921
Si      18.21308442      12.76195102       8.98065885       0.29258661       0.65742832      -0.19264914       0.58810301       0.32457189       0.02911463      -8.70537636
Si      14.47741503       3.88188236       2.81689182      -0.18883218      -1.01843872      -0.49224835      -0.09549751      -0.01713894      -0.20297866      -8.76414400
Si      16.28289014       5.02032926       5.83617525      -0.76031396       1.55717591      -1.28446669       0.78603488       0.04700191       0.11225914      -8.74375096
Si      18.24024246       6.11711028       9.01343718       0.72895618       0.90568239       1.00896264       0.48842627       0.66013170       0.74021948      -8.55210692
Si      16.32423049       7.27185703       2.73731746       0.60345837      -0.14166591      -0.80909554       0.19002765      -0.04242811       0.05177140      -8.76272013
Si      18.23574783       8.30510949       5.89636622      -1.74635592      -0.25240812      -1.08149230       0.26543062      -0.02515416      -0.30625146      -8.73987945
Si      20.21045054       9.43774879       9.04269627      -0.93002925      -0.67193999       0.35715046      -0.02918559      -0.16111858      -0.19444800      -8.75891598
Si      18.32137753      10.68427623       2.70931870       0.77539135      -0.88105501       0.72146349       0.02256450      -1.17416858       0.00863931      -8.56404727
Si      20.19379546      11.59717243       5.98013383      -0.68360617       0.62502070      -0.11324097       0.39520782       0.35983039      -0.42884430      -8.73160599
Si      22.18569337      12.75828822       9.10607488      -0.22930008      -1.04204499      -0.09497563      -0.29232368      -0.31091934      -0.70663247      -8.52720344
Si       2.89976392       1.67675556       3.59892943       0.34626735       0.32702622       1.54678444       0.32340223      -0.02289520       0.00681125      -8.72449475
Si       4.78385850       2.84526381       6.67560242      -0.82605661      -0.90181250       0.62958611       0.34920463      -0.55716898       0.40714680      -8.71881147
Si       2.94865701       3.92667241       0.48772513      -0.72429621      -0.86739180      -0.55149651      -0.67732654      -0.73807439      -0.70361152      -8.67040153
Si       4.79479587       5.07508185       3.49526986       1.09893555       0.79681911      -0.73083043       0.28334661      -0.32939212       0.27468820      -8.73068073
Si       6.69542351       6.08100162       6.68785752      -0.38420026      -0.88899610      -1.00958614      -0.07149360      -0.20996325      -0.43178731      -8.74575178
Si       4.80698701       7.12771501       0.41698176       0.01232161       0.59650166       0.61008269       0.24659502       0.90147320      -0.04757993      -8.73364105
Si       6.69484343       8.38595426       3.49000529       0.12271690       0.07774776      -0.15582651       0.52908188       0.08098554       0.10875211      -8.68719274
Si       8.60456806       9.39319294       6.69957076       0.33431919      -1.33397748      -0.88139143       0.49173506      -0.30374055      -0.20399291      -8.74699679
Si       4.79066744       0.60992221       0.39283924      -0.74209501       0.56520161       0.08143889      -0.18101338      -0.26441958      -0.01578947      -8.74487132
Si       6.65416613       1.68512122       3.50856296       0.86737045      -0.12959554       0.56577067       0.51517654      -0.45033635       0.28686867      -8.75214060
Si       8.78471779       2.77506410       6.67511604      -0.25158584      -0.59346204       0.90715806      -0.95182154       0.04080672      -0.50184630      -8.70583819
Si       6.78899806       3.78987493       0.39101825       0.72656549      -0.36819011      -0.40086531       0.05104595       0.46536128      -0.09718880      -8.73642065
Si       8.60702931       4.94654831       3.52470207       0.43605925      -0.43653728       0.06913980       0.06666558       0.53545154       0.48046763      -8.73355990
Si      10.62103584       6.14248421       6.65706948       0.09589784       1.37979343       0.58233777      -0.24509833       0.11534083       0.02464528      -8.74463662
Si       8.62234004       7.27988278       0.35794903       0.88632257       0.15847995      -0.16064097       0.32922585      -0.64227162       0.59474821      -8.71610672
Si      10.66137725       8.32858448       3.49572951       0.65559126       0.01444665      -0.11879120      -0.77501953      -0.28942996      -0.04077321      -8.75446197
Si      12.47120055       9.45218977       6.73744678       0.26472117       0.79913124      -0.37433241      -0.01334286       0.50790823      -0.28852358      -8.73303839
Si       8.67537521       0.49504232       0.36375499      -0.11426058      -0.83381169      -1.05903673      -0.38700194       0.12438389       0.07304775      -8.73700203
Si      10.61335216       1.60007680       3.48620883       0.46094007       0.18577167      -0.86419230      -1.00144168       0.55670774       0.31933263      -8.72673229
Si      12.54275743       2.75966385       6.62419197       1.01301203       1.09813364       0.71943960      -0.25902465       0.43167866       0.41027668      -8.75797301
Si      10.55776220       3.90572020       0.45251222       1.01893980      -0.27469751       0.66032737       0.12026687      -0.16619096      -0.14838445      -8.72968427
Si      12.55227279       4.96573776       3.51094131      -0.46378934       0.87331530      -0.97910658      -0.54657587       0.36639901       0.37472920      -8.72890139
Si      14.44927241       6.12360940       6.65985645      -0.37661934       0.53855599      -0.34918575      -0.32678159       0.38671981       0.09426365      -8.76305688
Si      12.57112472       7.25066496       0.35689918      -0.07941183       0.75996803       0.73167006      -0.47555403      -0.09399245       0.35225901      -8.77127396
Si      14.44594639       8.34590589       3.56956447      -0.29568109      -0.49375043       0.10865322      -0.53111971      -0.01086343       0.11606357      -8.74092270
Si      16.38540375       9.40981832       6.72137760       0.59774883      -0.70746841      -0.27388563      -0.29845166       0.15947527      -0.07623222      -8.77926895
P        0.90876156       0.63565077       0.40196642      -1.31597756       0.73656462      -0.62149551       0.73791363      -0.49646181      -0.25348150      -9.84474926
54
Lattice="11.5478352 0.0 0.0 5.773917198490155 10.000722372470358 0.0 5.773916394327279 3.333571176804646 9.428767828939895" Properties=species:S:1:pos:R:3:momenta:R:3:forces:R:3:energies:R:1 spacegroup="_JSON {\"number\": 1, \"setting\": 1}" unit_cell=conventional occupancy="_JSON {\"0\": {\"Si\": 1.0}, \"1\": {\"Si\": 1.0}, \"2\": {\"Si\": 1.0}, \"3\": {\"Si\": 1.0}, \"4\": {\"Si\": 1.0}, \"5\": {\"Si\": 1.0}, \"6\": {\"Si\": 1.0}, \"7\": {\"Si\": 1.0}, \"8\": {\"Si\": 1.0}, \"9\": {\"Si\": 1.0}, \"10\": {\"Si\": 1.0}, \"11\": {\"Si\": 1.0}, \"12\": {\"Si\": 1.0}, \"13\": {\"Si\": 1.0}, \"14\": {\"Si\": 1.0}, \"15\": {\"Si\": 1.0}, \"16\": {\"Si\": 1.0}, \"17\": {\"Si\": 1.0}, \"18\": {\"Si\": 1.0}, \"19\": {\"Si\": 1.0}, \"20\": {\"Si\": 1.0}, \"21\": {\"Si\": 1.0}, \"22\": {\"Si\": 1.0}, \"23\": {\"Si\": 1.0}, \"24\": {\"Si\": 1.0}, \"25\": {\"Si\": 1.0}, \"26\": {\"Si\": 1.0}, \"27\": {\"Si\": 1.0}, \"28\": {\"Si\": 1.0}, \"29\": {\"Si\": 1.0}, \"30\": {\"Si\": 1.0}, \"31\": {\"Si\": 1.0}, \"32\": {\"Si\": 1.0}, \"33\": {\"Si\": 1.0}, \"34\": {\"Si\": 1.0}, \"35\": {\"Si\": 1.0}, \"36\": {\"Si\": 1.0}, \"37\": {\"Si\": 1.0}, \"38\": {\"Si\": 1.0}, \"39\": {\"Si\": 1.0}, \"40\": {\"Si\": 1.0}, \"41\": {\"Si\": 1.0}, \"42\": {\"Si\": 1.0}, \"43\": {\"Si\": 1.0}, \"44\": {\"Si\": 1.0}, \"45\": {\"Si\": 1.0}, \"46\": {\"Si\": 1.0}, \"47\": {\"Si\": 1.0}, \"48\": {\"Si\": 1.0}, \"49\": {\"Si\": 1.0}, \"50\": {\"Si\": 1.0}, \"51\": {\"Si\": 1.0}, \"52\": {\"Si\": 1.0}, \"53\": {\"P\": 1.0}}" energy=-471.7014030925575 stress="0.00012513109403539176 0.002117536266859055 0.001728359771078897 0.002117536266859055 -0.0014068148925237608 0.0005553471044709278 0.001728359771078897 0.0005553471044709278 0.0006477387164230449" free_energy=-471.7014030925575 pbc="T T T"
Si       6.68782973       3.82086778       2.73645772       0.78323590      -0.44139519       0.09424373       0.57571952       0.60308578      -0.12319943      -8.74823891
Si       8.66843160       4.97400314       5.92698474       0.30248643      -1.02053411      -0.43689762       0.26821624       0.28417534      -0.21142170      -8.73682217
Si      10.51791912       6.18537750       9.04475889      -1.01962617       0.52521306       0.00085048       1.14419680      -0.48585746      -0.36226024      -8.72258075
Si       8.67180780       7.22214982       2.72931919       0.66401827      -0.10465514      -0.48438622       0.18109079      -0.16961256       0.30781275      -8.71061469
Si      10.55088232       8.37918303       5.89117730      -0.11981853       0.12538509       0.86174492       0.93243963      -0.09520146      -0.64164687      -8.77046016
Si      12.52683473       9.33749968       9.09104530       0.86003401      -0.59161842      -0.54863559       0.11868668       0.82173793      -0.36971548      -8.71220517
Si      10.50486491      10.55878446       2.79210825      -0.07616463       0.42729758       0.84242827       0.96262027      -0.16947435      -0.32919038      -8.73249474
Si      12.52730011      11.73604646       5.91344030       0.65390090       0.00012341       0.74805822      -0.12781360      -0.23067232       0.07705662      -8.74458539
Si      14.42473892      12.79184602       9.03951912      -0.31918901       0.07908033       0.62830538      -0.42616889       0.42701810       0.02824299      -8.53933068
Si      10.56706488       3.82349166       2.85421126       0.12329931      -0.32464474       0.20676595       0.16885614       0.84132789      -0.74727401      -8.75580303
Si      12.52965937       5.04086464       5.89889819      -0.52511003       0.51132669      -0.20203037      -0.32366422       0.18470677      -0.52591815      -8.72037749
Si      14.47541501       6.02750783       8.96998579      -0.16777418      -0.10194813      -0.09499143       0.54723894       0.18909184       0.41932316      -8.71799310
Si      12.61556768       7.19882369       2.70160454       0.88702048       0.20909633       0.09624623      -0.78584127       0.33748853       0.35884902      -8.78234627
Si      14.43349219       8.34053647       5.95027881       0.10203399      -0.43157238      -0.31284815      -0.37993939       0.72456331      -0.34189766      -8.73993391
Si      16.39032863       9.50638348       9.07170906      -0.68947675       0.43057405       0.49982167       0.15846248      -0.56155535      -0.02332954      -8.71868284
Si      14.39975087      10.61596092       2.69533128       0.32023199       1.34654502      -0.12057885       0.07345876      -0.97943891       0.12063850      -8.69310496
Si      16.47401980      11.60408551       5.84604199      -0.15941026       0.41557471      -0.38839389      -0.44854333       0.19589811       0.30109140      -8.67242722
Si      18.24256398      12.80592110       8.97834820       0.62200123       0.92844901       0.23065317      -0.23708504      -0.02931783       0.50827915      -8.72085003
Si      14.46598689       3.84058387       2.78692429      -0.23297630      -0.33938047      -0.58231063      -0.03274953       0.81758592       0.07243439      -8.70729466
Si      16.27131993       5.08559487       5.78215873       0.21456998       0.63411533      -0.61357994       0.37490153      -1.11924602       0.73066902      -8.70160897
Si      18.28948635       6.18004828       9.07439413       0.92168724       1.22037715       0.90323560      -0.42602480      -0.41673525      -0.86930124      -8.59473855
Si      16.35829117       7.27056839       2.70531747       0.60224201       0.21031448      -0.25610460      -0.17281200       0.40107078       0.63165229      -8.75646907
Si      18.17191348       8.28406283       5.83236311      -0.41473532      -0.64335914      -1.23619356       1.29678160      -0.36998866       0.18683205      -8.72921528
Si      20.16617410       9.40242360       9.05068562      -0.66807504      -0.55575435      -0.09391787       0.31931532       0.30258749      -0.35476314      -8.69782852
Si      18.35938307      10.60420160       2.74167578       0.57732424      -1.86366314       0.42249602      -0.33914878       0.03698518      -0.35021605      -8.53532836
Si      20.17643198      11.63012935       5.96841982       0.03394155       0.40286083      -0.10879842       0.43245575      -0.52468756       0.44329668      -8.73341006
Si      22.16308833      12.70042960       9.07588609      -0.60265744      -0.95255567      -0.97640306      -0.17175767       0.50758819      -0.38473416      -8.57870456
Si       2.92245241       1.69178174       3.67172970       0.35853165       0.22451104       1.02811125      -0.29518620      -0.10650026      -0.76888203      -8.74974274
Si       4.75832816       2.79148327       6.71282443      -0.06763468      -0.89092894       0.55679943       0.64843978       0.46160595      -0.50627875      -8.66697123
Si       2.88544066       3.86329907       0.44366192      -1.57330155      -1.27853389      -0.86101092      -0.19235213       0.32488707       0.33945220      -8.76657004
Si       4.85282801       5.09405150       3.46283139       0.92442093      -0.21834082      -0.58485753      -0.46010458      -0.87907009      -0.03081259      -8.72427140
Si       6.67535128       6.03444599       6.63047253      -0.28280632      -0.72332881      -0.94165753       0.30817300       0.41773001       0.48871784      -8.68991713
Si       4.81725568       7.17600934       0.43502741       0.37098565       0.87351008      -0.12142518       0.20852567      -0.54443227      -0.80337445      -8.73106051
Si       6.72049929       8.38701824       3.48274206       0.81251744      -0.18381909      -0.18369050       0.35859877      -0.48866425      -0.13393707      -8.73390550
Si       8.62304679       9.32588846       6.65241455       0.02668306      -0.94788546      -0.76867698      -0.82197793       0.78954017       0.36655949      -8.70459537
Si       4.74897468       0.63063206       0.40001489      -0.74266669       0.26415623       0.24748136       0.22763048      -0.11154585       0.20232160      -8.71063179
Si       6.70901863       1.66121667       3.54846225       1.01499556      -0.71830143       0.92306932      -0.29973910      -0.19744729       0.15191472      -8.76392785
Si       8.74352380       2.74548379       6.70166325      -1.10715502      -0.52283564       0.11394432      -0.10990016       0.09251296      -0.45780800      -8.73847587
Si       6.81690642       3.78335863       0.37161841       0.12717635       0.02390954      -0.23514255      -0.75321138       0.08927647       0.29810937      -8.74025313
Si       8.62805960       4.94289146       3.54407481       0.30894912       0.25207155       0.57500023      -0.15381386       0.35558068       0.10771113      -8.72589876
Si      10.61169959       6.20718685       6.68845937      -0.50721521       0.84064431       0.59712656      -0.45735581      -0.83541213      -0.05202853      -8.72228707
Si       8.67114269       7.26057607       0.37154085       0.75680747      -0.86849245       0.62272821      -0.51980222      -0.52705606       0.36727185      -8.76344226
Si      10.66668995       8.31788303       3.49329249      -0.39611296      -0.39833970       0.11826650      -0.53978383      -0.18930401       0.31637727      -8.69755515
Si      12.48498487       9.50510302       6.71079442       0.27647131       1.01390293      -0.55256256       0.04488953      -0.29225121       0.06296766      -8.71209282
Si       8.65783083       0.46296251       0.31743052      -0.44085941      -0.25409077      -0.57282730       0.06162294       0.64545856       0.59240572      -8.73953612
Si      10.60713169       1.62253297       3.45902919      -0.46884029       0.46572706      -0.08956386      -0.11413823      -0.22835375       0.63901041      -8.75570234
Si      12.57488482       2.82754214       6.67021114       0.05755434       1.32956356       0.85987689      -0.85247286      -0.19491949      -0.27221496      -8.75829202
Si      10.60452385       3.88927302       0.48066555       0.56094496      -0.25790525       0.39838428      -0.66663039       0.19728605      -0.21305217      -8.68111726
Si      12.51438436       5.01377325       3.48080665      -0.81164273       0.72426548      -0.07693192       0.11619048      -0.53007346       0.73173710      -8.70330608
Si      14.41897466       6.16085904       6.64612819      -0.70076010       0.71563470      -0.16040289      -0.02271134      -0.25284975       0.14576761      -8.78060150
Si      12.54942918       7.28557555       0.39872771      -0.69953132       0.54026971       0.65392522      -0.27960696      -0.21298380      -0.45542109      -8.76092051
Si      14.42337161       8.33021271       3.57604731      -0.28830714       0.07722308       0.07578761       0.53801297       0.69824288      -0.13325944      -8.68878531
Si      16.39780453       9.38851264       6.70854626      -0.21560248       0.04067778      -0.14720457      -0.62682831       0.70900251       0.17739727      -8.76191549
P        0.87677170       0.64935350       0.37074447       0.03338418      -0.21851703      -0.55332635       0.97063974      -0.71338305       0.28803787      -9.75617831
54
Lattice="11.5478352 0.0 0.0 5.773917198490155 10.000722372470358 0.0 5.773916394327279 3.333571176804646 9.428767828939895" Properties=species:S:1:pos:R:3:momenta:R:3:forces:R:3:energies:R:1 spacegroup="_JSON {\"number\": 1, \"setting\": 1}" unit_cell=conventional occupancy="_JSON {\"0\": {\"Si\": 1.0}, \"1\": {\"Si\": 1.0}, \"2\": {\"Si\": 1.0}, \"3\": {\"Si\": 1.0}, \"4\": {\"Si\": 1.0}, \"5\": {\"Si\": 1.0}, \"6\": {\"Si\": 1.0}, \"7\": {\"Si\": 1.0}, \"8\": {\"Si\": 1.0}, \"9\": {\"Si\": 1.0}, \"10\": {\"Si\": 1.0}, \"11\": {\"Si\": 1.0}, \"12\": {\"Si\": 1.0}, \"13\": {\"Si\": 1.0}, \"14\": {\"Si\": 1.0}, \"15\": {\"Si\": 1.0}, \"16\": {\"Si\": 1.0}, \"17\": {\"Si\": 1.0}, \"18\": {\"Si\": 1.0}, \"19\": {\"Si\": 1.0}, \"20\": {\"Si\": 1.0}, \"21\": {\"Si\": 1.0}, \"22\": {\"Si\": 1.0}, \"23\": {\"Si\": 1.0}, \"24\": {\"Si\": 1.0}, \"25\": {\"Si\": 1.0}, \"26\": {\"Si\": 1.0}, \"27\": {\"Si\": 1.0}, \"28\": {\"Si\": 1.0}, \"29\": {\"Si\": 1.0}, \"30\": {\"Si\": 1.0}, \"31\": {\"Si\": 1.0}, \"32\": {\"Si\": 1.0}, \"33\": {\"Si\": 1.0}, \"34\": {\"Si\": 1.0}, \"35\": {\"Si\": 1.0}, \"36\": {\"Si\": 1.0}, \"37\": {\"Si\": 1.0}, \"38\": {\"Si\": 1.0}, \"39\": {\"Si\": 1.0}, \"40\": {\"Si\": 1.0}, \"41\": {\"Si\": 1.0}, \"42\": {\"Si\": 1.0}, \"43\": {\"Si\": 1.0}, \"44\": {\"Si\": 1.0}, \"45\": {\"Si\": 1.0}, \"46\": {\"Si\": 1.0}, \"47\": {\"Si\": 1.0}, \"48\": {\"Si\": 1.0}, \"49\": {\"Si\": 1.0}, \"50\": {\"Si\": 1.0}, \"51\": {\"Si\": 1.0}, \"52\": {\"Si\": 1.0}, \"53\": {\"P\": 1.0}}" energy=-471.6266416621823 stress="-0.0006633842573822348 -0.001972838882352277 -0.0012630484365380743 -0.001972838882352277 0.0003754882479238789 0.0003202446401651652 -0.0012630484365380743 0.0003202446401651652 -0.0011531901053124757" free_energy=-471.6266416621823 pbc="T T T"
Si       6.74918225       3.81708690       2.73811942       1.46271628       0.19567596       0.00749461       0.19670980       0.20673633       0.02216963      -8.75031933
Si       8.69018968       4.93677395       5.90272826       0.42214343      -0.32489836      -0.35324600      -0.14178798       0.56749718       0.31038747      -8.73219340
Si      10.50881879       6.19175294       9.03510506       0.57252326      -0.29207649      -0.24711282       0.75148046      -0.52248702       0.10694219      -8.72244814
Si       8.70998452       7.20766698       2.72144329       0.70414731      -0.48827975       0.26274250      -0.15613612      -0.32175031       0.59999880      -8.73894532
Si      10.57923828       8.38412608       5.90757497       1.04211310       0.09497035      -0.22321412       0.31020947       0.01942905      -0.58511553      -8.75942095
Si      12.57172496       9.34120111       9.05083557       0.74554842       0.69673600      -0.90363563      -0.30211047       0.66782696      -0.04552302      -8.71419126
Si      10.53740293      10.57141911       2.82283351       1.22266502       0.01340077       0.32941998       0.58056713      -0.32541006      -0.32561761      -8.73243123
Si      12.54860884      11.72866808       5.95025023       0.02638172      -0.25890908       0.54463716      -0.62464106      -0.13996149      -0.34940092      -8.76236593
Si      14.39257069      12.80512903       9.07083212      -0.83116448       0.26858323       0.51054883      -0.11041621      -0.19175540      -0.18707031      -8.56843648
Si      10.57742918       3.84129595       2.83745017       0.21585530       0.94707616      -0.76918301      -0.04602461       0.61032830      -0.43689102      -8.76027235
Si      12.48975960       5.07662027       5.87246002      -0.96965805       0.83245160      -0.67197745      -0.20970660       0.10282760       0.00613350      -8.74422957
Si      14.48716579       6.03039037       8.97896909       0.53140701       0.25248024       0.39083706       0.21238723       0.34147359       0.22781854      -8.71999949
Si      12.62499874       7.22250868       2.72016907      -0.58395501       0.66008873       0.58721973      -0.98649549       0.20470542       0.25656908      -8.76859734
Si      14.42361630       8.35156910       5.92208988      -0.44838189       0.87455238      -0.70728957      -0.25082371       0.79182808      -0.12389558      -8.75895477
Si      16.36788476       9.50287676       9.09263281      -0.07361752      -0.60226165       0.21106354       0.50707001      -0.69098909      -0.36067878      -8.72699702
Si      14.41842807      10.64103433       2.69155461       0.37141731      -0.45644337      -0.03126484      -0.00282833      -1.21437459       0.09306781      -8.69819143
Si      16.44903551      11.63328541       5.84226261      -0.76303843       0.67955061       0.32101079      -0.31627669       0.11934105       0.59139872      -8.68745103
Si      18.25516723      12.84869835       9.01072843      -0.30424467       0.62473648       0.95682950      -0.84903839      -0.32660482       0.31721732      -8.72921197
Si      14.45079368       3.85465678       2.76206741      -0.37491708       0.81495554      -0.30207792      -0.13957869       0.57140425       0.31920517      -8.70249714
Si      16.28782860       5.07265143       5.77851636       0.26925628      -1.11951407       0.43072155      -0.18609583      -1.06568342       0.54988921      -8.68958184
Si      18.30352750       6.21170947       9.07580840      -0.65779053      -0.26685427      -0.98484966      -1.39770480      -1.36418979      -1.35627727      -8.52254099
Si      16.38154517       7.29344075       2.71438891       0.26802821       0.52608706       0.49156063      -0.23436892      -0.12950878       0.19985144      -8.74855618
Si      18.19463884       8.24078136       5.78314193       1.07913748      -0.85936097      -0.48544758       0.51029048       0.19842790       0.77136284      -8.73562412
Si      20.14287362       9.38773426       9.03337909      -0.24444349       0.03131073      -0.52148380       0.22841207       0.43958229      -0.17479779      -8.65782786
Si      18.37370385      10.52444417       2.74954630      -0.06063264      -0.91101018      -0.11724761      -0.44885223       1.05670745      -0.32041020      -8.49843171
Si      20.18809812      11.63058085       5.98526696       0.26153238      -0.33065636       0.76241609      -0.14829980      -0.30649939       0.46999980      -8.73115040
Si      22.12773327      12.67777917       9.01749711      -0.67237848       0.17865971      -1.08279444       0.12115547       0.84054767       0.26861393      -8.57752798
Si       2.92659112       1.69906519       3.68948213      -0.21870717       0.04367913      -0.41530196      -0.36218420      -0.14253940      -0.99681767      -8.74795955
Si       4.77946532       2.76740608       6.71457387       0.82327455       0.02837591      -0.59427420       0.43426037       0.67269424      -0.89250372      -8.67536624
Si       2.81527588       3.82277575       0.42077164      -0.72526577      -0.05908626       0.08259985       1.19126939       1.09918470       0.67816128      -8.74579631
Si       4.87999328       5.05266949       3.43080390       0.07343102      -1.21876319      -0.59448158      -0.60082202      -0.32462674       0.13410182      -8.73204325
Si       6.67844412       6.01528872       6.60509283       0.47514977      -0.00332283       0.02514621       0.57556159       0.42318148       0.67978622      -8.67461311
Si       4.84271529       7.19011583       0.39970223       0.54216584      -0.43998493      -1.11517267      -0.02522675      -0.93472638      -0.37834402      -8.71548156
Si       6.77421531       8.35208829       3.46656359       1.17170181      -1.21011659      -0.43639376       0.09533631      -0.70185005      -0.14166573      -8.75595346
Si       8.59127275       9.31096258       6.62939300      -1.11081370       0.38378902      -0.08343740      -0.32718416       0.80702327       0.46958820      -8.71718241
Si       4.72332393       0.64225512       0.42162467      -0.16772988       0.19529456       0.57739350       0.48194899      -0.05030710       0.20369383      -8.70218829
Si       6.74644710       1.62396180       3.59926354       0.38578648      -0.54549881       0.92129751      -0.39587019       0.40906102      -0.21467783      -8.74694192
Si       8.69289557       2.72446891       6.69638482      -0.62101197      -0.20546661      -0.17885197       0.66512250       0.36950676       0.07358239      -8.73173290
Si       6.79505793       3.78638225       0.37126838      -0.86427627       0.09202488       0.19070730      -0.36950638       0.09050751       0.17649917      -8.74558571
Si       8.64076388       4.96657733       3.57124665       0.24128044       0.58664160       0.33106566       0.10066195       0.09407112      -0.39173670      -8.73689154
Si      10.57034859       6.21431991       6.71389864      -0.98183157      -0.57905747       0.27302987      -0.10975973      -0.85659148      -0.43302041      -8.72121708
Si       8.68451319       7.20518183       0.41197028      -0.30108898      -1.02210047       0.78452454      -0.70821254       0.33202691      -0.15859418      -8.76400254
Si      10.63311982       8.29451304       3.51270397      -0.70851301      -0.38222046       0.61328367       0.14809968       0.24360726       0.27766025      -8.70015222
Si      12.50236812       9.53796645       6.68743471       0.39767618       0.10152074      -0.29114548       0.08363868      -0.81501523       0.24378450      -8.71894933
Si       8.64529658       0.47714986       0.31373018       0.08854003       0.79812595       0.46101696       0.53066361       0.64030320       0.69005091      -8.73804907
Si      10.58969763       1.63313260       3.47697707      -0.02804797      -0.08006200       0.69282636       0.53723142      -0.30177419       0.31126845      -8.74742509
Si      12.54813302       2.88282809       6.69867400      -0.97288596       0.66860085       0.15443813      -0.43900649      -0.61689134      -0.53820584      -8.73901122
Si      10.60612153       3.88569896       0.49133514      -0.48586246       0.13905665      -0.04944530      -0.60482736       0.26128834      -0.43355289      -8.69260457
Si      12.48342204       5.02890773       3.50188531      -0.24923447      -0.11506557       0.77061274       0.57932512      -0.40231525       0.28969563      -8.71814060
Si      14.38694665       6.18168488       6.64242925      -0.41656172       0.00205492      -0.00956181       0.38060955      -0.54121575       0.03014991      -8.76836804
Si      12.50754803       7.30474914       0.41118405      -0.77304697       0.17138576      -0.19647542       0.20798107      -0.28500271      -0.51630281      -8.75488746
Si      14.43537026       8.36305966       3.57268238       0.77520784       1.14303125      -0.24996081       0.64085417       0.55369384      -0.30957653      -8.70075791
Si      16.36950139       9.41441814       6.70526003      -0.67976271       0.82106118      -0.04502192       0.07956929       0.21894667      -0.07210931      -8.74055853
P        0.90786174       0.61618450       0.35648545       1.11977638      -1.09494824      -0.02409556       0.34336994      -0.38168965       0.37413765      -9.75638655
54
Lattice="11.5478352 0.0 0.0 5.773917198490155 10.000722372470358 0.0 5.773916394327279 3.333571176804646 9.428767828939895" Properties=species:S:1:pos:R:3:momenta:R:3:forces:R:3:energies:R:1 spacegroup="_JSON {\"number\": 1, \"setting\": 1}" unit_cell=conventional occupancy="_JSON {\"0\": {\"Si\": 1.0}, \"1\": {\"Si\": 1.0}, \"2\": {\"Si\": 1.0}, \"3\": {\"Si\": 1.0}, \"4\": {\"Si\": 1.0}, \"5\": {\"Si\": 1.0}, \"6\": {\"Si\": 1.0}, \"7\": {\"Si\": 1.0}, \"8\": {\"Si\": 1.0}, \"9\": {\"Si\": 1.0}, \"10\": {\"Si\": 1.0}, \"11\": {\"Si\": 1.0}, \"12\": {\"Si\": 1.0}, \"13\": {\"Si\": 1.0}, \"14\": {\"Si\": 1.0}, \"15\": {\"Si\": 1.0}, \"16\": {\"Si\": 1.0}, \"17\": {\"Si\": 1.0}, \"18\": {\"Si\": 1.0}, \"19\": {\"Si\": 1.0}, \"20\": {\"Si\": 1.0}, \"21\": {\"Si\": 1.0}, \"22\": {\"Si\": 1.0}, \"23\": {\"Si\": 1.0}, \"24\": {\"Si\": 1.0}, \"25\": {\"Si\": 1.0}, \"26\": {\"Si\": 1.0}, \"27\": {\"Si\": 1.0}, \"28\": {\"Si\": 1.0}, \"29\": {\"Si\": 1.0}, \"30\": {\"Si\": 1.0}, \"31\": {\"Si\": 1.0}, \"32\": {\"Si\": 1.0}, \"33\": {\"Si\": 1.0}, \"34\": {\"Si\": 1.0}, \"35\": {\"Si\": 1.0}, \"36\": {\"Si\": 1.0}, \"37\": {\"Si\": 1.0}, \"38\": {\"Si\": 1.0}, \"39\": {\"Si\": 1.0}, \"40\": {\"Si\": 1.0}, \"41\": {\"Si\": 1.0}, \"42\": {\"Si\": 1.0}, \"43\": {\"Si\": 1.0}, \"44\": {\"Si\": 1.0}, \"45\": {\"Si\": 1.0}, \"46\": {\"Si\": 1.0}, \"47\": {\"Si\": 1.0}, \"48\": {\"Si\": 1.0}, \"49\": {\"Si\": 1.0}, \"50\": {\"Si\": 1.0}, \"51\": {\"Si\": 1.0}, \"52\": {\"Si\": 1.0}, \"53\": {\"P\": 1.0}}" energy=-472.10310429952244 stress="-0.00023013360876778655 -0.0018044720813787441 -0.0013209384667529785 -0.0018044720813787441 0.0019314959130084135 -0.0006235587773888159 -0.0013209384667529785 -0.0006235587773888159 -0.0011078515111699633" free_energy=-472.10310429952244 pbc="T T T"
Si       6.82356982       3.83016837       2.74054782       1.15493170       0.22340339       0.09149036      -0.64919529      -0.10418778       0.04715237      -8.74299592
Si       8.70190382       4.93898874       5.89831993      -0.06303314       0.32884319       0.17878252      -0.47989108       0.24795146       0.27936519      -8.73963538
Si      10.55413526       6.15994055       9.03181348       0.88599274      -0.82976014       0.18606495      -0.30266444      -0.15585562       0.35266048      -8.75494123
Si       8.73897925       7.17027386       2.75428502       0.39735432      -0.88265687       0.85239528      -0.16514565      -0.09324779       0.06075942      -8.75311990
Si      10.62852411       8.38791043       5.88460311       0.52078376      -0.00710880      -0.40811448      -0.91340934      -0.19000631       0.36854454      -8.70002350
Si      12.59436280       9.39060123       9.00700244       0.03558310       0.91028495      -0.66143719      -0.60865050      -0.40316783       0.36714021      -8.74424071
Si      10.61122058      10.56160420       2.82986695       1.32352057      -0.32654392      -0.01287231      -0.46281649      -0.08152459      -0.12957823      -8.73721690
Si      12.52949897      11.70942081       5.96347606      -0.60673641      -0.48166344      -0.04775686      -0.04748621      -0.16161089      -0.37638567      -8.75583291
Si      14.35595806      12.80574520       9.08917385      -0.32325753      -0.33340786       0.17439467       0.81197601      -0.52762647      -0.23608649      -8.56603934
Si      10.58645796       3.90177751       2.78866394       0.14735610       1.10008268      -0.92624231       0.03166504      -0.39754390       0.20127625      -8.74017232
Si      12.43519330       5.11737545       5.84721063      -0.99240385       0.56569132      -0.11548332       0.25849396      -0.49901357       0.67386561      -8.76201007
Si      14.51183057       6.05973046       9.00517357       0.17368304       0.89597299       0.53193343      -0.70117035       0.44113825      -0.07825120      -8.73360830
Si      12.56612596       7.26142087       2.75735827      -1.40225312       0.73859294       0.73897684       0.02982798      -0.13147427      -0.10715733      -8.72336352
Si      14.39820030       8.41652070       5.88376780      -0.33332296       1.32686434      -0.69826971       0.47892344      -0.28184091       0.08937818      -8.76553938
Si      16.37770594       9.45172994       9.08730213       0.29913459      -1.15349603      -0.44907455      -0.06215564       0.07378432      -0.49163789      -8.74623492
Si      14.43852238      10.58246892       2.69748046       0.41765299      -1.43830404       0.33147893       0.08325789       0.12621209       0.36343887      -8.74730282
Si      16.40110967      11.67103195       5.88033427      -0.95475586       0.69157365       1.04968599       0.11433942      -0.14955830       0.26411752      -8.76121883
Si      18.21165633      12.87004048       9.06517398      -1.16500220       0.22118158       0.94570594      -0.10633374      -0.20924516      -0.35832545      -8.74565439
Si      14.42584498       3.90962383       2.76039741      -0.55323998       1.06409186       0.24847300      -0.04463043      -0.28009260       0.34171977      -8.76526944
Si      16.29627558       4.98425177       5.81403294       0.11895147      -1.93518065       0.73287794       0.05772846       0.19423869      -0.20310139      -8.71696310
Si      18.22976575       6.15146122       8.98750166      -1.74879305      -1.80997439      -1.94744239       0.13379058      -0.51730738       0.33315757      -8.55180662
Si      16.38887932       7.30493537       2.73716016       0.06767128      -0.29176409       0.17906842      -0.01540969      -0.91197270      -0.56611190      -8.71399642
Si      18.25649493       8.21163859       5.78662484       1.01344969      -0.11241848       0.54634558      -0.53004832       0.73479991       0.48971902      -8.70760932
Si      20.13735382       9.40509307       9.00331888       0.01673686       0.58959485      -0.53276667       0.15559414       0.27282157       0.18693333      -8.70703276
Si      18.35608533      10.51364766       2.73487721      -0.53306371       0.33938154      -0.35513521      -0.13911329       0.43572424       0.01803375      -8.55044635
Si      20.19065405      11.61132575       6.03116692      -0.23887330      -0.18561613       0.71104477      -0.43807730       0.54120547      -0.59917428      -8.70393619
Si      22.10197658      12.71293488       8.97584541      -0.21149311       0.98598025      -0.44803309       0.49502229       0.15511873       0.48995661      -8.55134175
Si       2.90609498       1.69570480       3.63684264      -0.44773291      -0.16641038      -1.39988156       0.08534873      -0.11623392      -0.24357363      -8.71559195
Si       4.83042491       2.78999368       6.65559870       0.90523539       0.67522693      -1.43344046      -0.40281886       0.03458323      -0.02136506      -8.75919950
Si       2.81707226       3.85471357       0.43897810       0.55134763       1.05671485       0.31982022       0.29519498       0.25564447      -0.42741469      -8.75309794
Si       4.86479337       4.98636676       3.41107375      -0.53952051      -1.11470104      -0.02700280      -0.15095564       0.43466741       0.63306170      -8.71012533
Si       6.71928608       6.02439636       6.62625427       0.90272372       0.19579310       0.60197164      -0.12093746      -0.17226112      -0.03347033      -8.74239723
Si       4.86507335       7.14235263       0.33514892       0.19573943      -1.09122819      -1.17897521      -0.46735664       0.19199428       0.28336952      -8.70436926
Si       6.83458306       8.27077843       3.44165429       0.99853085      -1.63509718      -0.41836766      -0.42402657       0.28606637       0.22973663      -8.75189610
Si       8.53864608       9.35412017       6.64082121      -0.55639807       1.08129743       0.46715519       0.98223662       0.09382044       0.25500249      -8.74448604
Si       4.73064978       0.64786697       0.45863804       0.36240098      -0.04609715       0.80056926       0.14579707      -0.29520189       0.07030354      -8.72965196
Si       6.75876244       1.61413476       3.63394641       0.24329961       0.19299736       0.29808211       0.21849207       0.49013639      -0.60868312      -8.72760944
Si       8.68409070       2.73024481       6.69444601       0.16138979       0.44249017       0.16659847       0.18092285       0.42738020       0.31677569      -8.72415605
Si       6.74831832       3.79870067       0.38330734      -0.65963219       0.45712611       0.18272094       0.62478904       0.38978069      -0.15420958      -8.71918836
Si       8.66119754       4.99745118       3.57338532       0.59223140       0.49822324      -0.19876452       0.30484662      -0.27809385      -0.18969971      -8.75327459
Si      10.52054367       6.16227316       6.70882591      -0.79340447      -1.13736750      -0.46058666       0.37235610       0.19072426      -0.39127881      -8.73363531
Si       8.65128883       7.17049421       0.44325535      -0.72116839      -0.22164606       0.36072475       0.23619421       0.63453368      -0.34451213      -8.72323842
Si      10.60747890       8.28877607       3.55181423      -0.20318973       0.24048589       0.78160703       0.39670685       0.53605780      -0.09980343      -8.74450483
Si      12.52440213       9.51509677       6.68035529       0.37247579      -0.85126879      -0.01570564      -0.19110010      -0.33713444       0.09945702      -8.75354125
Si       8.66633882       0.53679269       0.35885045       0.57823327       1.30883351       1.10895408       0.01133966      -0.01018209       0.09893701      -8.75676438
Si      10.60611802       1.62475399       3.51787993       0.54109236      -0.08861375       0.72593117       0.10010152       0.28269092      -0.23259115      -8.71732416
Si      12.48774151       2.89564291       6.69157014      -1.17275477      -0.11924801      -0.28081720       0.18171754      -0.37417564       0.02513706      -8.71322925
Si      10.56458999       3.89958305       0.46904996      -0.92394130       0.29986498      -0.82939938       0.08282371      -0.09332264      -0.52868783      -8.74580117
Si      12.49227459       5.01728659       3.54386277       0.52493478      -0.12643295       0.64461725       0.32497180       0.38169442      -0.42315069      -8.74837600
Si      14.38131516       6.16624668       6.64087239       0.20732344      -0.46512590      -0.08288696       0.39716761      -0.05526116      -0.09563762      -8.72567549
Si      12.47937311       7.30277534       0.38875885      -0.24140913      -0.23724957      -0.48336605       0.43291746      -0.24140020       0.16445983      -8.75539702
Si      14.49003315       8.43274498       3.54703393       1.06242874       1.21405010      -0.69704124      -0.31145168      -0.63121894      -0.17578194      -8.75006257
Si      16.34439714       9.45733954       6.69793749      -0.16488902       0.65550969      -0.25367258       0.52096389      -0.40632810      -0.15114696      -8.70352347
P        0.96011124       0.55744322       0.36677424       0.77807934      -1.21177155       0.40506529      -0.81066280       0.25332077       0.16335732      -9.80943493
54
Lattice="11.5478352 0.0 0.0 5.773917198490155 10.000722372470358 0.0 5.773916394327279 3.333571176804646 9.428767828939895" Properties=species:S:1:pos:R:3:momenta:R:3:forces:R:3:energies:R:1 spacegroup="_JSON {\"number\": 1, \"setting\": 1}" unit_cell=conventional occupancy="_JSON {\"0\": {\"Si\": 1.0}, \"1\": {\"Si\": 1.0}, \"2\": {\"Si\": 1.0}, \"3\": {\"Si\": 1.0}, \"4\": {\"Si\": 1.0}, \"5\": {\"Si\": 1.0}, \"6\": {\"Si\": 1.0}, \"7\": {\"Si\": 1.0}, \"8\": {\"Si\": 1.0}, \"9\": {\"Si\": 1.0}, \"10\": {\"Si\": 1.0}, \"11\": {\"Si\": 1.0}, \"12\": {\"Si\": 1.0}, \"13\": {\"Si\": 1.0}, \"14\": {\"Si\": 1.0}, \"15\": {\"Si\": 1.0}, \"16\": {\"Si\": 1.0}, \"17\": {\"Si\": 1.0}, \"18\": {\"Si\": 1.0}, \"19\": {\"Si\": 1.0}, \"20\": {\"Si\": 1.0}, \"21\": {\"Si\": 1.0}, \"22\": {\"Si\": 1.0}, \"23\": {\"Si\": 1.0}, \"24\": {\"Si\": 1.0}, \"25\": {\"Si\": 1.0}, \"26\": {\"Si\": 1.0}, \"27\": {\"Si\": 1.0}, \"28\": {\"Si\": 1.0}, \"29\": {\"Si\": 1.0}, \"30\": {\"Si\": 1.0}, \"31\": {\"Si\": 1.0}, \"32\": {\"Si\": 1.0}, \"33\": {\"Si\": 1.0}, \"34\": {\"Si\": 1.0}, \"35\": {\"Si\": 1.0}, \"36\": {\"Si\": 1.0}, \"37\": {\"Si\": 1.0}, \"38\": {\"Si\": 1.0}, \"39\": {\"Si\": 1.0}, \"40\": {\"Si\": 1.0}, \"41\": {\"Si\": 1.0}, \"42\": {\"Si\": 1.0}, \"43\": {\"Si\": 1.0}, \"44\": {\"Si\": 1.0}, \"45\": {\"Si\": 1.0}, \"46\": {\"Si\": 1.0}, \"47\": {\"Si\": 1.0}, \"48\": {\"Si\": 1.0}, \"49\": {\"Si\": 1.0}, \"50\": {\"Si\": 1.0}, \"51\": {\"Si\": 1.0}, \"52\": {\"Si\": 1.0}, \"53\": {\"P\": 1.0}}" energy=-471.47224366796974 stress="-0.0012338259628505907 0.0008944850133545963 0.000797359397511753 0.0008944850133545963 -0.0016223232791344824 0.00031840820024730225 0.000797359397511753 0.00031840820024730225 -0.00024487253596219843" free_energy=-471.47224366796974 pbc="T T T"
Si       6.85279223       3.83898578       2.74576683      -0.11321777       0.16586018       0.07975830      -0.91917583       0.10084434      -0.05835204      -8.72729129
Si       8.67966402       4.96020792       5.91230500      -0.74398059       0.38310529       0.22687793      -0.30179645      -0.12936768      -0.21171882      -8.73977208
Si      10.58216751       6.11638596       9.05186045       0.10859092      -0.70190286       0.49495242      -0.59136359       0.34944644       0.03114746      -8.74556413
Si       8.75800740       7.12875535       2.79179464       0.40303233      -0.51451936       0.41406160       0.11075936       0.61668911      -0.56635636      -8.73143443
Si      10.61623383       8.37846291       5.88611886      -0.98899153      -0.36188982       0.57142541      -0.89721753      -0.22064250       0.76264985      -8.67834255
Si      12.57418455       9.41551419       8.98904764      -0.73598353      -0.02287576       0.01070165      -0.33494099      -0.63460456       0.49117176      -8.75933894
Si      10.65551320      10.54651164       2.82736156       0.28038691      -0.13733761      -0.01621868      -0.78792029       0.35524911       0.13235041      -8.73103116
Si      12.50661493      11.67786622       5.94922485      -0.09941603      -0.70242957      -0.43794750       0.58879578      -0.07930400      -0.14804040      -8.73335505
Si      14.37465291      12.77091431       9.09177265       1.02042322      -0.87382089      -0.00510889       0.73804781      -0.05094637       0.03701388      -8.57348833
Si      10.60014984       3.93694472       2.75021203       0.46584185       0.14198290      -0.53050108       0.37688740      -0.77911460       0.24190646      -8.70846171
Si      12.40058691       5.12224041       5.86698544      -0.18276764      -0.45306597       0.79605597       0.80810980      -0.76643757       0.38489808      -8.75668039
Si      14.48690432       6.11959095       9.02521960      -1.18520108       1.25934637       0.13880250      -0.91078669      -0.05825251      -0.43863163      -8.75397940
Si      12.50784265       7.29131365       2.78673797      -0.58157774       0.34051734       0.28716013       0.94534837      -0.35828290      -0.46622873      -8.68021949
Si      14.40713890       8.46295256       5.84977768       0.76377960       0.23983588      -0.60456013       0.80301009      -1.07194032       0.07467833      -8.73017370
Si      16.38575570       9.40551724       9.04558791      -0.05152331      -0.40779162      -1.09328027      -0.29440917       0.84378046      -0.28732302      -8.72969497
Si      14.46521529      10.53352576       2.72779478       0.61922257      -0.08134724       0.77038657       0.15716362       1.42138985       0.16234377      -8.74330550
Si      16.36042950      11.69766782       5.93717312      -0.51853945       0.25600501       0.94441645       0.40875263      -0.40391195      -0.40734339      -8.77275836
Si      18.16091676      12.87371191       9.09536138      -0.49863360      -0.09920272       0.13106524       0.94359653      -0.26914739      -0.63547377      -8.70327311
Si      14.39877695       3.94596896       2.78081648      -0.39084545       0.18609014       0.38020877       0.29383701      -0.79715273      -0.23954490      -8.78679596
Si      16.30842094       4.91197255       5.83582523       0.39089388      -0.43648534      -0.02769360       0.24022961       1.63705137      -0.66689985      -8.69220512
Si      18.15823961       6.04919516       8.92085352      -0.75423802      -1.85331025      -0.24613122       1.02976870       0.42303321       1.65521795      -8.46077126
Si      16.39429077       7.25199723       2.72140466       0.16643525      -1.69549277      -0.78971826       0.09151074      -0.77162425      -0.59565974      -8.70940970
Si      18.28475338       8.23446270       5.82729383       0.04212631       0.94415709       0.88009855      -0.60522203       0.57199230      -0.00172779      -8.69296764
Si      20.14409872       9.44322243       8.98664129       0.22873614       0.78994413      -0.03647516       0.10041645      -0.02325396       0.43949783      -8.76666641
Si      18.32718210      10.53555986       2.72023182      -0.49445087       0.27469117      -0.14938261       0.14911276      -0.43003289       0.23201000      -8.57728845
Si      20.16250330      11.62993936       6.03519301      -0.78191485       0.96379278      -0.70004482      -0.22754407       0.78373951      -1.14373783      -8.65633655
Si      22.11088514      12.76212669       8.96882173       0.52001317       0.74732417       0.12956738       0.35766832      -0.40437615       0.28993937      -8.53150128
Si       2.89025146       1.68423992       3.56328086      -0.09698333      -0.22907079      -1.23613876       0.31249469       0.04640588       0.42128265      -8.67075455
Si       4.85357695       2.81186175       6.59523761      -0.14210889      -0.11361554      -0.59858460      -0.85627387      -0.97961886       1.00584067      -8.74595587
Si       2.84520385       3.90864335       0.43171662       0.33567507       0.79906095      -0.64849508      -0.44654858      -0.53965956      -0.63075015      -8.65668576
Si       4.83760298       4.94825740       3.43674485      -0.37932743      -0.30922249       1.00339559       0.30512477       0.54121121       0.60339700      -8.70168790
Si       6.75181470       6.02450201       6.64473940       0.15531864      -0.19857890      -0.07968677      -0.83169649      -0.19370508      -0.71399662      -8.73806205
Si       4.85384745       7.10631633       0.28955005      -0.64429625      -0.06179635      -0.46797728      -0.52801552       1.04837298       0.63666876      -8.68265489
Si       6.86274905       8.20821389       3.43385424      -0.05483427      -0.55927012       0.20158595      -0.90995060       1.02003403       0.53238179      -8.70408539
Si       8.55220369       9.40738920       6.67109105       1.07217830       0.84666272       0.58866398       0.96057291      -0.29943699      -0.13305841      -8.75786849
Si       4.74849139       0.63199884       0.50118287       0.19717999      -0.57490608       0.76156077      -0.31574568      -0.35053467      -0.17108917      -8.75213884
Si       6.78459869       1.63898142       3.62473707       0.77330899       0.64842083      -0.64301796       0.33439287       0.07253994      -0.57152066      -8.73072056
Si       8.68726817       2.76664699       6.71465680      -0.24412350       0.85291598       0.56728883      -0.59970021       0.05540611       0.16757237      -8.72290315
Si       6.74171890       3.83864034       0.38613004       0.38684229       1.03842801      -0.06714392       0.52546674       0.27385014      -0.11929192      -8.72563556
Si       8.70212947       5.00560393       3.56295019       0.89280520      -0.32378708      -0.06928514       0.00831310      -0.78515857       0.30354253      -8.74627266
Si      10.49633606       6.12115018       6.67863853      -0.10165262      -0.26803218      -0.48998860       0.47233251       0.81014484       0.38199847      -8.72654383
Si       8.63202531       7.17929446       0.45006386       0.10649058       0.43047478      -0.07914444       0.69818567       0.12980108      -0.25759645      -8.69396453
Si      10.60722877       8.32103431       3.58485228       0.08097918       0.92804528       0.42090298      -0.03066062       0.28449711      -0.31400993      -8.75841342
Si      12.53191863       9.46539484       6.68070993      -0.14786849      -0.91732391      -0.02120624      -0.41379137       0.15515918      -0.10029364      -8.75913173
Si       8.68953885       0.59891789       0.41286571       0.18637874       0.96181334       0.80368338      -0.45653566      -0.39684325      -0.47715192      -8.71537424
Si      10.63045729       1.63565061       3.54553792       0.26015480       0.56505874       0.33206685      -0.38474018       0.51630089      -0.22235697      -8.67918986
Si      12.43862507       2.88060028       6.68551066      -0.61035536      -0.34795072       0.17414025       0.52737924       0.04229222       0.50605051      -8.71661202
Si      10.52828554       3.90675230       0.40973044      -0.30607973      -0.10783548      -1.30134800       0.67276221      -0.40490728      -0.01799203      -8.75548753
Si      12.52304082       5.03148926       3.55972415       0.45738838       0.73507513      -0.01200524      -0.40866510       0.62877780      -0.31690051      -8.75382182
Si      14.40460345       6.14468254       6.63343680       0.61004800      -0.27497780      -0.17790359       0.11559582       0.27078728      -0.00899729      -8.66549701
Si      12.48052952       7.28308805       0.37607550       0.20215664      -0.46123921       0.08530803       0.10597342      -0.03391844       0.49410042      -8.73898763
Si      14.52579846       8.45413202       3.50977826       0.20051177      -0.68364518      -0.61623932      -0.70076848      -1.68218468       0.21974309      -8.71490571
Si      16.35567354       9.47314758       6.67968951       0.56202116      -0.07147432      -0.42257037       0.38443095      -0.47077203      -0.07507902      -8.72341290
P        0.96349686       0.51224121       0.38760345      -0.64000855      -0.65441026       0.37366207      -0.81257087       0.38633537      -0.21028045      -9.86336881
54
Lattice="11.5478352 0.0 0.0 5.773917198490155 10.000722372470358 0.0 5.773916394327279 3.333571176804646 9.428767828939895" Properties=species:S:1:pos:R:3:momenta:R:3:forces:R:3:energies:R:1 spacegroup="_JSON {\"number\": 1, \"setting\": 1}" unit_cell=conventional occupancy="_JSON {\"0\": {\"Si\": 1.0}, \"1\": {\"Si\": 1.0}, \"2\": {\"Si\": 1.0}, \"3\": {\"Si\": 1.0}, \"4\": {\"Si\": 1.0}, \"5\": {\"Si\": 1.0}, \"6\": {\"Si\": 1.0}, \"7\": {\"Si\": 1.0}, \"8\": {\"Si\": 1.0}, \"9\": {\"Si\": 1.0}, \"10\": {\"Si\": 1.0}, \"11\": {\"Si\": 1.0}, \"12\": {\"Si\": 1.0}, \"13\": {\"Si\": 1.0}, \"14\": {\"Si\": 1.0}, \"15\": {\"Si\": 1.0}, \"16\": {\"Si\": 1.0}, \"17\": {\"Si\": 1.0}, \"18\": {\"Si\": 1.0}, \"19\": {\"Si\": 1.0}, \"20\": {\"Si\": 1.0}, \"21\": {\"Si\": 1.0}, \"22\": {\"Si\": 1.0}, \"23\": {\"Si\": 1.0}, \"24\": {\"Si\": 1.0}, \"25\": {\"Si\": 1.0}, \"26\": {\"Si\": 1.0}, \"27\": {\"Si\": 1.0}, \"28\": {\"Si\": 1.0}, \"29\": {\"Si\": 1.0}, \"30\": {\"Si\": 1.0}, \"31\": {\"Si\": 1.0}, \"32\": {\"Si\": 1.0}, \"33\": {\"Si\": 1.0}, \"34\": {\"Si\": 1.0}, \"35\": {\"Si\": 1.0}, \"36\": {\"Si\": 1.0}, \"37\": {\"Si\": 1.0}, \"38\": {\"Si\": 1.0}, \"39\": {\"Si\": 1.0}, \"40\": {\"Si\": 1.0}, \"41\": {\"Si\": 1.0}, \"42\": {\"Si\": 1.0}, \"43\": {\"Si\": 1.0}, \"44\": {\"Si\": 1.0}, \"45\": {\"Si\": 1.0}, \"46\": {\"Si\": 1.0}, \"47\": {\"Si\": 1.0}, \"48\": {\"Si\": 1.0}, \"49\": {\"Si\": 1.0}, \"50\": {\"Si\": 1.0}, \"51\": {\"Si\": 1.0}, \"52\": {\"Si\": 1.0}, \"53\": {\"P\": 1.0}}" energy=-472.25065516021044 stress="-0.0004539495794331561 0.001632705574150953 0.001204113724890252 0.001632705574150953 -0.0012819769867647042 0.0006579252017505307 0.001204113724890252 0.0006579252017505307 0.0007978142321222455" free_energy=-472.25065516021044 pbc="T T T"
Si       6.81680286       3.85628576       2.74751138      -1.10568649       0.56199871      -0.00597589      -0.30629483       0.35258424      -0.02824624      -8.72502689
Si       8.63758564       4.97508580       5.91340530      -0.67985496       0.20495951      -0.19494255       0.38649643      -0.05194556      -0.24581996      -8.75562470
Si      10.56942509       6.09708608       9.07576255      -0.48610039       0.01289489       0.36306462      -0.16639654       0.52012967      -0.17842415      -8.71361082
Si       8.78125481       7.12910175       2.79251078       0.39726318       0.52531124      -0.31386145      -0.21740508       0.59896618      -0.28205592      -8.74625096
Si      10.54154249       8.35351920       5.93823707      -1.55635089      -0.52850733       1.19643057       0.29560887       0.01417900      -0.09427207      -8.75230110
Si      12.52822246       9.39997249       9.00582710      -0.91178509      -0.31332243       0.53845569       0.07896370       0.36330220       0.12664750      -8.75747543
Si      10.64517917      10.55727410       2.83412226      -0.53095090       0.59690680       0.30047937      -0.21924703       0.53030996       0.22709305      -8.74129247
Si      12.52141739      11.64105999       5.92231641       0.54845697      -0.63052814      -0.55650439       0.13735106       0.18946592      -0.01916331      -8.74077253
Si      14.44480998      12.73240883       9.09628524       1.38848535      -0.43719195       0.21269638      -0.30673190       0.54689284       0.17029449      -8.57257169
Si      10.64017021       3.91752683       2.72791939       1.03201197      -0.76701020      -0.39129352       0.25807829      -0.31209799      -0.03917830      -8.72584568
Si      12.42314395       5.07393807       5.91480593       0.99696133      -1.21800923       0.85457903       0.61353495      -0.08796340      -0.29059783      -8.75237905
Si      14.40100427       6.17555484       9.01375242      -1.77017528       0.72200245      -0.58524712       0.33283586      -0.64789759      -0.46401828      -8.76502407
Si      12.51201881       7.29761651       2.78382365       0.60664418      -0.02708950      -0.36677299       0.40797249      -0.07570926      -0.33868955      -8.74737805
Si      14.46999334       8.43290072       5.82289193       1.40532122      -1.35437172      -0.37196040      -0.08160097      -0.92949296       0.25001274      -8.73626241
Si      16.37479762       9.41644325       8.98380662      -0.28032702       0.74236996      -1.10153185       0.04304839       0.51279957       0.33818719      -8.73011640
Si      14.50362387      10.57420582       2.77146433       0.82038003       1.28474937       0.81606368       0.05274614       0.09089992      -0.16496178      -8.78585260
Si      16.34673353      11.69705146       5.96708131      -0.07279781      -0.21244567       0.15506162       0.13983649      -0.13685737      -0.56095898      -8.73370500
Si      18.17547874      12.85696525       9.08261240       1.05869204      -0.54327432      -0.46475708       0.94681972      -0.27820291      -0.03131222      -8.70192800
Si      14.39192832       3.92790237       2.78467425       0.13902919      -0.74940483      -0.32824451       0.32190038      -0.29740650      -0.60348164      -8.75813458
Si      16.33667743       4.94636963       5.81638310       0.61398436       1.46004757      -0.47473805      -0.05985668       0.52698131       0.25455280      -8.75971923
Si      18.16007495       5.97511130       8.96435775       0.81744922      -0.84768614       1.62213773       0.97949158       0.89693703       0.55248784      -8.49109460
Si      16.40503519       7.14419022       2.66381173       0.20184046      -2.14268858      -1.22488817      -0.06708416       0.30028510       0.12356084      -8.73612935
Si      18.27290052       8.29872569       5.87085942      -0.26712959       1.32674567       0.73435753       0.28325505      -0.13659116      -0.19166516      -8.70484274
Si      20.15714603       9.48047928       9.00062483       0.20045356       0.56288715       0.51491530      -0.16229167      -0.28776265       0.21990289      -8.78661396
Si      18.30632281      10.53046983       2.72230012      -0.33428191      -0.46678384       0.23758354       0.02196465      -0.41669474       0.26337534      -8.57491041
Si      20.11733530      11.70099025       5.95742368      -0.83689656       1.49116550      -2.12886151       0.17796949      -0.19969484      -0.58887748      -8.69205545
Si      22.14298960      12.78465189       8.98481089       0.49166512       0.11836945       0.44041576      -0.47049642      -0.36999359       0.12450760      -8.56261952
Si       2.89466436       1.67566989       3.51724439       0.18186019      -0.07319095      -0.49965813      -0.01707936       0.14028028       0.48782959      -8.71818259
Si       4.81761027       2.77257352       6.60077111      -1.07766668      -1.16378369       0.67878272      -0.25340137      -0.14463631       0.49761831      -8.75318259
Si       2.84389215       3.92529829       0.38139160      -0.38143219      -0.21607040      -1.07922622      -0.42235153      -0.72874162       0.11664354      -8.64357667
Si       4.82939821       4.94731490       3.50350960       0.02984750       0.13812916       1.29902370       0.16100435       0.00964032      -0.35045124      -8.75256090
Si       6.72529986       6.01431973       6.61923455      -1.13401901      -0.01606486      -0.68419395      -0.66377409       0.47811957       0.08801837      -8.74480161
Si       4.80712920       7.14327925       0.28946585      -0.94655728       1.38936513       0.43067512       0.21008531       0.71158561       0.48955139      -8.72639906
Si       6.82690048       8.21577459       3.46306896      -1.21485189       0.73362776       0.83567806      -0.52323064       0.56244507       0.22879254      -8.71001935
Si       8.63199768       9.44500318       6.69269639       1.62564530       0.72515005       0.18145556      -0.39473214       0.23181970      -0.33319779      -8.76482991
Si       4.74754001       0.59110658       0.53025363      -0.15534681      -0.89822451       0.25910601      -0.00548120      -0.00455959      -0.50081299      -8.76799802
Si       6.83167909       1.67087936       3.57410652       0.85470013       0.49408005      -1.15482594      -0.31608474      -0.21046801      -0.04581272      -8.74812659
Si       8.65194834       2.80682097       6.74711119      -1.01658792       0.54324050       0.58821645      -0.26533701      -0.46621175      -0.15210393      -8.73441691
Si       6.76776067       3.89770312       0.38235441       0.28232250       1.07453277       0.02987725      -0.72340281      -0.26841124       0.29262052      -8.75553082
Si       8.74395305       4.95991301       3.56998022       0.60279406      -1.30101502       0.25509908      -0.37342672      -0.31994182      -0.01704547      -8.75090467
Si      10.50558177       6.13279118       6.67401251       0.37785734       0.52161358       0.39312802       0.17641077       0.06395272       0.68714984      -8.74048359
Si       8.66006835       7.19707256       0.43655903       0.82831420       0.07248166      -0.42037542       0.16793232      -0.54013351      -0.18772693      -8.71583152
Si      10.60798915       8.37340350       3.59789082      -0.05595128       0.90875558       0.15528749      -0.05174022      -0.33504089      -0.01071411      -8.74317422
Si      12.51275866       9.42210114       6.67419262      -0.45544701      -0.77380498      -0.24038473       0.07776520       0.00862157      -0.14714362      -8.74299248
Si       8.68165773       0.63420480       0.43405568      -0.45270772       0.39772300      -0.01435696      -0.31507100      -0.33830892      -0.53879891      -8.67977089
Si      10.63164255       1.68336805       3.55800221      -0.11082605       1.17385442       0.21493224       0.02161021       0.18878203       0.05941936      -8.71308567
Si      12.42620884       2.86548198       6.71388836       0.09701803      -0.23472384       0.84783787       0.36646538       0.01608097       0.26005128      -8.77509141
Si      10.53713008       3.88592189       0.34689337       0.55917315      -0.63979015      -0.98709021       0.34055110      -0.21535234       0.40429895      -8.75342980
Si      12.52835356       5.08739772       3.55332715      -0.24197602       1.18107526      -0.11335954      -0.35519697      -0.21852585       0.14529061      -8.75600447
Si      14.43738150       6.14176485       6.62505687       0.56767348       0.16168160      -0.11941895      -0.16731923       0.25146061       0.07776789      -8.67886663
Si      12.49003826       7.26029664       0.39684455       0.07331619      -0.35740453       0.60978753      -0.23260405       0.16183635       0.10999868      -8.73225180
Si      14.51416998       8.36296216       3.48311265      -0.48693926      -2.45308747      -0.47459922      -0.07136687      -0.36935528      -0.04274609      -8.73660585
Si      16.39459275       9.45666576       6.65483479       0.78584993      -0.41966692      -0.51661253      -0.15767548       0.06871892      -0.03659442      -8.78413251
P        0.91678052       0.49063203       0.39705914      -1.02236420      -0.34057760       0.04855336       0.36698254       0.05092099      -0.11080204      -9.87886694
54
Lattice="11.5478352 0.0 0.0 5.773917198490155 10.000722372470358 0.0 5.773916394327279 3.333571176804646 9.428767828939895" Properties=species:S:1:pos:R:3:momenta:R:3:forces:R:3:energies:R:1 spacegroup="_JSON {\"number\": 1, \"setting\": 1}" unit_cell=conventional occupancy="_JSON {\"0\": {\"Si\": 1.0}, \"1\": {\"Si\": 1.0}, \"2\": {\"Si\": 1.0}, \"3\": {\"Si\": 1.0}, \"4\": {\"Si\": 1.0}, \"5\": {\"Si\": 1.0}, \"6\": {\"Si\": 1.0}, \"7\": {\"Si\": 1.0}, \"8\": {\"Si\": 1.0}, \"9\": {\"Si\": 1.0}, \"10\": {\"Si\": 1.0}, \"11\": {\"Si\": 1.0}, \"12\": {\"Si\": 1.0}, \"13\": {\"Si\": 1.0}, \"14\": {\"Si\": 1.0}, \"15\": {\"Si\": 1.0}, \"16\": {\"Si\": 1.0}, \"17\": {\"Si\": 1.0}, \"18\": {\"Si\": 1.0}, \"19\": {\"Si\": 1.0}, \"20\": {\"Si\": 1.0}, \"21\": {\"Si\": 1.0}, \"22\": {\"Si\": 1.0}, \"23\": {\"Si\": 1.0}, \"24\": {\"Si\": 1.0}, \"25\": {\"Si\": 1.0}, \"26\": {\"Si\": 1.0}, \"27\": {\"Si\": 1.0}, \"28\": {\"Si\": 1.0}, \"29\": {\"Si\": 1.0}, \"30\": {\"Si\": 1.0}, \"31\": {\"Si\": 1.0}, \"32\": {\"Si\": 1.0}, \"33\": {\"Si\": 1.0}, \"34\": {\"Si\": 1.0}, \"35\": {\"Si\": 1.0}, \"36\": {\"Si\": 1.0}, \"37\": {\"Si\": 1.0}, \"38\": {\"Si\": 1.0}, \"39\": {\"Si\": 1.0}, \"40\": {\"Si\": 1.0}, \"41\": {\"Si\": 1.0}, \"42\": {\"Si\": 1.0}, \"43\": {\"Si\": 1.0}, \"44\": {\"Si\": 1.0}, \"45\": {\"Si\": 1.0}, \"46\": {\"Si\": 1.0}, \"47\": {\"Si\": 1.0}, \"48\": {\"Si\": 1.0}, \"49\": {\"Si\": 1.0}, \"50\": {\"Si\": 1.0}, \"51\": {\"Si\": 1.0}, \"52\": {\"Si\": 1.0}, \"53\": {\"P\": 1.0}}" energy=-471.68078252019654 stress="2.3865098208757688e-05 -0.0002965483185083969 -0.00033380824993661286 -0.0002965483185083969 -0.000575774547569622 0.0003977501336415157 -0.00033380824993661286 0.0003977501336415157 -0.0004639100221859357" free_energy=-471.68078252019654 pbc="T T T"
Si       6.75767369       3.89651993       2.74792446      -0.93303349       0.86619339       0.05916435       0.53760198      -0.06060775       0.11485618      -8.73234466
Si       8.61930952       4.98656770       5.89870411      -0.01877599       0.26906899      -0.25384060       0.38461979       0.08338034       0.18285810      -8.76465946
Si      10.54270847       6.11352770       9.08812678      -0.44229565       0.49589222       0.12887391       0.18905081       0.05412912      -0.09413772      -8.70739412
Si       8.78788942       7.17190198       2.77248205      -0.24372557       0.93791901      -0.32023347      -0.59824209      -0.06144797       0.22229572      -8.70776750
Si      10.48669904       8.32823887       5.98487947      -0.30379103      -0.39900726       0.38898000       1.16431928       0.16363050      -0.82698939      -8.76282431
Si      12.48597539       9.40950811       9.03154429      -0.64761741       0.82687825       0.30520986       0.28314171       0.92154027      -0.40077202      -8.71851907
Si      10.61781719      10.60410000       2.85548563      -0.35288458       1.03757188       0.42294053       0.39818730      -0.06152697      -0.12869245      -8.74729442
Si      12.54569742      11.61628387       5.89308942       0.19566526      -0.31349159      -0.53826422      -0.56571113       0.19034786       0.05956403      -8.73730262
Si      14.49453270      12.72873577       9.11116969       0.31492851       0.20609896       0.28447644      -1.04236602       0.19675459      -0.09687847      -8.55128404
Si      10.69780800       3.87620560       2.70338749       1.01366408      -0.58970530      -0.57161981      -0.33460936       0.53203174      -0.14331466      -8.74346186
Si      12.48994169       5.01917619       5.94433422       1.34661332      -0.65195881       0.22339809      -0.18608974       0.74252112      -0.47121562      -8.72250795
Si      14.33550984       6.18666849       8.96965962      -0.53516465      -0.27668123      -0.95571554       1.06357637      -0.54774211       0.09717164      -8.74138873
Si      12.54340923       7.29698422       2.75609368       0.28130648       0.04020309      -0.58625889      -0.77608657       0.06738556       0.07917989      -8.77955614
Si      14.52927923       8.33532213       5.81241836       0.66874107      -2.11363702      -0.06504603      -0.80319988       0.07920420       0.10124905      -8.72745934
Si      16.36722360       9.46361007       8.94470824       0.08842549       0.81618893      -0.31653742       0.41293103      -0.42446625       0.61046352      -8.72176660
Si      14.54532535      10.62501288       2.80134495       0.68959711       0.33845930       0.19873927      -0.25588144      -1.12872300      -0.62945587      -8.70894792
Si      16.34380351      11.68716718       5.95753063      -0.11307156      -0.04069827      -0.41639356      -0.15160377       0.34227434      -0.15161397      -8.69899006
Si      18.25805730      12.81949137       9.06815795       1.85782699      -0.84007292       0.09976496       0.02932576      -0.09679251       0.67350588      -8.72548340
Si      14.40702619       3.88824452       2.74616076       0.33223992      -0.55878253      -1.06192163      -0.08614977       0.49098736      -0.28949589      -8.69514444
Si      16.35705074       5.02094793       5.81372532      -0.02799619       0.98530638       0.52690969      -0.76856697      -1.02878492       0.83510205      -8.72340827
Si      18.23276805       5.96466373       9.05039047       1.73120363       0.38483163       1.28741344       0.08555191       0.62303291      -0.89807172      -8.53607628
Si      16.41142287       7.05640765       2.61551616       0.02260002      -0.97339176      -0.40449489      -0.13814849       1.18780924       0.93887035      -8.70613548
Si      18.28062774       8.35495082       5.90082320       0.70132792       0.69152928       0.38937346       0.79988322      -0.60925376      -0.25574042      -8.70375349
Si      20.15932934       9.49725694       9.03094319      -0.13190489       0.05695145       0.54207543      -0.21481728      -0.35806205      -0.16654130      -8.74792059
Si      18.28675493      10.49719971       2.74368342      -0.44957042      -0.63196648       0.53880149      -0.12110433       0.24349552       0.10682564      -8.55409261
Si      20.08377586      11.76124357       5.83702524      -0.38703136       0.65699876      -2.13545618       0.39328998      -0.77675260       0.69170252      -8.70485535
Si      22.14163976      12.78214686       9.01049496      -0.65960476      -0.07443115       0.48887117      -0.90317958       0.18068349      -0.07291969      -8.58873946
Si       2.89687190       1.67672658       3.50411448      -0.21738149       0.09585823      -0.14556718      -0.47423078       0.07062006      -0.08501637      -8.76682894
Si       4.76253023       2.71993958       6.64321727      -0.81481900      -0.62259166       0.71034244       0.55177573       0.72029793      -0.40032651      -8.67116324
Si       2.81324633       3.89077622       0.33749003      -0.63924714      -0.94853813      -0.45571697       0.16585609      -0.12140760       0.65606979      -8.70763840
Si       4.83188713       4.94816385       3.54637192      -0.04124173      -0.20560814       0.17691023      -0.25339117      -0.37242876      -0.93741252      -8.75961892
Si       6.65716652       6.03891282       6.59962675      -1.06181122       1.04422861       0.15048951       0.87561203       0.81009685       0.91134766      -8.69612468
Si       4.77297609       7.23151157       0.32485429      -0.26076336       1.69951213       0.78399918       0.57332920      -0.36874126      -0.03623827      -8.74579573
Si       6.75119656       8.26407775       3.50989535      -1.49723447       0.86038500       0.83709530       0.16870564      -0.40849104      -0.21057830      -8.70252975
Si       8.68525499       9.50019313       6.69197630       0.16813531       1.46840967      -0.15306796      -1.27843629       0.55213875      -0.12347752      -8.71274518
Si       4.74913890       0.55069515       0.52433914       0.40420145      -0.49973058      -0.44965245       0.70925984       0.54191918      -0.36022014      -8.73364435
Si       6.85650748       1.69051497       3.51864732      -0.02077105       0.30292316      -0.83178013      -0.73678756      -0.03097100       0.45222747      -8.74183904
Si       8.59735769       2.81533425       6.76945412      -0.88853939      -0.21464450       0.21755710       0.41929731      -0.44340996      -0.33296743      -8.73304815
Si       6.74524176       3.93868518       0.39864783      -1.20675627       0.41298587       0.59552735      -0.96118481      -0.54588988       0.29138045      -8.75960928
Si       8.76039476       4.89131660       3.57408044       0.03037899      -1.07172265      -0.24783485      -0.34478358       0.63058386      -0.58311726      -8.71636383
Si      10.53050038       6.14896155       6.71793940       0.54818051      -0.12748725       1.16679131       0.07303473      -0.78619473       0.22139749      -8.73096758
Si       8.70078350       7.17987587       0.40928160       0.54359791      -0.66080057      -0.56110764      -0.53542298      -0.27385364       0.04701214      -8.74590254
Si      10.60625349       8.40421523       3.60883786       0.04559348       0.22885144       0.29334776       0.15858994      -0.47617376       0.10873538      -8.71439889
Si      12.49836824       9.37983949       6.65758203       0.01331886      -0.84248550      -0.35269666       0.49219964      -0.00808093       0.00756332      -8.69069816
Si       8.65179927       0.64459149       0.41726017      -0.54426996       0.04844617      -0.50732200       0.24082789      -0.13518368      -0.06855834      -8.69013794
Si      10.63528507       1.74387120       3.57398189       0.38173065       0.94599075       0.41319837       0.51781662      -0.53610014       0.12384185      -8.74312899
Si      12.44143618       2.84905710       6.75942777       0.41184264      -0.47524780       0.69360684       0.08260443      -0.29465756      -0.49119652      -8.78343023
Si      10.57123054       3.84988102       0.31191043       0.59394149      -0.61282699      -0.33506839      -0.22948330       0.25623235       0.44188014      -8.69668199
Si      12.50983621       5.12722647       3.55506454      -0.30394951       0.11716190       0.18595400       0.26749520      -1.05311660       0.16567573      -8.71342162
Si      14.45902709       6.15474850       6.62211244       0.23014653       0.19423117       0.01404490      -0.27511592      -0.29547462       0.10689120      -8.72944905
Si      12.48444557       7.24821937       0.42541802      -0.26948687      -0.10749891       0.33711341      -0.16342683       0.14055457      -0.43787012      -8.74060307
Si      14.49928047       8.24083031       3.45663694       0.15867468      -1.83025831      -0.48867230       0.83165764       1.09204090       0.12436620      -8.67212475
Si      16.42171506       9.44407362       6.62723623       0.11145740       0.03342860      -0.50999005      -0.67139254       0.42095711       0.06034850      -8.78753277
P        0.89154923       0.47399632       0.40071558       0.12739931      -0.37923888       0.20328907       0.99987107      -0.03031470       0.26043660      -9.83627728
54
Lattice="11.5478352 0.0 0.0 5.773917198490155 10.000722372470358 0.0 5.773916394327279 3.333571176804646 9.428767828939895" Properties=species:S:1:pos:R:3:momenta:R:3:forces:R:3:energies:R:1 spacegroup="_JSON {\"number\": 1, \"setting\": 1}" unit_cell=conventional occupancy="_JSON {\"0\": {\"Si\": 1.0}, \"1\": {\"Si\": 1.0}, \"2\": {\"Si\": 1.0}, \"3\": {\"Si\": 1.0}, \"4\": {\"Si\": 1.0}, \"5\": {\"Si\": 1.0}, \"6\": {\"Si\": 1.0}, \"7\": {\"Si\": 1.0}, \"8\": {\"Si\": 1.0}, \"9\": {\"Si\": 1.0}, \"10\": {\"Si\": 1.0}, \"11\": {\"Si\": 1.0}, \"12\": {\"Si\": 1.0}, \"13\": {\"Si\": 1.0}, \"14\": {\"Si\": 1.0}, \"15\": {\"Si\": 1.0}, \"16\": {\"Si\": 1.0}, \"17\": {\"Si\": 1.0}, \"18\": {\"Si\": 1.0}, \"19\": {\"Si\": 1.0}, \"20\": {\"Si\": 1.0}, \"21\": {\"Si\": 1.0}, \"22\": {\"Si\": 1.0}, \"23\": {\"Si\": 1.0}, \"24\": {\"Si\": 1.0}, \"25\": {\"Si\": 1.0}, \"26\": {\"Si\": 1.0}, \"27\": {\"Si\": 1.0}, \"28\": {\"Si\": 1.0}, \"29\": {\"Si\": 1.0}, \"30\": {\"Si\": 1.0}, \"31\": {\"Si\": 1.0}, \"32\": {\"Si\": 1.0}, \"33\": {\"Si\": 1.0}, \"34\": {\"Si\": 1.0}, \"35\": {\"Si\": 1.0}, \"36\": {\"Si\": 1.0}, \"37\": {\"Si\": 1.0}, \"38\": {\"Si\": 1.0}, \"39\": {\"Si\": 1.0}, \"40\": {\"Si\": 1.0}, \"41\": {\"Si\": 1.0}, \"42\": {\"Si\": 1.0}, \"43\": {\"Si\": 1.0}, \"44\": {\"Si\": 1.0}, \"45\": {\"Si\": 1.0}, \"46\": {\"Si\": 1.0}, \"47\": {\"Si\": 1.0}, \"48\": {\"Si\": 1.0}, \"49\": {\"Si\": 1.0}, \"50\": {\"Si\": 1.0}, \"51\": {\"Si\": 1.0}, \"52\": {\"Si\": 1.0}, \"53\": {\"P\": 1.0}}" energy=-471.5071631189409 stress="0.0008066499819272408 -0.0023159574876069774 -0.0013233687139870183 -0.0023159574876069774 0.0013037986142020105 0.00025277586835376634 -0.0013233687139870183 0.00025277586835376634 -0.0010415344798922093" free_energy=-471.5071631189409 pbc="T T T"
Si       6.73518950       3.93219886       2.75612844       0.13443252       0.36201499       0.24807361       0.74726421      -0.56674378       0.08792699      -8.75637935
Si       8.62898264       5.00220505       5.89519004       0.31020009       0.27469608       0.13724896       0.07843458      -0.11666192       0.24794772      -8.73762517
Si      10.52788730       6.13415907       9.09443687      -0.11862158       0.15327791       0.16685793       0.20550438      -0.47987047       0.11113745      -8.75172653
Si       8.75132345       7.21307879       2.76581324      -1.12459909       0.54192616       0.06773424      -0.48232377      -0.41457545       0.22945330      -8.65761794
Si      10.50936255       8.31512360       5.97751780       0.97045271      -0.08142419      -0.52039131       0.40092044       0.22930376      -0.24587891      -8.76279052
Si      12.46438033       9.47966060       9.03029221      -0.15371951       1.58792006      -0.35880116       0.36022220      -0.09127825      -0.42328735      -8.72889103
Si      10.61538856      10.64684269       2.86710333       0.21671561       0.42691543      -0.08153953       0.22389162      -0.69958100      -0.52159818      -8.73733804
Si      12.53139954      11.60477999       5.86828734      -0.73673844      -0.16731468      -0.37557368      -0.53686725       0.02672073       0.18394951      -8.73039925
Si      14.47263780      12.74040732       9.12047590      -1.01656834       0.13443821       0.05101164      -0.50097825      -0.21344451      -0.17778677      -8.58287445
Si      10.73162144       3.86929962       2.67009081       0.16229773       0.32335885      -0.61760092      -0.76849518       0.51440578       0.17363048      -8.75539495
Si      12.54503840       5.01204514       5.94137588       0.60005396       0.26918771      -0.24816546      -0.78571823       0.30590462      -0.12864962      -8.71285221
Si      14.34132853       6.15955567       8.93422906       0.56821301      -0.57415873      -0.18740245       0.32591996       0.16955642       0.89308342      -8.70355526
Si      12.52580583       7.29864666       2.73445989      -0.87751319      -0.04916202      -0.12525469      -0.47836488      -0.21255806       0.50826689      -8.76760551
Si      14.53340475       8.24361510       5.80897292      -0.46279342      -1.08485850      -0.12834852      -0.60319421       1.21356586      -0.13215058      -8.70856417
Si      16.38723460       9.48238105       8.94759857       0.60329298      -0.20544237       0.31994299       0.12121849      -0.82414799       0.19062595      -8.71842810
Si      14.56910720      10.60037317       2.78826951       0.18008642      -1.16357338      -0.62580481      -0.39619068      -0.67203128      -0.34179399      -8.65442460
Si      16.33110890      11.70048223       5.93631864      -0.36550175       0.55155452      -0.27396780      -0.12552253       0.34516138       0.30709899      -8.72259761
Si      18.34505756      12.77420276       9.09654324       1.24154202      -0.81773950       0.83498253      -0.81617943       0.18257325       0.09679622      -8.72782001
Si      14.41673202       3.88011343       2.68642431      -0.03315372       0.23941647      -1.05099722      -0.36040822       0.45131103       0.36207423      -8.69417481
Si      16.32874421       5.02747938       5.86684337      -0.86506548      -0.73668784       1.31359079      -0.04263653      -1.01329637       0.11089873      -8.72155072
Si      18.31122313       5.99851199       9.07648235       0.96284460       0.69602764      -0.34777928      -1.04634619      -0.18502064      -1.08942675      -8.52494023
Si      16.40891461       7.05166915       2.63314003      -0.07251189       0.72570943       1.05340940       0.03980282       0.89994235       0.82740210      -8.72336207
Si      18.33977183       8.37188652       5.91289249       1.29941840       0.08282463       0.09972491      -0.18668140      -0.11098300      -0.14635046      -8.73738137
Si      20.14714495       9.48828669       9.05073892      -0.25878235      -0.34881334       0.17879419       0.07567993      -0.15631762      -0.30010310      -8.69037067
Si      18.25992731      10.47933621       2.77330907      -0.51775072       0.01313766       0.53053044       0.09759305       0.47110504      -0.13230149      -8.55520431
Si      20.07874487      11.76870052       5.76456807       0.19514768      -0.27002172      -0.44999757       0.39077245      -0.36468827       1.34398322      -8.71691257
Si      22.07853092      12.79269623       9.03114615      -1.54104516       0.56908833       0.25213203      -0.08495894       0.51381189      -0.25514330      -8.58503928
Si       2.86682111       1.68315128       3.48453964      -0.87748526       0.12377721      -0.72014289      -0.26398821      -0.02878444      -0.52485063      -8.75469563
Si       4.74399709       2.71589933       6.66056174       0.12130431       0.43788684      -0.08301121       0.59770902       0.58801292      -0.52389909      -8.65255879
Si       2.79594627       3.84836300       0.33938293       0.15197006      -0.43824789       0.48993197       0.80752833       0.75966073       0.48588601      -8.72714828
Si       4.81679383       4.92520979       3.52785201      -0.55888556      -0.58108020      -0.65667996      -0.33504973      -0.02697479      -0.06129399      -8.74825390
Si       6.64595753       6.11860775       6.64212143       0.70204529       1.76962712       1.36829674       1.13373903      -0.07851520       0.50091755      -8.70342810
Si       4.77746882       7.29591932       0.36059785       0.32437726       0.60094898       0.52769008       0.14899857      -0.95682391      -0.23884232      -8.73546495
Si       6.68623101       8.28564254       3.54382228      -0.83678195      -0.13044745       0.43864677       0.72987188      -0.75131810      -0.27823167      -8.69378659
Si       8.65497780       9.58964033       6.68015459      -1.02470395       1.68341171      -0.27500691      -0.12371407      -0.45326052      -0.01712060      -8.72412726
Si       4.79887966       0.54718852       0.49142295       1.42379745       0.34338955      -0.71671839       0.42968224       0.44134093      -0.00676077      -8.69000604
Si       6.83163309       1.70630804       3.49445289      -0.77782235       0.29033570      -0.07052533      -0.14872580      -0.06615253       0.52552782      -8.74285543
Si       8.56998569       2.79241866       6.76706193      -0.14175390      -0.53948850      -0.31991857       0.46075817       0.02717500      -0.36705633      -8.73311312
Si       6.65738739       3.94353469       0.43252797      -1.82992273      -0.10053857       0.51118075       0.26860766      -0.04808693      -0.41503517      -8.74238025
Si       8.75191013       4.86759426       3.53916392      -0.28058294       0.30306407      -1.00407754      -0.05294462       1.15018650      -0.26500867      -8.68536393
Si      10.56165365       6.11360481       6.77660677       0.62060079      -1.10555755       0.83190115      -0.00641901      -0.33480945      -0.70083321      -8.72746372
Si       8.70478093       7.14379411       0.38592186      -0.41092720      -0.53653791      -0.24444156      -0.59546967       0.41812312       0.37410677      -8.75380759
Si      10.61400957       8.40160193       3.62534473       0.20229869      -0.24551268       0.25200625      -0.03331469      -0.14930350      -0.21624759      -8.73617576
Si      12.51871918       9.33882093       6.64045400       0.73973460      -0.62703248      -0.28475692       0.38964118       0.35899119       0.07059646      -8.68901146
Si       8.63888611       0.64458651       0.39491487       0.14167661       0.00125979      -0.21572765       0.57113052       0.06182076       0.43412988      -8.74474323
Si      10.67165082       1.76737685       3.59588688       0.85940982      -0.10358788       0.29747874      -0.05503671      -0.73046689      -0.35472281      -8.74521910
Si      12.46494240       2.81391774       6.77232072       0.46446352      -0.79006950      -0.22810374      -0.00368036      -0.00260466      -0.58282274      -8.75129336
Si      10.59267128       3.83075648       0.30870136       0.23662892      -0.07761352       0.14621842      -0.18448387       0.40364823       0.17486946      -8.66975584
Si      12.50891730       5.09593089       3.56670511       0.32557439      -1.16442646       0.15308762       0.47976778      -0.47729704      -0.23744715      -8.69906728
Si      14.46013825       6.14542256       6.62795626      -0.19091176      -0.66004376       0.23041043      -0.27864712      -0.69413585       0.18581236      -8.76483758
Si      12.46770383       7.24538083       0.42545789      -0.28527275      -0.06299472      -0.29346798       0.16331253      -0.10498613      -0.26457750      -8.77020888
Si      14.53652204       8.19285064       3.43898006       1.05906034       0.05790274      -0.13824501       0.03618861       1.30737829       0.30543468      -8.67825691
Si      16.40371772       9.45797542       6.60336188      -0.70108458       0.37786834      -0.38488531      -0.29509349      -0.03352521       0.12531322      -8.76105524
P        0.92826492       0.45684809       0.41910902       1.24285980      -0.27859076       0.52645078       0.30727343       0.21854398       0.09235134      -9.81726415
54
Lattice="11.5478352 0.0 0.0 5.773917198490155 10.000722372470358 0.0 5.773916394327279 3.333571176804646 9.428767828939895" Properties=species:S:1:pos:R:3:momenta:R:3:forces:R:3:energies:R:1 spacegroup="_JSON {\"number\": 1, \"setting\": 1}" unit_cell=conventional occupancy="_JSON {\"0\": {\"Si\": 1.0}, \"1\": {\"Si\": 1.0}, \"2\": {\"Si\": 1.0}, \"3\": {\"Si\": 1.0}, \"4\": {\"Si\": 1.0}, \"5\": {\"Si\": 1.0}, \"6\": {\"Si\": 1.0}, \"7\": {\"Si\": 1.0}, \"8\": {\"Si\": 1.0}, \"9\": {\"Si\": 1.0}, \"10\": {\"Si\": 1.0}, \"11\": {\"Si\": 1.0}, \"12\": {\"Si\": 1.0}, \"13\": {\"Si\": 1.0}, \"14\": {\"Si\": 1.0}, \"15\": {\"Si\": 1.0}, \"16\": {\"Si\": 1.0}, \"17\": {\"Si\": 1.0}, \"18\": {\"Si\": 1.0}, \"19\": {\"Si\": 1.0}, \"20\": {\"Si\": 1.0}, \"21\": {\"Si\": 1.0}, \"22\": {\"Si\": 1.0}, \"23\": {\"Si\": 1.0}, \"24\": {\"Si\": 1.0}, \"25\": {\"Si\": 1.0}, \"26\": {\"Si\": 1.0}, \"27\": {\"Si\": 1.0}, \"28\": {\"Si\": 1.0}, \"29\": {\"Si\": 1.0}, \"30\": {\"Si\": 1.0}, \"31\": {\"Si\": 1.0}, \"32\": {\"Si\": 1.0}, \"33\": {\"Si\": 1.0}, \"34\": {\"Si\": 1.0}, \"35\": {\"Si\": 1.0}, \"36\": {\"Si\": 1.0}, \"37\": {\"Si\": 1.0}, \"38\": {\"Si\": 1.0}, \"39\": {\"Si\": 1.0}, \"40\": {\"Si\": 1.0}, \"41\": {\"Si\": 1.0}, \"42\": {\"Si\": 1.0}, \"43\": {\"Si\": 1.0}, \"44\": {\"Si\": 1.0}, \"45\": {\"Si\": 1.0}, \"46\": {\"Si\": 1.0}, \"47\": {\"Si\": 1.0}, \"48\": {\"Si\": 1.0}, \"49\": {\"Si\": 1.0}, \"50\": {\"Si\": 1.0}, \"51\": {\"Si\": 1.0}, \"52\": {\"Si\": 1.0}, \"53\": {\"P\": 1.0}}" energy=-471.45880169044983 stress="-0.000752519218313366 -0.0006291310583062296 -0.0002350184217808314 -0.0006291310583062296 0.0012823871168201918 -0.0007531475948056384 -0.0002350184217808314 -0.0007531475948056384 -5.9754477039017525e-05" free_energy=-471.45880169044983 pbc="T T T"
Si       6.76358166       3.92926683       2.76958413       0.75549990      -0.42902126       0.19513292      -0.00163564      -0.38170506      -0.18084362      -8.77623572
Si       8.64649054       5.00973501       5.90810131       0.33155347      -0.01947395       0.26234213      -0.02662349      -0.23578512      -0.11622292      -8.70957411
Si      10.52819585       6.12158847       9.10588267       0.11316405      -0.62591928       0.19660749       0.14201997      -0.43685708      -0.17116308      -8.78460272
Si       8.67990479       7.22612603       2.77501862      -1.43258066      -0.00359317       0.20759946       0.17917898      -0.24292545      -0.07095381      -8.69562804
Si      10.56495793       8.31760105       5.95105684       0.96309515       0.12637497      -0.31525296      -0.33681468       0.03725290       0.42439150      -8.69036444
Si      12.46850796       9.54503627       8.99759604       0.26123774       0.65673516      -0.82090315       0.15925739      -1.04783115      -0.14667844      -8.73200664
Si      10.62782002      10.64101893       2.84070882       0.11765543      -0.62482809      -0.93279330      -0.31043108      -0.59154514      -0.53721061      -8.72984421
Si      12.47972795      11.59639154       5.85732112      -1.04670865      -0.15189579      -0.01202781       0.19510586       0.02689907       0.29661855      -8.73035478
Si      14.41628753      12.73883671       9.11606827      -0.80548248      -0.17797093      -0.23246410       0.76121299      -0.14278183      -0.22436552      -8.57972199
Si      10.71025807       3.89841763       2.65040354      -0.93537342       0.63072811      -0.02623372      -0.58892517      -0.09306082       0.57614313      -8.75223927
Si      12.54420520       5.02575075       5.92664043      -0.61990302       0.02340692      -0.27935348      -0.71265064      -0.58459039       0.00641525      -8.72868440
Si      14.37352310       6.14302583       8.96142334       0.47947550       0.05797320       1.20410462      -0.38247166       0.60948010       0.79622119      -8.67012713
Si      12.47591703       7.28411546       2.74726650      -0.73538351      -0.56331086       0.56100061       0.64060926      -0.42828507       0.30023819      -8.71796234
Si      14.49354815       8.23275777       5.79876597      -0.88493110       0.55200947      -0.19862002       0.07804327       0.74391507       0.10494293      -8.73661956
Si      16.41362084       9.44332114       8.96594206       0.20743616      -1.15524098       0.28226747      -0.62394153      -0.30266391      -0.18993467      -8.72594405
Si      14.56403412      10.52720322       2.75100069      -0.35338729      -1.32362596      -0.61329758      -0.31504205       0.52441158       0.36815917      -8.65746869
Si      16.31060806      11.73713845       5.93450288      -0.32586006       0.70233985       0.17350091       0.22600482      -0.21927601       0.18015414      -8.75630881
Si      18.37661086      12.74330119       9.13124062      -0.02227699      -0.26163818       0.25818263      -0.74000649       0.54967136      -0.78908801      -8.71158093
Si      14.40146778       3.90372115       2.65270127      -0.50451054       0.51842581      -0.11280249      -0.17268730      -0.10959873       0.81507555      -8.74531769
Si      16.29834928       4.96384187       5.92941970      -0.01967284      -1.34341139       0.86195646       1.01018580       0.35707457      -0.70861621      -8.68603865
Si      18.32177748       6.02522667       9.02882885      -0.44158085       0.32881544      -1.12018537      -0.58694573      -0.17509681       0.28313670      -8.53108191
Si      16.40841579       7.11104693       2.70986637       0.05384564       1.24908914       1.63128589       0.02665409      -0.22387793      -0.11316429      -8.75447703
Si      18.38673671       8.37966959       5.91276245       0.25594731       0.32271185      -0.10060956      -1.09420207       0.30638095      -0.11626363      -8.73493998
Si      20.14052719       9.46739300       9.04860606       0.08042496      -0.37556389      -0.24901317       0.36056914       0.13007194      -0.24868043      -8.67930473
Si      18.24097271      10.49114065       2.79330701      -0.11968027       0.25957866       0.17409360       0.41943916      -0.21026757      -0.35407616      -8.57385846
Si      20.10432640      11.74997065       5.78240601       0.78074526      -0.26253896       0.84836660       0.37856693       0.33201932       0.25393891      -8.73361736
Si      22.01059430      12.83459639       9.03266799      -0.72032733       0.81044028      -0.22309336       1.18378771      -0.32083321      -0.35531154      -8.51757327
Si       2.81947181       1.68808301       3.43248897      -0.72638639       0.06048484      -1.07594968       0.52046453      -0.04425311       0.20022549      -8.72048217
Si       4.76838658       2.75315214       6.64282982       0.69134154       0.77444099      -0.42283953       0.13371892      -0.23373351       0.14142772      -8.71918178
Si       2.83125294       3.85606910       0.37362175       1.02333542       0.67602864       0.57837059       0.15015166       0.53779505      -0.42632701      -8.73220613
Si       4.78027721       4.90029861       3.50237487      -0.67647161      -0.24902429      -0.12673733       0.27429061       0.43497875       0.67442713      -8.70589652
Si       6.71486030       6.19258037       6.71919766       1.66969846       0.77177409       1.24647365       0.12594371      -1.14698142      -0.77447341      -8.70117199
Si       4.79355023       7.29544934       0.38073501       0.17106995      -0.47265726       0.27616269      -0.30482051      -0.38673338      -0.09882087      -8.73346310
Si       6.67492128       8.25706369       3.55881219       0.46649887      -0.75705981       0.19411073       0.93872263       0.03999156      -0.03827240      -8.72123895
Si       8.61303699       9.64592581       6.66875299      -0.29227590       0.20317420      -0.07887956       0.97711825      -1.44053652       0.28312967      -8.69405202
Si       4.87857495       0.57367776       0.45635629       1.36423238       0.47554899      -0.56578357      -0.54933076      -0.30677533       0.20538107      -8.67206995
Si       6.79471210       1.71512177       3.50862355      -0.46643641      -0.04545294       0.54351555       0.48268989      -0.41772309       0.24870558      -8.73076039
Si       8.57323023       2.76986192       6.73774212       0.10216934      -0.24201614      -0.74242230      -0.17335264       0.33257211      -0.14204192      -8.73998094
Si       6.58735494       3.94427274       0.43959612      -0.56381869       0.24768313      -0.26688484       1.33028160       0.40631936      -0.51307608      -8.65911536
Si       8.73837286       4.92798840       3.48608971      -0.19226451       1.92956001      -0.80982892       0.10859802       0.83608075       0.55331258      -8.71449416
Si      10.59191589       6.05383629       6.78724037       0.47376938      -0.94827677      -0.47099189      -0.24085030       0.54668871      -0.85616823      -8.72583371
Si       8.66793931       7.13535342       0.38911212      -0.81207972       0.24323336       0.37273601       0.11015418       0.52145258       0.38962898      -8.73742492
Si      10.61722129       8.38620106       3.62608655      -0.20430853      -0.29407565      -0.28167709      -0.50767481       0.03667741      -0.43191476      -8.75596618
Si      12.56635454       9.32478732       6.62810265       0.91765536       0.18234707      -0.18521477      -0.23681754       0.69991965       0.07463228      -8.72492162
Si       8.66297540       0.64835934       0.40285959       0.60809732       0.15369749       0.53042651      -0.08145442       0.10121364       0.46535718      -8.78035308
Si      10.70174970       1.74005941       3.59272149       0.03304707      -0.78273597      -0.46852390      -1.03593063      -0.12318222      -0.53730484      -8.71116826
Si      12.48826509       2.77927654       6.74494872       0.39415228      -0.39788968      -0.65591368      -0.12257562       0.50680029       0.03945362      -8.72139597
Si      10.60076151       3.84000883       0.31911043       0.11467562       0.36318521       0.18595960      -0.01787511       0.13275376      -0.07292461      -8.72271725
Si      12.54032076       5.02872181       3.56244796       0.73247625      -1.15867222      -0.33495265      -0.07797584       0.46187373      -0.30210698      -8.71405081
Si      14.44099669       6.09089502       6.64771600      -0.48762677      -1.21515971       0.52257075      -0.07319740       0.08840522       0.18203272      -8.78605009
Si      12.46211311       7.23440663       0.40815001       0.11015701      -0.41225587      -0.20373268       0.30388124      -0.31777580       0.35883492      -8.78407386
Si      14.57347454       8.24072645       3.44356263      -0.00448272       1.60187919       0.30780736      -1.31422470       0.61588129       0.27756871      -8.71502334
Si      16.36284475       9.47137155       6.58945631      -0.72490721       0.06639927      -0.10928010       0.22494975      -0.29085648       0.26044959      -8.71077301
P        0.98483883       0.45544011       0.44367930       0.84626068       0.30524366       0.42168832      -0.81314254       0.53895144      -0.24399841      -9.78345920
54
Lattice="11.5478352 0.0 0.0 5.773917198490155 10.000722372470358 0.0 5.773916394327279 3.333571176804646 9.428767828939895" Properties=species:S:1:pos:R:3:momenta:R:3:forces:R:3:energies:R:1 spacegroup="_JSON {\"number\": 1, \"setting\": 1}" unit_cell=conventional occupancy="_JSON {\"0\": {\"Si\": 1.0}, \"1\": {\"Si\": 1.0}, \"2\": {\"Si\": 1.0}, \"3\": {\"Si\": 1.0}, \"4\": {\"Si\": 1.0}, \"5\": {\"Si\": 1.0}, \"6\": {\"Si\": 1.0}, \"7\": {\"Si\": 1.0}, \"8\": {\"Si\": 1.0}, \"9\": {\"Si\": 1.0}, \"10\": {\"Si\": 1.0}, \"11\": {\"Si\": 1.0}, \"12\": {\"Si\": 1.0}, \"13\": {\"Si\": 1.0}, \"14\": {\"Si\": 1.0}, \"15\": {\"Si\": 1.0}, \"16\": {\"Si\": 1.0}, \"17\": {\"Si\": 1.0}, \"18\": {\"Si\": 1.0}, \"19\": {\"Si\": 1.0}, \"20\": {\"Si\": 1.0}, \"21\": {\"Si\": 1.0}, \"22\": {\"Si\": 1.0}, \"23\": {\"Si\": 1.0}, \"24\": {\"Si\": 1.0}, \"25\": {\"Si\": 1.0}, \"26\": {\"Si\": 1.0}, \"27\": {\"Si\": 1.0}, \"28\": {\"Si\": 1.0}, \"29\": {\"Si\": 1.0}, \"30\": {\"Si\": 1.0}, \"31\": {\"Si\": 1.0}, \"32\": {\"Si\": 1.0}, \"33\": {\"Si\": 1.0}, \"34\": {\"Si\": 1.0}, \"35\": {\"Si\": 1.0}, \"36\": {\"Si\": 1.0}, \"37\": {\"Si\": 1.0}, \"38\": {\"Si\": 1.0}, \"39\": {\"Si\": 1.0}, \"40\": {\"Si\": 1.0}, \"41\": {\"Si\": 1.0}, \"42\": {\"Si\": 1.0}, \"43\": {\"Si\": 1.0}, \"44\": {\"Si\": 1.0}, \"45\": {\"Si\": 1.0}, \"46\": {\"Si\": 1.0}, \"47\": {\"Si\": 1.0}, \"48\": {\"Si\": 1.0}, \"49\": {\"Si\": 1.0}, \"50\": {\"Si\": 1.0}, \"51\": {\"Si\": 1.0}, \"52\": {\"Si\": 1.0}, \"53\": {\"P\": 1.0}}" energy=-471.6367750355432 stress="-0.0003547231055672643 0.0021036050725672076 0.0016606767044808845 0.0021036050725672076 -0.0014572532743884806 0.0002671001803668584 0.0016606767044808845 0.0002671001803668584 0.0005494926685550985" free_energy=-471.6367750355432 pbc="T T T"
Si       6.79514853       3.89934638       2.77071465       0.33227513      -0.55541009      -0.16949778      -0.45616214       0.22748337      -0.24180054      -8.75060171
Si       8.66322647       5.00116088       5.91241047       0.31708050      -0.26093289      -0.18805709       0.01475941      -0.05286971      -0.46135216      -8.72605720
Si      10.54163787       6.07969274       9.10368582       0.44847426      -0.77913215      -0.37752179       0.32119299       0.31018726      -0.53796722      -8.76857643
Si       8.62203402       7.22352469       2.77868574      -0.56531742       0.05760893      -0.15171703       0.97602407       0.34875475      -0.39079014      -8.74395732
Si      10.59974767       8.32375803       5.95046554       0.33602625       0.07841508       0.22390884      -0.43726725      -0.08286843       0.15040187      -8.68266300
Si      12.48481513       9.53876629       8.95472560       0.29457837      -0.82111443      -0.67127445      -0.09931574      -0.73413364       0.40960814      -8.74531210
Si      10.62108090      10.59230650       2.77550884      -0.34942385      -1.07683006      -1.41685913      -0.21231167       0.01953777       0.00921213      -8.73983354
Si      12.44040490      11.59073222       5.86782361      -0.32097518      -0.02804044       0.38682538       0.69947305       0.16985664       0.18569910      -8.73319018
Si      14.40958466      12.72898395       9.09460506       0.57765906      -0.07430475      -0.57952907       0.85555684       0.33405929      -0.19345144      -8.54458223
Si      10.64533813       3.92434436       2.67082764      -1.38809303       0.31610759       0.75355555       0.00699022      -0.25884047       0.36775855      -8.72955452
Si      12.49369432       5.00049119       5.90965778      -1.07621439      -0.98318328      -0.41884459       0.18266284      -0.54996435      -0.17941918      -8.75692741
Si      14.38111848       6.16904485       9.04634464      -0.19748181       0.86780510       1.81457978      -0.39727744       0.32989383      -0.07394152      -8.70909476
Si      12.46729235       7.23976438       2.78253434       0.42279872      -1.03863667       0.67166447       0.68660137      -0.06826878      -0.14264266      -8.71183232
Si      14.45705638       8.27667079       5.79656243      -0.40200010       0.86305290       0.18991705       0.47347804      -0.27477277       0.39839813      -8.73854754
Si      16.39800286       9.38309057       8.97310027      -0.78583187      -0.88468818       0.01321207      -0.54817857       0.69223144      -0.09731946      -8.71674302
Si      14.53342410      10.49118411       2.73830134      -0.81957711       0.16586810       0.19287595      -0.33131560       1.32670606       0.60631227      -8.70228372
Si      16.30605834      11.75817153       5.94436154       0.19500238      -0.02243596       0.08072008       0.37723130      -0.68241226      -0.29000694      -8.74084070
Si      18.35508733      12.74960893       9.11220221      -0.62345930       0.42400292      -0.95501150      -0.04914850       0.23690598      -0.65797057      -8.71569097
Si      14.37612910       3.92072240       2.67449862      -0.28227868       0.03994650       0.80526715       0.51582929      -0.44685570       0.27266661      -8.77293037
Si      16.33655513       4.92501600       5.94322222       1.40538214       0.13762563      -0.34922952       0.72139984       1.38246386      -0.73224303      -8.66545412
Si      18.28869179       6.04015872       8.99952895      -0.59211398       0.31529383       0.24813400       0.31330250       0.11963599       1.19144941      -8.52019435
Si      16.40614504       7.16119345       2.78346386      -0.26379460       0.60578623       1.06072333      -0.43204524      -0.44862958      -0.56246801      -8.74403466
Si      18.35783902       8.40588399       5.90559073      -1.26933490       0.58105214      -0.10004996      -0.71789438      -0.06664700       0.16614686      -8.74323525
Si      20.15971383       9.45560310       9.02819913       0.64230072      -0.02287405      -0.47143655       0.31531104       0.32466303      -0.01794410      -8.73645313
Si      18.25054298      10.49076990       2.78779511       0.43201390      -0.31575343      -0.37823255       0.20590695      -0.36081351      -0.32085373      -8.58686943
Si      20.15825209      11.74923915       5.82466223       1.20736220       0.15344663       0.59585435       0.10077178       0.01587967      -0.40669972      -8.71590914
Si      22.02467053      12.85634106       9.01010630       1.26455749      -0.07709877      -0.52901405       1.18421294      -0.68661133       0.07779874      -8.50341112
Si       2.80884403       1.68968148       3.39354261       0.42061018      -0.00454484      -0.24864957       0.88843889      -0.06714195       0.81843572      -8.68289301
Si       4.80508401       2.77524796       6.63374769       0.63127680      -0.04245348       0.17679692      -0.16697036      -0.62701091       0.51607375      -8.75367569
Si       2.88003163       3.90253480       0.38165496       0.67141376       0.89094125      -0.29604764      -0.49175676      -0.26992836      -0.51168424      -8.72472400
Si       4.76279160       4.90517432       3.52335196       0.11746604       0.42384459       0.89816950       0.68128910       0.38479884       0.54290738      -8.69849218
Si       6.79740606       6.18827975       6.74131165       1.28250004      -0.86913132      -0.56651139      -0.65098061      -0.86954024      -1.35576204      -8.67307876
Si       4.79091759       7.26366756       0.39304833      -0.21842727      -0.61000674       0.21601518      -0.09287561       0.12683733      -0.00441075      -8.70834204
Si       6.72929816       8.23020822       3.57009610       1.39097861      -0.07702564       0.26178825       0.07533251       0.77301708       0.05972124      -8.73922468
Si       8.63818974       9.60132243       6.67514156       1.22026509      -1.78646864       0.26369412       0.82714023      -0.95609908       0.05165036      -8.73004431
Si       4.92044728       0.57900950       0.43445028       0.09461850      -0.38489464      -0.29697488      -1.07217110      -0.72883558       0.08678709      -8.69799619
Si       6.78867692       1.69278043       3.54106995       0.18278688      -0.84508364       0.56933720       0.26581833      -0.54463699      -0.23859977      -8.72527126
Si       8.56629826       2.76984275       6.69726871      -0.41186749       0.20875174      -0.72092432      -0.33356061       0.19787404       0.16932651      -8.73710840
Si       6.60987946       3.97054502       0.40960898       1.33927626       0.64846180      -0.78050365       0.97493735      -0.00707900      -0.12304755      -8.69068223
Si       8.72944553       5.04672428       3.47213273      -0.22800138       2.21642557       0.38493779      -0.19452962      -0.65886788       0.95391264      -8.73334833
Si      10.60383078       6.03168571       6.73779634      -0.07963570       0.19153054      -1.21398342      -0.45607389       0.87060538      -0.07050506      -8.72988811
Si       8.63565634       7.16347547       0.41965569      -0.34056298       0.70646251       0.67497532       0.41415748       0.03896740      -0.07895510      -8.71379628
Si      10.58494126       8.37061294       3.59657438      -1.00028505      -0.34933365      -0.77539929      -0.38522586      -0.14809732      -0.16026342      -8.74111365
Si      12.59725366       9.36155492       6.62145444       0.12710499       1.17165396      -0.06372654      -0.73945054       0.48687055       0.08990827      -8.75138776
Si       8.68351130       0.65800639       0.44238116       0.07321681       0.14748138       0.80150262      -0.47210727      -0.15666870      -0.22301957      -8.77158359
Si      10.65908788       1.70030813       3.55228737      -1.63639009      -0.64263472      -0.94599817      -0.90771556       0.23634746      -0.03458733      -8.69660476
Si      12.50296661       2.77897890       6.71721408       0.15298837       0.35368405      -0.33623733      -0.16779346       0.36038239       0.29099574      -8.73974098
Si      10.60565648       3.85892889       0.32778319       0.04316126       0.25741128       0.21239816      -0.12896278      -0.25380479       0.18732541      -8.76888154
Si      12.56387344       4.99110132       3.53879746      -0.05837060      -0.22181743      -0.43240923      -0.92329349       0.65184453       0.21438261      -8.72681840
Si      14.41587518       6.03935218       6.68161080      -0.40915102      -0.61452763       0.74444409       0.16629541       0.62063703       0.07511295      -8.74009754
Si      12.47719943       7.20156132       0.41321025       0.39724124      -0.78119139       0.37578235       0.03878902      -0.08244278       0.27121419      -8.76869608
Si      14.52177573       8.33216752       3.46917487      -1.85816951       1.52259984       0.63646173      -0.87712810      -0.78156410       0.14620442      -8.73343845
Si      16.33523956       9.46603376       6.59487163      -0.31916166      -0.19856134       0.32776777       0.25375842      -0.01067675       0.30158082      -8.72358897
P        0.99248484       0.48847373       0.45184321      -0.52449701       1.02285014      -0.14766852      -0.79514906       0.28964105      -0.50328568      -9.79147757
54
Lattice="11.5478352 0.0 0.0 5.773917198490155 10.000722372470358 0.0 5.773916394327279 3.333571176804646 9.428767828939895" Properties=species:S:1:pos:R:3:momenta:R:3:forces:R:3:energies:R:1 spacegroup="_JSON {\"number\": 1, \"setting\": 1}" unit_cell=conventional occupancy="_JSON {\"0\": {\"Si\": 1.0}, \"1\": {\"Si\": 1.0}, \"2\": {\"Si\": 1.0}, \"3\": {\"Si\": 1.0}, \"4\": {\"Si\": 1.0}, \"5\": {\"Si\": 1.0}, \"6\": {\"Si\": 1.0}, \"7\": {\"Si\": 1.0}, \"8\": {\"Si\": 1.0}, \"9\": {\"Si\": 1.0}, \"10\": {\"Si\": 1.0}, \"11\": {\"Si\": 1.0}, \"12\": {\"Si\": 1.0}, \"13\": {\"Si\": 1.0}, \"14\": {\"Si\": 1.0}, \"15\": {\"Si\": 1.0}, \"16\": {\"Si\": 1.0}, \"17\": {\"Si\": 1.0}, \"18\": {\"Si\": 1.0}, \"19\": {\"Si\": 1.0}, \"20\": {\"Si\": 1.0}, \"21\": {\"Si\": 1.0}, \"22\": {\"Si\": 1.0}, \"23\": {\"Si\": 1.0}, \"24\": {\"Si\": 1.0}, \"25\": {\"Si\": 1.0}, \"26\": {\"Si\": 1.0}, \"27\": {\"Si\": 1.0}, \"28\": {\"Si\": 1.0}, \"29\": {\"Si\": 1.0}, \"30\": {\"Si\": 1.0}, \"31\": {\"Si\": 1.0}, \"32\": {\"Si\": 1.0}, \"33\": {\"Si\": 1.0}, \"34\": {\"Si\": 1.0}, \"35\": {\"Si\": 1.0}, \"36\": {\"Si\": 1.0}, \"37\": {\"Si\": 1.0}, \"38\": {\"Si\": 1.0}, \"39\": {\"Si\": 1.0}, \"40\": {\"Si\": 1.0}, \"41\": {\"Si\": 1.0}, \"42\": {\"Si\": 1.0}, \"43\": {\"Si\": 1.0}, \"44\": {\"Si\": 1.0}, \"45\": {\"Si\": 1.0}, \"46\": {\"Si\": 1.0}, \"47\": {\"Si\": 1.0}, \"48\": {\"Si\": 1.0}, \"49\": {\"Si\": 1.0}, \"50\": {\"Si\": 1.0}, \"51\": {\"Si\": 1.0}, \"52\": {\"Si\": 1.0}, \"53\": {\"P\": 1.0}}" energy=-471.9996506038404 stress="0.0006994362617670293 0.0015852507652865853 0.0011360330317656832 0.0015852507652865853 -0.0019525502097293831 0.000996740447361012 0.0011360330317656832 0.000996740447361012 -0.00010565088528756421" free_energy=-471.9996506038404 pbc="T T T"
Si       6.79577373       3.88320644       2.75559696      -0.27485771      -0.01729930      -0.32741253      -0.32210167       0.38722078       0.06830363      -8.69423454
Si       8.68171623       4.98804438       5.88423404       0.40284254      -0.19551569      -0.83750939       0.06619661       0.11792505      -0.24453435      -8.76241019
Si      10.57866120       6.05794624       9.06358011       0.94774471       0.03936761      -1.09525398       0.25054898       0.64707973      -0.30753678      -8.71624295
Si       8.63172806       7.24343078       2.75566720       0.86698403       0.67889051      -0.66799457       0.67423017       0.24043805      -0.15353958      -8.76853836
Si      10.60488859       8.32406498       5.95822754      -0.02285859      -0.07739273      -0.13194197       0.02849768      -0.12225281      -0.64104633      -8.73281853
Si      12.49514477       9.48061367       8.94106014       0.08147061      -1.10290936       0.22663234      -0.16883230       0.41036371       0.69011006      -8.73804978
Si      10.59941243      10.54129176       2.71085551      -0.37536395      -0.80125669      -0.86268244       0.18280022       0.27985260       0.71519254      -8.74058295
Si      12.44935923      11.59920407       5.89091432       0.59148905       0.41915525       0.38650461       0.41079282       0.42320621      -0.23213523      -8.75141021
Si      14.46210807      12.74253749       9.05823501       1.15699051       0.62377832      -0.77522368      -0.20717157       0.44209144      -0.07116851      -8.53103429
Si      10.57655092       3.93257479       2.71906598      -1.17788880       0.02845655       0.97469136       0.22990505      -0.14081514      -0.06647279      -8.71652631
Si      12.45253371       4.93967493       5.88085357      -0.38003517      -1.03628616      -0.63918570       0.62326572       0.60816052      -0.01698433      -8.76079611
Si      14.36383558       6.21630899       9.12774566      -0.24411679       0.67241455       1.06645721       0.45013113      -0.69006438      -0.93859488      -8.73917755
Si      12.50438336       7.19126260       2.80874636       0.71482803      -0.64412930       0.25717012      -0.39306697       0.56005558      -0.41820717      -8.74589411
Si      14.45055622       8.30557280       5.82412462       0.03814176       0.16926390       0.88248474       0.02161204      -0.54468221       0.46925895      -8.73372723
Si      16.34308885       9.36980814       8.97525944      -1.13392335       0.43189616       0.18391737       0.13770868       0.88283353       0.34599598      -8.71048519
Si      14.47560595      10.54393531       2.76745103      -1.40417149       1.55040621       0.77710419      -0.38301030       0.16004121       0.03623964      -8.78432248
Si      16.32649911      11.73154531       5.93454480       0.47251658      -0.92557917      -0.48182272      -0.05419346      -0.40854173      -0.38985045      -8.70369502
Si      18.32663924      12.77265544       9.04689975      -0.37362201       0.29569745      -1.29012618       0.29007955      -0.38161473       0.29906598      -8.71632429
Si      14.38586747       3.90901167       2.71888537       0.67425846      -0.37162105       0.75589608       0.58635756      -0.00462059      -0.24175869      -8.76482272
Si      16.42751798       4.97774896       5.90821916       1.79492057       1.60241073      -0.70693124      -0.35077168       0.32832557       0.34497556      -8.73667928
Si      18.27471418       6.06312680       9.04576240       0.11274396       0.57355887       1.17070894       0.50878135       0.16964617      -0.12971712      -8.55756457
Si      16.37478691       7.18258003       2.81854744      -0.89981885       0.34961350       0.30605017      -0.30636613       0.09429913      -0.44056365      -8.70322591
Si      18.27924563       8.42637547       5.91049337      -1.37583125       0.05375363       0.33445300       0.64341765      -0.62920454       0.34173626      -8.71269599
Si      20.20145775       9.46673987       9.00595070       0.84500161       0.41458936      -0.31697046      -0.09289178       0.18468581       0.21204769      -8.78378364
Si      18.27455280      10.46917352       2.75877139       0.35787542      -0.29149003      -0.65861642      -0.27858308       0.47731395      -0.04655512      -8.57799467
Si      20.21986294      11.74694649       5.84253940       1.02108118      -0.43571997       0.16144443      -0.36147526      -0.72982401      -0.11025522      -8.68771185
Si      22.12300223      12.83060809       8.99477072       2.15894721      -0.78724834       0.11059328      -0.09939822      -0.22916923       0.70475121      -8.56036001
Si       2.86071972       1.68505002       3.41209044       1.41003860      -0.20930217       0.90921165       0.30262460      -0.20390505       0.62149279      -8.71887990
Si       4.83245212       2.76022565       6.65786136       0.43836307      -0.25414562       0.59967633      -0.06819622       0.42284764      -0.03173077      -8.77321444
Si       2.89822189       3.93169133       0.35581662       0.10591833       0.11488963      -0.48671775      -0.15853780      -0.66828084       0.27317644      -8.72407675
Si       4.79259813       4.93834960       3.58137343       0.92273936       0.75669282       1.06335185       0.29741502       0.05499570      -0.43634955      -8.74667646
Si       6.83352785       6.12130101       6.67289456       0.01552073      -1.39800138      -1.68126538      -0.91688755       0.26399319       0.04657954      -8.70932799
Si       4.78352430       7.23776790       0.40552519       0.08803237      -0.36797019       0.28996673       0.48882617       0.16687993       0.11563384      -8.69946579
Si       6.78913263       8.25645640       3.58398320       0.60916323       1.01946259       0.20720879      -0.99908611       0.52943354      -0.17375196      -8.74726337
Si       8.72021967       9.48662432       6.68457202       1.56021604      -2.23684622      -0.00675820      -0.53102591       0.41886902      -0.33522314      -8.74335767
Si       4.88593195       0.53474888       0.41589234      -1.29751171      -1.14618547      -0.53728914      -0.59586629      -0.10391739      -0.39018744      -8.77443948
Si       6.79937637       1.63376673       3.55770109       0.01057385      -1.20603242       0.01703632      -0.58215896       0.24146333      -0.41176084      -8.72011372
Si       8.54057931       2.78377794       6.66734697      -0.34309685       0.23557973      -0.40024923       0.53993786      -0.13523445       0.24303409      -8.72253476
Si       6.70169645       3.99593060       0.37096923       1.78676192       0.17149205      -0.53244722      -0.49453485      -0.57278477       0.50016988      -8.74438522
Si       8.70628170       5.12097488       3.52530569      -0.70255098       0.38598850       1.47020962      -0.37521994      -1.50907438       0.24526665      -8.72208060
Si      10.58537513       6.07031883       6.67925742      -0.50779320       1.11733730      -0.89002366      -0.00020784       0.21645798       0.42907122      -8.74133301
Si       8.63106985       7.19670078       0.44309844       0.09640225       0.48424947       0.04115743       0.14055468      -0.25043864      -0.75773695      -8.70450458
Si      10.52779655       8.34438385       3.55459085      -0.92435588      -0.65166531      -0.72086561       0.60939587      -0.13956236       0.24992191      -8.69526562
Si      12.57742045       9.43196651       6.62191819      -0.79148578       1.27204508       0.09920151      -0.37611994      -0.44811142       0.16167067      -8.75145693
Si       8.67292853       0.65635976       0.46635022      -0.38175064      -0.25687611      -0.02970837      -0.10109827      -0.33572352      -0.75666115      -8.71673076
Si      10.55458419       1.67623820       3.50847066      -1.94962962      -0.25411154      -0.57932961       0.64183267       0.31687439       0.52725975      -8.69571796
Si      12.50666461       2.80155516       6.70712258       0.03693123       0.27887980      -0.14900898       0.02172659      -0.52296491      -0.10219694      -8.77854250
Si      10.59995861       3.86257575       0.35145266      -0.30944996      -0.07201001       0.76630044      -0.30695312      -0.06898690       0.47201203      -8.76468438
Si      12.52558390       4.99572631       3.52825335      -1.28279853       0.17137330       0.06220031      -0.45084092      -0.22350221       0.33181634      -8.76110906
Si      14.40225665       6.03105257       6.72104162      -0.08017082       0.27711378       0.69153779       0.28166111       0.52725681      -0.18796731      -8.64368151
Si      12.49618059       7.16290829       0.43588444       0.27033465      -0.57499656       0.32615308      -0.17969961       0.37473384      -0.35768804      -8.71226490
Si      14.40607436       8.37441678       3.50677511      -2.20050405       0.05991388       0.76443466       0.51146422      -0.87959420       0.02191106      -8.73752070
Si      16.32434878       9.45984373       6.62310767      -0.17855518       0.03998924       0.72634853      -0.06375683       0.28218824       0.20789496      -8.77994015
P        0.95029663       0.54075186       0.42751051      -0.97669070       1.02633104      -0.82276847       0.27828857      -0.28666224      -0.28441439      -9.83997366
54
Lattice="11.5478352 0.0 0.0 5.773917198490155 10.000722372470358 0.0 5.773916394327279 3.333571176804646 9.428767828939895" Properties=species:S:1:pos:R:3:momenta:R:3:forces:R:3:energies:R:1 spacegroup="_JSON {\"number\": 1, \"setting\": 1}" unit_cell=conventional occupancy="_JSON {\"0\": {\"Si\": 1.0}, \"1\": {\"Si\": 1.0}, \"2\": {\"Si\": 1.0}, \"3\": {\"Si\": 1.0}, \"4\": {\"Si\": 1.0}, \"5\": {\"Si\": 1.0}, \"6\": {\"Si\": 1.0}, \"7\": {\"Si\": 1.0}, \"8\": {\"Si\": 1.0}, \"9\": {\"Si\": 1.0}, \"10\": {\"Si\": 1.0}, \"11\": {\"Si\": 1.0}, \"12\": {\"Si\": 1.0}, \"13\": {\"Si\": 1.0}, \"14\": {\"Si\": 1.0}, \"15\": {\"Si\": 1.0}, \"16\": {\"Si\": 1.0}, \"17\": {\"Si\": 1.0}, \"18\": {\"Si\": 1.0}, \"19\": {\"Si\": 1.0}, \"20\": {\"Si\": 1.0}, \"21\": {\"Si\": 1.0}, \"22\": {\"Si\": 1.0}, \"23\": {\"Si\": 1.0}, \"24\": {\"Si\": 1.0}, \"25\": {\"Si\": 1.0}, \"26\": {\"Si\": 1.0}, \"27\": {\"Si\": 1.0}, \"28\": {\"Si\": 1.0}, \"29\": {\"Si\": 1.0}, \"30\": {\"Si\": 1.0}, \"31\": {\"Si\": 1.0}, \"32\": {\"Si\": 1.0}, \"33\": {\"Si\": 1.0}, \"34\": {\"Si\": 1.0}, \"35\": {\"Si\": 1.0}, \"36\": {\"Si\": 1.0}, \"37\": {\"Si\": 1.0}, \"38\": {\"Si\": 1.0}, \"39\": {\"Si\": 1.0}, \"40\": {\"Si\": 1.0}, \"41\": {\"Si\": 1.0}, \"42\": {\"Si\": 1.0}, \"43\": {\"Si\": 1.0}, \"44\": {\"Si\": 1.0}, \"45\": {\"Si\": 1.0}, \"46\": {\"Si\": 1.0}, \"47\": {\"Si\": 1.0}, \"48\": {\"Si\": 1.0}, \"49\": {\"Si\": 1.0}, \"50\": {\"Si\": 1.0}, \"51\": {\"Si\": 1.0}, \"52\": {\"Si\": 1.0}, \"53\": {\"P\": 1.0}}" energy=-471.46212599991156 stress="-0.002589824762407592 -0.001924950682588201 -0.0015938619983135729 -0.001924950682588201 -0.0001533410231025522 -0.000725874224117034 -0.0015938619983135729 -0.000725874224117034 -0.0019285572125213727" free_energy=-471.46212599991156 pbc="T T T"
Si       6.77139961       3.89291739       2.74471673      -0.61045559       0.27756505      -0.03229946      -0.14734446      -0.04514809       0.27785447      -8.67836301
Si       8.70366311       4.98289039       5.84312638       0.37647839       0.00932529      -0.44809287      -0.15386377       0.15965323       0.82286231      -8.74753344
Si      10.63308822       6.08062445       9.00117059       1.00033331       0.70586467      -1.12528882      -0.24608795       0.17702878       0.31492761      -8.68277113
Si       8.68553218       7.27633098       2.72221948       0.80610302       0.33954616      -0.47573940      -0.77574928      -0.64937429       0.35005782      -8.75325085
Si      10.61179108       8.31587405       5.91999820       0.37180535      -0.20228655      -1.38013764       0.33902716       0.01179641      -0.82069871      -8.74799711
Si      12.49340366       9.44787923       8.97611822      -0.12747684      -0.04397172       1.01047459      -0.08200226       0.78304311       0.29663221      -8.73270731
Si      10.58939585      10.50797580       2.69381882       0.01477870      -0.51358648       0.15628934       0.25513107       0.10844925       0.48220404      -8.74517342
Si      12.48846085      11.63759033       5.89771209       0.74459169       0.99263207      -0.18510544      -0.19097073       0.21271615      -0.44398108      -8.76013012
Si      14.49854734      12.78464299       9.01407229      -0.07540212       0.79296395      -0.91913354      -1.37779965      -0.27878450      -0.09693404      -8.50592796
Si      10.52207931       3.92861928       2.76562740      -0.92092880      -0.19217666       0.77451680       0.14784681      -0.18492392      -0.16911045      -8.73289900
Si      12.45512682       4.91986845       5.85282947       0.43949013       0.40256750      -0.28567148       0.46547033       1.05621063       0.53534450      -8.73435740
Si      14.37816431       6.21429315       9.14216770       0.88370138      -0.87552585      -0.56436864       0.77913626      -1.14698443      -1.09327913      -8.74798226
Si      12.51479826       7.17837719       2.80402639      -0.47739095       0.07782703      -0.45936237      -0.98160091       0.26965934      -0.49083858      -8.75188940
Si      14.44592737       8.29699825       5.88620548      -0.32852108      -0.39103745       1.40577457      -0.41515082      -0.12125394       0.15518034      -8.74200402
Si      16.29685292       9.41855216       9.00204814      -0.47839988       1.23042541       0.86337449       0.72096933       0.11048290       0.43272234      -8.72644310
Si      14.39245704      10.60803384       2.79787753      -1.58228652       0.50421889       0.17319519       0.32186084      -1.32228231      -0.75326709      -8.75674937
Si      16.34505043      11.67489816       5.89671098       0.18307531      -1.06926710      -0.88324772      -0.25153740       0.23485367      -0.07832071      -8.69928992
Si      18.31593375      12.76972243       9.00015016      -0.10286385      -0.44875208      -0.36846885       0.02628010      -0.53443405       0.76021022      -8.72036345
Si      14.43721625       3.89508774       2.74960731       1.13395035      -0.08957876       0.44002118      -0.00080134       0.26288443      -0.14784375      -8.71710774
Si      16.49024626       5.05653805       5.89367499       0.23373980       1.07178076       0.23710732      -1.72502349      -0.94906258       0.66392956      -8.70178849
Si      18.29441735       6.09862581       9.08718880       0.48534711       0.74725228       0.18245771      -0.08305098       0.04328553      -1.00834359      -8.53998452
Si      16.32080181       7.20897456       2.82070971      -1.03998359       0.70347580      -0.15992675       0.16292097       0.27613563      -0.18050442      -8.68542061
Si      18.24190330       8.40256044       5.93889622       0.05212100      -0.94383726       0.67453328       1.01447009      -0.53736961       0.04760631      -8.68703343
Si      20.23800073       9.49006070       8.99803595       0.48244822       0.35067189       0.01593733      -0.34312215      -0.29579321       0.21559783      -8.76791195
Si      18.28090756      10.48237261       2.72476359      -0.11400558       0.94545392      -0.58534109      -0.26677099       1.04492339       0.16689660      -8.52331204
Si      20.25789295      11.69391592       5.85312890       0.42263456      -1.55293067       0.36002536      -0.38104260      -0.58368439       0.34543496      -8.69519446
Si      22.21758831      12.78524589       9.02683373       1.17607589      -0.85055569       1.02130316      -1.14757843       0.14331430       0.34666833      -8.56703599
Si       2.93616746       1.66629298       3.47652566       1.26117338      -0.47709105       1.37832551      -0.50104559      -0.08852851      -0.04799900      -8.74898850
Si       4.85445390       2.77169953       6.68258219       0.40781572       0.77115661       0.27732597      -0.04120441       0.72348086      -0.28423446      -8.72856883
Si       2.90652879       3.91524373       0.34719212       0.37673053      -0.63307105       0.24275655       0.47925323      -0.24031353       0.59975158      -8.72681241
Si       4.84496738       4.97865706       3.60963923       0.91670269       0.76913260      -0.12518405      -0.32244099       0.01210621      -0.95310543      -8.76618693
Si       6.80959621       6.07189213       6.60442994      -0.63468041      -0.25533906      -0.61267471       0.20656301       1.13622374       1.27516307      -8.66617391
Si       4.80975958       7.22366218       0.42734598       0.90338151      -0.18939769       0.57139899       0.43651359       0.08960542       0.22307787      -8.73473310
Si       6.78180090       8.32082052       3.58501231      -0.83590332       1.23371463      -0.21493237      -0.78822962      -0.24876798      -0.34912133      -8.73938750
Si       8.76618465       9.39737415       6.67279916      -0.02218462      -0.98791349      -0.38334886      -1.32753851       1.09154717      -0.11334104      -8.71246555
Si       4.81096365       0.48467923       0.37227850      -1.19924942      -0.48044976      -1.05232014       0.79843778       0.97994849      -0.10584152      -8.76187122
Si       6.76528345       1.59385008       3.54675427      -1.48537501      -0.06153474      -0.33694230      -1.20670308       1.20393422      -0.04189315      -8.69126643
Si       8.55455720       2.79038613       6.65414627       1.03876553       0.02543802      -0.14982213       1.14747726      -0.10689560       0.04960338      -8.70368312
Si       6.76242908       3.98174390       0.36749170       0.36047102      -0.70251364       0.44311759      -1.11478897      -0.53255150       0.64475354      -8.74840056
Si       8.65587992       5.09252488       3.59187431      -1.16824051      -1.21629124       0.65783868      -0.16899783      -0.51489372      -1.31087137      -8.71807654
Si      10.56689623       6.12548225       6.64854773      -0.05453199       0.76989397      -0.31791211       0.54994070      -0.61572002       0.27827982      -8.73293773
Si       8.63717688       7.21579566       0.41373510       0.05176720       0.33779386      -1.12236414      -0.19343399       0.11362250      -0.58512934      -8.72431684
Si      10.51566284       8.31029271       3.52963899       0.65764650      -0.52787290      -0.19162601       1.32588516       0.31137886       0.38068161      -8.68304312
Si      12.52862770       9.47314941       6.63565582      -0.93140821       0.20514406       0.45972002       0.16426102      -0.79165091       0.28790213      -8.72762895
Si       8.65387580       0.62978340       0.43922458      -0.25141544      -0.75513524      -0.87997605       0.26658083      -0.33024055      -0.26862408      -8.65944157
Si      10.49168269       1.67526652       3.50058729      -0.27037966       0.18541170       0.26192052       1.30447469       0.17596573       0.44154792      -8.69412379
Si      12.51134596       2.78816588       6.68893938       0.16687442      -0.86342188      -0.64196326       0.12161676      -0.79189926      -0.46872246      -8.77691851
Si      10.57381958       3.86284640       0.40826516      -0.60634796       0.20219281       1.32110807       0.01025592       0.38833803       0.15661214      -8.73802372
Si      12.45512039       4.98762125       3.53926744      -1.12229560      -0.55709646       0.23496325       0.64533889      -0.51478493      -0.14447134      -8.75649690
Si      14.40982721       6.06167413       6.74684530       0.37568209       0.78358297       0.22885681       0.29780685       0.09628977      -0.43085749      -8.62142800
Si      12.50335117       7.15102121       0.43436843       0.01423106       0.18013596      -0.43351195      -0.13264072       0.59191914      -0.53978515      -8.68842958
Si      14.32391114       8.35589070       3.54851401      -0.72434925      -0.52966695       0.84202125       1.28961071       0.03444523       0.06896875      -8.71819954
Si      16.31097715       9.47110117       6.66770354      -0.31875836       0.30341056       0.93090238      -0.01314345      -0.05839459       0.03579625      -8.79608420
P        0.92536494       0.57730540       0.38476491       0.14491870       0.49172301      -0.83050378       1.10253500      -0.35950570       0.27085122      -9.84781743
54
Lattice="11.5478352 0.0 0.0 5.773917198490155 10.000722372470358 0.0 5.773916394327279 3.333571176804646 9.428767828939895" Properties=species:S:1:pos:R:3:momenta:R:3:forces:R:3:energies:R:1 spacegroup="_JSON {\"number\": 1, \"setting\": 1}" unit_cell=conventional occupancy="_JSON {\"0\": {\"Si\": 1.0}, \"1\": {\"Si\": 1.0}, \"2\": {\"Si\": 1.0}, \"3\": {\"Si\": 1.0}, \"4\": {\"Si\": 1.0}, \"5\": {\"Si\": 1.0}, \"6\": {\"Si\": 1.0}, \"7\": {\"Si\": 1.0}, \"8\": {\"Si\": 1.0}, \"9\": {\"Si\": 1.0}, \"10\": {\"Si\": 1.0}, \"11\": {\"Si\": 1.0}, \"12\": {\"Si\": 1.0}, \"13\": {\"Si\": 1.0}, \"14\": {\"Si\": 1.0}, \"15\": {\"Si\": 1.0}, \"16\": {\"Si\": 1.0}, \"17\": {\"Si\": 1.0}, \"18\": {\"Si\": 1.0}, \"19\": {\"Si\": 1.0}, \"20\": {\"Si\": 1.0}, \"21\": {\"Si\": 1.0}, \"22\": {\"Si\": 1.0}, \"23\": {\"Si\": 1.0}, \"24\": {\"Si\": 1.0}, \"25\": {\"Si\": 1.0}, \"26\": {\"Si\": 1.0}, \"27\": {\"Si\": 1.0}, \"28\": {\"Si\": 1.0}, \"29\": {\"Si\": 1.0}, \"30\": {\"Si\": 1.0}, \"31\": {\"Si\": 1.0}, \"32\": {\"Si\": 1.0}, \"33\": {\"Si\": 1.0}, \"34\": {\"Si\": 1.0}, \"35\": {\"Si\": 1.0}, \"36\": {\"Si\": 1.0}, \"37\": {\"Si\": 1.0}, \"38\": {\"Si\": 1.0}, \"39\": {\"Si\": 1.0}, \"40\": {\"Si\": 1.0}, \"41\": {\"Si\": 1.0}, \"42\": {\"Si\": 1.0}, \"43\": {\"Si\": 1.0}, \"44\": {\"Si\": 1.0}, \"45\": {\"Si\": 1.0}, \"46\": {\"Si\": 1.0}, \"47\": {\"Si\": 1.0}, \"48\": {\"Si\": 1.0}, \"49\": {\"Si\": 1.0}, \"50\": {\"Si\": 1.0}, \"51\": {\"Si\": 1.0}, \"52\": {\"Si\": 1.0}, \"53\": {\"P\": 1.0}}" energy=-472.23140270432384 stress="-0.001077214914433657 -0.0016145832684664246 -0.0013830214192202042 -0.0016145832684664246 0.0008460512196929243 -0.000756934382762449 -0.0013830214192202042 -0.000756934382762449 -0.0013617828266212929" free_energy=-472.23140270432384 pbc="T T T"
Si       6.73318731       3.89969903       2.75228717      -0.86645000      -0.11492332       0.26462959      -0.21995089      -0.40446813       0.05415463      -8.74019339
Si       8.71446986       4.99022658       5.85507223      -0.01210627       0.28045664       0.83541319      -0.33296498       0.19174644       0.55324290      -8.74109012
Si      10.67035528       6.11791538       8.96009611       0.32307182       0.59761528      -0.35164858      -0.61438572      -0.28418031       0.64737020      -8.72198220
Si       8.69017302       7.26820946       2.71136392      -0.66986618      -0.58213650       0.04970956      -0.93719523      -0.38953216       0.29697078      -8.69614562
Si      10.63766093       8.30927661       5.82728866       0.44184426       0.00881331      -1.82802362      -0.31450862       0.22909242       0.45446818      -8.75447199
Si      12.48658889       9.46561559       9.03505993      -0.06321605       0.45909311       1.12283206       0.18464955      -0.22996678      -0.15463371      -8.75378716
Si      10.59493291      10.48363590       2.71022993       0.06804805      -0.41871959       0.25969173      -0.23970727       0.09256639      -0.33659931      -8.74031994
Si      12.51762982      11.69163019       5.87459869       0.35637656       0.94710278      -0.58788585      -0.23471405      -0.25357899      -0.02128695      -8.74979396
Si      14.44155042      12.81124909       8.96489746      -1.91912392       0.20927857      -0.85191702      -0.65393072      -0.32802761       0.29226089      -8.56390382
Si      10.47982834       3.91015243       2.80144281      -0.64733961      -0.52442238       0.61947228       0.31192531      -0.22512692      -0.06038062      -8.76660596
Si      12.49449958       4.97147527       5.86240360       1.02576825       1.29216674       0.65843681       0.31150459      -0.01536860       0.54163065      -8.72916822
Si      14.44365454       6.13333759       9.07947051       1.36185446      -1.95576076      -1.57894329      -0.18159511      -0.15151066      -0.11537892      -8.77779056
Si      12.46241351       7.18474744       2.76339925      -1.18663794       0.00919699      -1.02381336       0.31928194      -0.34782246      -0.23255589      -8.75249873
Si      14.41392292       8.28074387       5.96101942      -0.81916446      -0.04951841       1.33376152      -0.12970630       0.56915293      -0.28762881      -8.75745576
Si      16.30169890       9.47842822       9.05855923       0.64793141       0.89827195       1.14931081       0.63470665      -0.48880389      -0.11758687      -8.74035596
Si      14.32896514      10.58678042       2.77963802      -0.76283703      -1.12428072      -0.75450300       0.61777560      -0.58494270      -0.31396699      -8.73458437
Si      16.34819451      11.63164920       5.85319772       0.02932723      -0.54994020      -0.65191261       0.11298272       0.33887426       0.39771014      -8.75174307
Si      18.30757193      12.72908832       9.00243711      -0.27137784      -0.97811188       0.24254462      -0.18633730      -0.03713545      -0.07051422      -8.75470636
Si      14.49128633       3.89707566       2.76989757       0.82951179       0.07710414       0.38082313      -0.38572916      -0.07736297       0.03762906      -8.70726032
Si      16.43517909       5.07439642       5.92323269      -2.13784962      -0.30724067       0.69276907      -0.93424177      -0.61687694      -0.11066825      -8.74587910
Si      18.31095984       6.13921448       9.06034713       0.08747553       0.79899345      -1.06434947      -0.30288910       0.03644094      -0.42891941      -8.54787361
Si      16.27797334       7.25436268       2.80888634      -0.48955856       0.95551229      -0.22321537       0.55606613      -0.00278839       0.08646635      -8.73745164
Si      18.27313453       8.34241005       5.97012597       0.86999286      -1.10404075       0.37885233      -0.03865540       0.41756999      -0.48975647      -8.72053836
Si      20.25180409       9.49271279       9.00673391       0.09572923      -0.30830502       0.30911752      -0.13987754      -0.51745140       0.18468907      -8.71523020
Si      18.26962031      10.56933050       2.70351033      -0.19663439       2.21853456      -0.16343847       0.20295297       0.43415812       0.39443110      -8.53110166
Si      20.26903702      11.60010060       5.88710888       0.07833400      -1.75775255       0.91115669      -0.07758153       0.46591646       0.23831765      -8.73667650
Si      22.23334059      12.75039634       9.08462266      -0.52318674      -0.38351308       1.00130174      -0.91892173       0.50147088      -0.36000785      -8.56516187
Si       2.97788188       1.64118454       3.54017014       0.25976133      -0.41312736       0.93301726      -0.76061039       0.17139991      -0.49072392      -8.73714916
Si       4.87181623       2.83151629       6.69016562       0.19346781       1.26709694       0.11521042      -0.27093737      -0.23100575       0.11786466      -8.70718796
Si       2.94668496       3.87960204       0.38067144       1.11124263      -0.60639292       0.94462480       0.29835678       0.22857905       0.24264454      -8.73123543
Si       4.87478245       5.02264421       3.57412287       0.11627398       0.96211242      -1.00675170      -0.71773382       0.21252942      -0.08559153      -8.75926261
Si       6.79275470       6.09753500       6.62405099       0.01022498       1.00564755       1.30525196       0.28270843       0.24066902       1.03309299      -8.72905523
Si       4.86464069       7.21716947       0.46488619       0.95853398      -0.04524504       0.80832328      -0.45806126       0.13701655       0.01488541      -8.76353494
Si       6.71580377       8.37209405       3.56132010      -1.49024527       0.68966486      -0.64173169      -0.02600386      -0.36917374      -0.16022154      -8.70501710
Si       8.72393917       9.38123945       6.65174072      -1.28887222       0.17797462      -0.34610938      -0.16205672       0.32157755       0.18604640      -8.76398921
Si       4.78688247       0.50119300       0.32046695       0.30062849       1.07533200      -0.79945084       0.86165465       0.82525634       0.37382198      -8.71245641
Si       6.65228960       1.63661205       3.52925972      -2.44630485       1.57156855      -0.31996728       0.24085528       0.71364113       0.01353787      -8.74379782
Si       8.64837451       2.78859514       6.64273126       2.32934968      -0.07912043      -0.39147934       0.31341576      -0.04080068      -0.35035357      -8.73610999
Si       6.75085606       3.92737742       0.40744171      -0.49367715      -1.28205091       0.87804888       0.07474944      -0.17497214      -0.13970394      -8.75319029
Si       8.59290923       5.02198865       3.57332519      -1.11355482      -1.22926266      -1.22863449       0.29511704       0.45168562      -0.77209680      -8.73577374
Si      10.58688340       6.14104703       6.63733576       0.80743288      -0.13326122      -0.20677221       0.50173609      -0.44253330      -0.09760418      -8.74977550
Si       8.63002436       7.24346356       0.34431505      -0.33960856       0.78629774      -1.25353595      -0.23929089       0.36906173       0.46750540      -8.74390841
Si      10.59180738       8.29534888       3.52762097       1.90697065      -0.06194836      -0.06550464       0.00068331       0.24103184      -0.31299816      -8.76320906
Si      12.48842110       9.46122179       6.66998411      -0.58080798      -0.46621143       0.80742333       0.24082284      -0.03464587       0.12242707      -8.71922142
Si       8.65349431       0.57617888       0.39083665       0.26064510      -1.30347170      -0.81377383       0.34558916      -0.37328197       0.32331173      -8.70095694
Si      10.51610441       1.68513216       3.52151079       0.89985967       0.05927596       0.32029212       0.12536944      -0.32825070      -0.38890218      -8.73876700
Si      12.52479396       2.72052811       6.63959987       0.33880078      -1.49779431      -1.12786526       0.09243194       0.06037094      -0.03195225      -8.74417367
Si      10.54821624       3.88893239       0.47621193      -0.27376324       0.74946554       1.09754095       0.37777524       0.21322772      -0.51327943      -8.71228847
Si      12.42772564       4.94608638       3.54149740       0.15202480      -0.84463124      -0.19363680       0.92153669       0.18862454      -0.30565046      -8.72045545
Si      14.43853548       6.09982739       6.74111279       0.63698571       0.54397214      -0.44942891      -0.03307087      -0.38726096      -0.42425722      -8.72405859
Si      12.50160470       7.18151189       0.39571140      -0.01716219       0.89967974      -0.90076036       0.12097686       0.24882757       0.00988718      -8.74585793
Si      14.32821336       8.33303155       3.59460041       0.64911955      -0.32052462       0.87020208       0.35190835       0.13542861      -0.10062701      -8.73401930
Si      16.29861179       9.47625297       6.71616047      -0.05319856      -0.25744651       0.87449429       0.36767838      -0.62829238      -0.13010309      -8.75478985
P        0.96871480       0.59109959       0.35667597       1.51595602       0.15892664      -0.33919873       0.44544646      -0.07075449       0.31958270      -9.86839078
54
Lattice="11.5478352 0.0 0.0 5.773917198490155 10.000722372470358 0.0 5.773916394327279 3.333571176804646 9.428767828939895" Properties=species:S:1:pos:R:3:momenta:R:3:forces:R:3:energies:R:1 spacegroup="_JSON {\"number\": 1, \"setting\": 1}" unit_cell=conventional occupancy="_JSON {\"0\": {\"Si\": 1.0}, \"1\": {\"Si\": 1.0}, \"2\": {\"Si\": 1.0}, \"3\": {\"Si\": 1.0}, \"4\": {\"Si\": 1.0}, \"5\": {\"Si\": 1.0}, \"6\": {\"Si\": 1.0}, \"7\": {\"Si\": 1.0}, \"8\": {\"Si\": 1.0}, \"9\": {\"Si\": 1.0}, \"10\": {\"Si\": 1.0}, \"11\": {\"Si\": 1.0}, \"12\": {\"Si\": 1.0}, \"13\": {\"Si\": 1.0}, \"14\": {\"Si\": 1.0}, \"15\": {\"Si\": 1.0}, \"16\": {\"Si\": 1.0}, \"17\": {\"Si\": 1.0}, \"18\": {\"Si\": 1.0}, \"19\": {\"Si\": 1.0}, \"20\": {\"Si\": 1.0}, \"21\": {\"Si\": 1.0}, \"22\": {\"Si\": 1.0}, \"23\": {\"Si\": 1.0}, \"24\": {\"Si\": 1.0}, \"25\": {\"Si\": 1.0}, \"26\": {\"Si\": 1.0}, \"27\": {\"Si\": 1.0}, \"28\": {\"Si\": 1.0}, \"29\": {\"Si\": 1.0}, \"30\": {\"Si\": 1.0}, \"31\": {\"Si\": 1.0}, \"32\": {\"Si\": 1.0}, \"33\": {\"Si\": 1.0}, \"34\": {\"Si\": 1.0}, \"35\": {\"Si\": 1.0}, \"36\": {\"Si\": 1.0}, \"37\": {\"Si\": 1.0}, \"38\": {\"Si\": 1.0}, \"39\": {\"Si\": 1.0}, \"40\": {\"Si\": 1.0}, \"41\": {\"Si\": 1.0}, \"42\": {\"Si\": 1.0}, \"43\": {\"Si\": 1.0}, \"44\": {\"Si\": 1.0}, \"45\": {\"Si\": 1.0}, \"46\": {\"Si\": 1.0}, \"47\": {\"Si\": 1.0}, \"48\": {\"Si\": 1.0}, \"49\": {\"Si\": 1.0}, \"50\": {\"Si\": 1.0}, \"51\": {\"Si\": 1.0}, \"52\": {\"Si\": 1.0}, \"53\": {\"P\": 1.0}}" energy=-471.36396606354765 stress="-0.00031513578681448094 0.0022766575032108407 0.0017515312278259558 0.0022766575032108407 -0.0026021164790412735 0.000501938243349439 0.0017515312278259558 0.000501938243349439 0.00030416738213623063" free_energy=-471.36396606354765 pbc="T T T"
Si       6.67750007       3.88208895       2.76325032      -1.25479019      -0.39314314       0.05700079      -0.19840855       0.23821271      -0.31882748      -8.78086017
Si       8.70221753       5.01161157       5.90533683      -0.40241020       0.50876275       0.80131165      -0.12287024       0.08919627      -0.53482399      -8.71296610
Si      10.66504532       6.13736656       8.96313202      -0.45178613       0.15634808       0.35251818      -0.31541491      -0.23269132       0.19282564      -8.77693248
Si       8.62737278       7.23256697       2.72126377      -1.53220048      -0.57788369       0.23461553      -0.17325263       0.38824681      -0.06449904      -8.64475371
Si      10.64314229       8.31780133       5.76591554      -0.29265123       0.28355888      -0.26749426      -0.54226212       0.10243010       1.36893995      -8.71871651
Si      12.49233888       9.46881318       9.08497390       0.28992356      -0.50128977       0.73581484       0.20785068      -0.85554826      -0.32285236      -8.74604454
Si      10.58420281      10.46864626       2.70461112      -0.52742365      -0.06212144      -0.54574822      -0.42842552       0.43710580      -0.60853996      -8.72990712
Si      12.53118727      11.72975939       5.84905389       0.22987694       0.48039899      -0.27808102       0.03072569      -0.35803705       0.40014538      -8.69650210
Si      14.34098759      12.81566017       8.93396506      -1.40432125       0.06571658      -0.33666317       1.31846956       0.09191230       0.25841359      -8.55726132
Si      10.46230829       3.87599901       2.83163305       0.06431472      -0.70488276       0.50218011       0.62710609       0.06571592      -0.17455655      -8.76711347
Si      12.55796390       5.02306350       5.90759414       1.31379856       0.38972484       0.82502557      -0.01710792      -1.11979566      -0.38587983      -8.69360862
Si      14.50150556       6.03709871       9.00654769       0.75274603      -1.50216344      -0.94140159      -0.54388084       0.67342055       0.89067882      -8.70190550
Si      12.43315208       7.16654547       2.70377158       0.38430755      -0.75206959      -1.16238434       1.50185296      -0.51172890       0.13060943      -8.70137921
Si      14.37253875       8.30348489       6.01611810      -0.62913163       0.91450290       0.69772561       0.36986076       0.55207688      -0.55134399      -8.75327206
Si      16.34998209       9.50622191       9.10858858       0.95773232       0.18243170       0.66120111      -0.27463259      -0.40431242      -0.49357681      -8.74260140
Si      14.30864919      10.52121381       2.73743974      -0.09204657      -1.08713740      -0.68218840       0.29421228       0.54239625       0.36188652      -8.64976884
Si      16.36095945      11.60873844       5.83612238       0.57642705      -0.48178184      -0.00750007       0.56248886      -0.26810971       0.35909662      -8.77032820
Si      18.28735722      12.68832707       9.00018188      -0.45312677      -0.33220411      -0.52109583      -0.00905985       0.88705815      -0.80772558      -8.72900351
Si      14.51845629       3.89410155       2.79213598       0.18837817      -0.24767135       0.46412708      -0.44928728      -0.29662530       0.02634477      -8.73742732
Si      16.31518905       5.04772061       5.94527242      -1.87885221      -0.49463762      -0.02947665       1.23143065       0.21266132      -0.78324781      -8.69864603
Si      18.30883686       6.18354082       9.00692927      -0.05864260       0.89270296      -0.55183532       0.11719680       0.03984405       1.19818824      -8.53898942
Si      16.27350902       7.30075899       2.80240173       0.26828561       0.75044042       0.00188565       0.34465531      -0.24258628       0.18597415      -8.77644134
Si      18.30370493       8.30969987       5.96515674       0.07871483      -0.04061396      -0.64780823      -0.87062572       0.79479757      -0.77725715      -8.71254536
Si      20.25477704       9.45844350       9.02981730       0.06871637      -0.92860841       0.55502920       0.06061096      -0.23798909       0.11589263      -8.66596143
Si      18.27303983      10.68742789       2.70944091       0.40939106       1.95688057       0.33845397       0.50444127      -0.83884401       0.18905289      -8.53285147
Si      20.27410779      11.54012184       5.93641419       0.18528248      -0.29739350       0.80558183       0.19691071       1.32747814      -0.38224464      -8.71745245
Si      22.18447162      12.75037332       9.11862368      -1.02531897       0.34607240       0.22493250       0.31744286       0.34684535      -0.62876084      -8.54344229
Si       2.96583843       1.62772712       3.57129179      -0.60486511      -0.07274138       0.30104168      -0.29913194       0.27872612      -0.30162211      -8.72873171
Si       4.86978503       2.87441018       6.70613148      -0.28237132       0.12430574       0.56110374      -0.30755569      -1.15268679       0.36675244      -8.69577987
Si       3.00573587       3.85832939       0.43261384       0.90449235      -0.18400068       0.90222597      -0.61042401       0.30895087      -0.27282285      -8.71970848
Si       4.85318291       5.08083510       3.53033801      -0.89445095       1.19362185      -0.45374086      -0.52786664      -0.03763452       0.72517105      -8.70970542
Si       6.79202149       6.14104544       6.71614730      -0.24944973       0.36108730       1.81070001      -0.53117407      -0.87792227      -0.52520946      -8.74355153
Si       4.88821824       7.22111160       0.50214137      -0.17382145       0.19950005       0.47713769      -0.88463822       0.14159668      -0.50710116      -8.74274164
Si       6.64699614       8.39944474       3.52600824      -0.91912848       0.46941368      -0.60603473       0.80603648       0.08484514       0.22192347      -8.66246663
Si       8.66666828       9.38910075       6.64549029      -0.62286372      -0.10719213       0.19481861       0.89122771      -0.55475210       0.50904592      -8.74545465
Si       4.82158905       0.57523464       0.29365684       0.73357374       1.43405126      -0.21530238      -0.26373230      -0.39971974       0.39776139      -8.66792282
Si       6.55192952       1.72853319       3.51330269      -1.09786861       1.51800040      -0.26077681       1.33779753      -0.91008079       0.11824908      -8.71193237
Si       8.76424046       2.78482367       6.60864636       1.71118806      -0.01086086      -0.84712396      -1.14208894       0.16373617      -0.11687452      -8.73147342
Si       6.74074010       3.85867037       0.43952627       0.29394777      -1.23408265       0.20855117       0.79870171       0.22565627      -0.67026012      -8.67886079
Si       8.54977723       4.98056844       3.50030829      -0.48211995      -0.28653134      -1.16181465       0.47534824       0.68647790       0.75670800      -8.72993758
Si      10.64257110       6.12518332       6.62164634       1.16042695      -0.31722220      -0.37239580      -0.10783701       0.15621659      -0.02645732      -8.75817175
Si       8.60792050       7.29467153       0.30623857      -0.38609281       1.02686279      -0.04952729       0.20584430      -0.17183786       1.03904268      -8.73095021
Si      10.66903892       8.29814914       3.50431215       0.66088953       0.09470329      -0.89818969      -1.44314642      -0.06604905      -0.59303370      -8.74411749
Si      12.46356786       9.44512775       6.71394603      -0.44108904       0.01802235       0.80027883      -0.04390563       0.61130090      -0.14497011      -8.70663785
Si       8.67553043       0.49542086       0.36340887       0.43414612      -1.67428745      -0.19784136      -0.22696292       0.03495521       0.45514085      -8.76203733
Si      10.55218839       1.67280785       3.51773784       0.20108304      -0.55380309      -0.50043003      -0.94215281      -0.42575124      -0.52396189      -8.73320137
Si      12.54535902       2.65565745       6.58806301       0.42348311      -0.76319324      -0.67066210       0.00625040       0.88589541       0.60742158      -8.68145578
Si      10.54817307       3.92909523       0.50797575       0.24661683       0.62178482       0.03557395       0.27592889      -0.40642029      -0.79759426      -8.68945306
Si      12.46566942       4.91572983       3.52436291       1.14108430      -0.21946106      -0.34285885       0.31249403       0.54510913       0.14504144      -8.69387645
Si      14.46322941       6.11464201       6.70544677       0.15585032       0.11258778      -0.78845828      -0.59313424      -0.02775760       0.05847819      -8.78196870
Si      12.50979561       7.22807550       0.35683962       0.41090035       0.65424031      -0.44768285       0.43058695      -0.59796651       0.51627888      -8.76770929
Si      14.36014271       8.31924509       3.63390807       0.30818509      -0.23690917       0.58005375      -0.65895183       0.01118465      -0.28900573      -8.70607934
Si      16.31237895       9.43851480       6.75567116       0.59530877      -1.11767769       0.59892151       0.42573128      -0.37281040      -0.25557189      -8.71258673
P        1.03843657       0.60182069       0.35026179       1.00775144       0.42584230       0.05670621      -1.12327211       0.44360798       0.26355754      -9.83077184
54
Lattice="11.5478352 0.0 0.0 5.773917198490155 10.000722372470358 0.0 5.773916394327279 3.333571176804646 9.428767828939895" Properties=species:S:1:pos:R:3:momenta:R:3:forces:R:3:energies:R:1 spacegroup="_JSON {\"number\": 1, \"setting\": 1}" unit_cell=conventional occupancy="_JSON {\"0\": {\"Si\": 1.0}, \"1\": {\"Si\": 1.0}, \"2\": {\"Si\": 1.0}, \"3\": {\"Si\": 1.0}, \"4\": {\"Si\": 1.0}, \"5\": {\"Si\": 1.0}, \"6\": {\"Si\": 1.0}, \"7\": {\"Si\": 1.0}, \"8\": {\"Si\": 1.0}, \"9\": {\"Si\": 1.0}, \"10\": {\"Si\": 1.0}, \"11\": {\"Si\": 1.0}, \"12\": {\"Si\": 1.0}, \"13\": {\"Si\": 1.0}, \"14\": {\"Si\": 1.0}, \"15\": {\"Si\": 1.0}, \"16\": {\"Si\": 1.0}, \"17\": {\"Si\": 1.0}, \"18\": {\"Si\": 1.0}, \"19\": {\"Si\": 1.0}, \"20\": {\"Si\": 1.0}, \"21\": {\"Si\": 1.0}, \"22\": {\"Si\": 1.0}, \"23\": {\"Si\": 1.0}, \"24\": {\"Si\": 1.0}, \"25\": {\"Si\": 1.0}, \"26\": {\"Si\": 1.0}, \"27\": {\"Si\": 1.0}, \"28\": {\"Si\": 1.0}, \"29\": {\"Si\": 1.0}, \"30\": {\"Si\": 1.0}, \"31\": {\"Si\": 1.0}, \"32\": {\"Si\": 1.0}, \"33\": {\"Si\": 1.0}, \"34\": {\"Si\": 1.0}, \"35\": {\"Si\": 1.0}, \"36\": {\"Si\": 1.0}, \"37\": {\"Si\": 1.0}, \"38\": {\"Si\": 1.0}, \"39\": {\"Si\": 1.0}, \"40\": {\"Si\": 1.0}, \"41\": {\"Si\": 1.0}, \"42\": {\"Si\": 1.0}, \"43\": {\"Si\": 1.0}, \"44\": {\"Si\": 1.0}, \"45\": {\"Si\": 1.0}, \"46\": {\"Si\": 1.0}, \"47\": {\"Si\": 1.0}, \"48\": {\"Si\": 1.0}, \"49\": {\"Si\": 1.0}, \"50\": {\"Si\": 1.0}, \"51\": {\"Si\": 1.0}, \"52\": {\"Si\": 1.0}, \"53\": {\"P\": 1.0}}" energy=-471.3293147456955 stress="0.00034066452221661773 0.002191584215338616 0.0016871715721306145 0.002191584215338616 -0.0011962241790928873 0.0006595578703567805 0.0016871715721306145 0.0006595578703567805 0.0017366352202748748" free_energy=-471.3293147456955 pbc="T T T"
Si       6.60899306       3.88291430       2.75226524      -1.22302696       0.57668333      -0.46840975       0.32767094       0.78706716      -0.27773297      -8.76704852
Si       8.68097499       5.04050477       5.92095602      -0.32359757       0.56942696      -0.26699129       0.20032155      -0.00527927      -0.76668687      -8.70444878
Si      10.63730234       6.14066638       8.98060456      -0.44689681       0.04157645       0.16922217       0.30144603       0.04246932      -0.36475657      -8.76689191
Si       8.54948140       7.22278918       2.72838733      -1.25139250       0.26395281       0.01716103       0.56112794       0.60217248      -0.13565836      -8.68300358
Si      10.61151395       8.33407569       5.79564498      -0.77760333       0.28319516       1.12955656      -0.00263140      -0.11101217       0.31102376      -8.75437486
Si      12.51217857       9.41471952       9.11269172       0.39329053      -1.38169969       0.34879665      -0.07565933      -0.14861169      -0.21796863      -8.73889662
Si      10.54418615      10.48511889       2.65727438      -0.88584330       0.69145704      -1.10703563       0.01556480       0.42126143      -0.00118023      -8.74899574
Si      12.54447616      11.74118729       5.85169527       0.24341692      -0.04530852       0.39028237      -0.09947660      -0.35237815       0.43503295      -8.69188554
Si      14.32845213      12.82615040       8.92191480       0.97933336       0.39661478      -0.16530220       1.50412357       0.32648000       0.09571074      -8.52378025
Si      10.48968092       3.84761807       2.84752404       0.93062164      -0.26168998       0.03030556       0.42241978       0.50346385      -0.45033954      -8.74187599
Si      12.61840627       4.99656868       5.92700929       0.81508066      -1.36988426      -0.20789000      -0.68730229      -0.96458474      -0.85401881      -8.69331967
Si      14.52136909       5.98574918       8.99416689       0.05002018      -0.46026676       0.45486383      -0.35525415       0.64909673       0.82188145      -8.67455994
Si      12.50409938       7.11607324       2.65632315       2.05053718      -0.94506059      -0.46619002       0.44139515       0.36280897       0.81100259      -8.73829703
Si      14.35541517       8.36565909       6.03136274      -0.03201509       1.30061020      -0.10529893       0.33121018      -0.05632815      -0.49792037      -8.74080656
Si      16.38222650       9.50440899       9.12431150       0.18486220      -0.17190395      -0.03381085      -0.60969417      -0.09104506      -0.37474772      -8.72971721
Si      14.31073141      10.48934852       2.71902721       0.07708212      -0.10867045       0.01703279      -0.08588445       0.60950380       0.49898513      -8.65354857
Si      16.41156196      11.56876987       5.84444225       1.24506217      -1.05145895       0.22717527       0.13217510      -0.29343013      -0.02298021      -8.73815898
Si      18.26598241      12.70651901       8.94436143      -0.31266444       0.94097542      -1.44889972       0.18208144       0.55013903      -0.17268649      -8.72164065
Si      14.51271096       3.87106043       2.81568751      -0.36252820      -0.57024458       0.38723810      -0.26618665      -0.05304091      -0.15437629      -8.74717424
Si      16.27556031       5.02975700       5.91526626       0.44115237      -0.22480897      -0.97564270       1.49315479       0.09491717      -0.22427384      -8.67889535
Si      18.31343655       6.23029666       9.03556751       0.26478949       0.83281333       1.67099827       0.23206620      -0.19022001       1.25136888      -8.56545331
Si      16.29320967       7.33192171       2.80874991       0.33661695       0.47553550       0.20677615      -0.21895569      -0.09678533       0.05228338      -8.77106509
Si      18.27708003       8.32964012       5.90611610      -0.93747490       0.58931765      -1.44262531      -0.24817516      -0.02828007      -0.14052122      -8.73317302
Si      20.26072772       9.40630592       9.06113677       0.14405054      -0.93500020       0.57641459       0.00707277       0.25080002      -0.13319983      -8.69374652
Si      18.30825010      10.74741577       2.72872459       0.74191526       0.18361373       0.28710743      -0.24005919      -1.39273040      -0.23608475      -8.52033319
Si      20.29231543      11.56888509       5.96178185       0.49000805       1.14539912       0.16443160       0.11248541       0.35618628      -0.37282325      -8.72879001
Si      22.15576117      12.77463018       9.10777779       0.10570697       0.44467697      -0.56567277       0.97273896      -0.16645583      -0.32469410      -8.52785765
Si       2.93259309       1.63545920       3.58044574      -0.46192093       0.37719874       0.13766435       0.47653457       0.30462659       0.04839914      -8.73152600
Si       4.84661586       2.83990814       6.74474162      -0.49916043      -1.26719142       0.75282630       0.10122581      -0.47051082      -0.25092932      -8.73469576
Si       3.02318876       3.85932890       0.46828224      -0.29881496       0.18319384       0.46565012      -0.82292692       0.14889439      -0.24304340      -8.72219116
Si       4.79259486       5.13482316       3.53536784      -1.26966717       0.71753979       0.59489961       0.04889907      -0.59976814       0.51080104      -8.70859920
Si       6.75605343       6.12867985       6.77303482      -1.10722942      -0.70783810       0.12783824      -0.45975264      -0.39447658      -1.38351605      -8.70772713
Si       4.85136652       7.23359326       0.50298311      -1.04662282       0.19022207      -0.48665206      -0.15592708      -0.19144729      -0.64862518      -8.72803152
Si       6.63530327       8.43214231       3.50509492       0.51678159       0.83115540      -0.17542275       0.94905886       0.28612276       0.27622783      -8.68309168
Si       8.66739737       9.36403743       6.67449340       0.53512548      -0.72351434       0.84801290       0.42724188      -0.07748510       0.25902199      -8.75829050
Si       4.84149540       0.62396677       0.29547862      -0.08938141       0.26970260       0.21306931      -0.70966444      -0.98578196       0.10269226      -8.66564016
Si       6.54466678       1.75744706       3.50583363       0.74985213      -0.58783418      -0.01603841       1.04382446      -1.53430325       0.13939005      -8.68414969
Si       8.80297692       2.79183910       6.56540378      -0.25977447       0.26481685      -0.70578351      -1.22042737       0.10671313       0.25911490      -8.72666378
Si       6.78465185       3.80373070       0.42487635       1.26165922      -0.84411021      -0.71533353       0.32180340       0.29620806      -0.45353703      -8.69473476
Si       8.53970259       4.98675742       3.47551191       0.03077083       0.39982769       0.27416630       0.21303318       0.20999058       0.97440998      -8.71648604
Si      10.69197101       6.11678674       6.60487332       0.60180902      -0.00362325      -0.19807950      -0.57674675       0.15426827       0.23665744      -8.73507417
Si       8.59834704       7.33346228       0.34202668       0.03682674       0.30944665       1.31200721       0.26751591      -0.71465581       0.61290267      -8.72468312
Si      10.64916593       8.29453257       3.44104885      -1.29730999      -0.33376043      -1.34188104      -0.96421640      -0.43642685       0.07828628      -8.72234549
Si      12.43741697       9.47167669       6.74836672      -0.54075505       0.98055319       0.47754674       0.01759038       0.54207421      -0.27740608      -8.71704200
Si       8.68022627       0.41879586       0.36896676      -0.39166590      -1.04577033       0.35978138      -0.72845781       0.80549687       0.24671938      -8.75080592
Si      10.52501729       1.62886549       3.47828026      -1.15418704      -1.06392742      -0.84053846      -0.59574147      -0.18010001       0.11717967      -8.74555744
Si      12.56688751       2.65347229       6.57752611       0.37838083       0.69195490       0.23485266      -0.06843166       0.90464368       0.45848353      -8.72076879
Si      10.56842540       3.94129734       0.48445942       0.44605458      -0.20884065      -0.77752107      -0.04350293      -0.59686327      -0.18512107      -8.70792213
Si      12.52842737       4.92193745       3.51674788       1.07724327       0.34895906       0.12333272      -0.37433075       0.12153024       0.41659264      -8.69841172
Si      14.44923793       6.12822102       6.67372295      -0.58833426       0.51821350      -0.29894262      -0.19832815       0.39053333       0.52391650      -8.77549980
Si      12.54845683       7.23577780       0.35052500       1.02268221      -0.34540873       0.09274426       0.25782601      -0.53596748       0.07471271      -8.76677696
Si      14.35009279       8.30763739       3.65216569      -0.62935209      -0.17678879       0.10043007      -0.40969107       0.12838881      -0.34084687      -8.70287335
Si      16.35609346       9.37427820       6.77660411       0.95346000      -1.13672645       0.19013440      -0.04570172       0.39164122      -0.28532401      -8.73116766
P        1.04055406       0.64003248       0.36224781      -0.91697347       1.15269845       0.42764317      -1.09848191       0.32047008       0.17820218      -9.79082004
54
Lattice="11.5478352 0.0 0.0 5.773917198490155 10.000722372470358 0.0 5.773916394327279 3.333571176804646 9.428767828939895" Properties=species:S:1:pos:R:3:momenta:R:3:forces:R:3:energies:R:1 spacegroup="_JSON {\"number\": 1, \"setting\": 1}" unit_cell=conventional occupancy="_JSON {\"0\": {\"Si\": 1.0}, \"1\": {\"Si\": 1.0}, \"2\": {\"Si\": 1.0}, \"3\": {\"Si\": 1.0}, \"4\": {\"Si\": 1.0}, \"5\": {\"Si\": 1.0}, \"6\": {\"Si\": 1.0}, \"7\": {\"Si\": 1.0}, \"8\": {\"Si\": 1.0}, \"9\": {\"Si\": 1.0}, \"10\": {\"Si\": 1.0}, \"11\": {\"Si\": 1.0}, \"12\": {\"Si\": 1.0}, \"13\": {\"Si\": 1.0}, \"14\": {\"Si\": 1.0}, \"15\": {\"Si\": 1.0}, \"16\": {\"Si\": 1.0}, \"17\": {\"Si\": 1.0}, \"18\": {\"Si\": 1.0}, \"19\": {\"Si\": 1.0}, \"20\": {\"Si\": 1.0}, \"21\": {\"Si\": 1.0}, \"22\": {\"Si\": 1.0}, \"23\": {\"Si\": 1.0}, \"24\": {\"Si\": 1.0}, \"25\": {\"Si\": 1.0}, \"26\": {\"Si\": 1.0}, \"27\": {\"Si\": 1.0}, \"28\": {\"Si\": 1.0}, \"29\": {\"Si\": 1.0}, \"30\": {\"Si\": 1.0}, \"31\": {\"Si\": 1.0}, \"32\": {\"Si\": 1.0}, \"33\": {\"Si\": 1.0}, \"34\": {\"Si\": 1.0}, \"35\": {\"Si\": 1.0}, \"36\": {\"Si\": 1.0}, \"37\": {\"Si\": 1.0}, \"38\": {\"Si\": 1.0}, \"39\": {\"Si\": 1.0}, \"40\": {\"Si\": 1.0}, \"41\": {\"Si\": 1.0}, \"42\": {\"Si\": 1.0}, \"43\": {\"Si\": 1.0}, \"44\": {\"Si\": 1.0}, \"45\": {\"Si\": 1.0}, \"46\": {\"Si\": 1.0}, \"47\": {\"Si\": 1.0}, \"48\": {\"Si\": 1.0}, \"49\": {\"Si\": 1.0}, \"50\": {\"Si\": 1.0}, \"51\": {\"Si\": 1.0}, \"52\": {\"Si\": 1.0}, \"53\": {\"P\": 1.0}}" energy=-471.3623937611485 stress="0.001536080219257689 -0.0010299899661507259 -0.00017070691888505633 -0.0010299899661507259 0.002467622305205974 -0.0003076833109434315 -0.00017070691888505633 -0.0003076833109434315 0.0002020435104584742" free_energy=-471.3623937611485 pbc="T T T"
Si       6.56497923       3.93260261       2.72260108      -0.30529508       1.03987172      -0.53994532       0.89945106      -0.27529473       0.19707193      -8.70549116
Si       8.67193782       5.06968629       5.88290775      -0.04186514       0.52044357      -1.01543927       0.11948982      -0.09946075      -0.09151065      -8.74815158
Si      10.62830795       6.14426190       8.97527292       0.11608897       0.06293696      -0.32828312       0.34560651      -0.07918384      -0.19153517      -8.72427188
Si       8.51071771       7.25301968       2.72876726      -0.15922816       0.69791828       0.10840403       0.80386276      -0.14502010       0.28535002      -8.76152448
Si      10.58002858       8.34256493       5.85075335      -0.25272364       0.01037288       0.68989423       0.64358274      -0.22062080      -0.78659463      -8.73601147
Si      12.52785044       9.34940800       9.12252669       0.17388457      -0.85951708       0.01007652      -0.19439718       0.81730080      -0.27102884      -8.69944183
Si      10.50493863      10.52927838       2.61092079      -0.47687924       0.79555327      -0.43482853       0.53605506      -0.33967367       0.85973851      -8.73981064
Si      12.54886197      11.72628875       5.88502183      -0.15814316      -0.48392561       0.76271776      -0.40295543      -0.18823159      -0.03587351      -8.73976006
Si      14.42124730      12.85782509       8.91966082       2.14947632       0.70583160       0.11903791      -0.11892586      -0.09620115       0.22764528      -8.52498502
Si      10.54727281       3.85341446       2.83132876       1.08815997       0.43983646      -0.62187066      -0.27330493       0.33165363      -0.33794519      -8.70115264
Si      12.63150054       4.90588336       5.88746929      -0.32127441      -1.62717615      -1.15086068      -0.70279305       0.83015393      -0.26092875      -8.73221022
Si      14.51592249       5.98104157       9.04074600      -0.13600431       0.15904228       1.11334867       0.12031248       0.16730820       0.00160487      -8.71505598
Si      12.60791720       7.08914326       2.66443553       1.48961002       0.02541858       0.72043726      -1.19583126       0.76952300       0.58428163      -8.72755761
Si      14.36103415       8.42702889       6.00951716       0.13542244       0.95628034      -0.65684876      -0.09760581      -0.38606671      -0.20965990      -8.72218825
Si      16.37303451       9.49331120       9.11324640      -0.41658810      -0.24507761      -0.28011243      -0.14455192      -0.06220192       0.04667688      -8.71245611
Si      14.30639382      10.49866566       2.73528964      -0.31471409       0.26665471       0.49049545      -0.34336477      -0.15867483       0.05082447      -8.74821560
Si      16.47084288      11.51097302       5.85285901       0.80146304      -0.94063433       0.05426062      -0.69290484       0.52879601      -0.17877664      -8.65549224
Si      18.25667319      12.76398404       8.87896822      -0.05652153       0.99567629      -0.69982326       0.12348027      -0.44444522       1.14503249      -8.68923099
Si      14.48635952       3.84517339       2.82825535      -0.58277111      -0.29027528       0.06617300      -0.02890158       0.43339571      -0.24897907      -8.73137047
Si      16.33880410       5.01847176       5.87170549       1.55588280      -0.27342458      -0.38298314      -0.13423602      -0.17734731       0.92393440      -8.71544974
Si      18.33216642       6.26147638       9.14635113       0.32764340       0.24123862       2.00222032      -0.24272645      -0.62509829      -0.87453717      -8.59839622
Si      16.30066179       7.35577985       2.81876646      -0.04727456       0.45946480       0.11960645      -0.20035520      -0.00248082      -0.16398082      -8.72591960
Si      18.23402611       8.34965371       5.83630150      -0.41637580       0.01705897      -0.99312843       0.85288267      -0.63211425       0.74095670      -8.69505770
Si      20.26700622       9.37083343       9.08232478       0.06671904      -0.36018677       0.15622285      -0.10213165       0.46659365      -0.41790239      -8.75346209
Si      18.32666806      10.70904932       2.73300780      -0.19326768      -1.44090126      -0.12788540      -0.81951645      -0.55617581      -0.25237986      -8.54646478
Si      20.31627234      11.62539113       5.96075305       0.28450571       0.70735676      -0.11027529      -0.41744989      -0.81783640      -0.00469001      -8.70617321
Si      22.19042763      12.79091848       9.07446950       0.96937253       0.18948539      -0.52670722       0.01869584      -0.12727371       0.35385970      -8.54386848
Si       2.92942541       1.66450817       3.59063310       0.31237748       0.64207355       0.23622493       0.35597588      -0.04731335      -0.00694707      -8.73383652
Si       4.83240673       2.77113735       6.76466486       0.10838235      -1.04615936      -0.14955468       0.66948474       0.73150972      -0.83867660      -8.73014074
Si       2.98517731       3.87125948       0.48719227      -0.90031560       0.20908559       0.32073667       0.15467664      -0.09224345       0.00730712      -8.73399870
Si       4.73301736       5.14764329       3.57496221      -0.90449408      -0.21755278       0.66653247       0.43348336      -0.54804494      -0.44598865      -8.73701379
Si       6.68996066       6.08732720       6.73776376      -1.14937156      -0.64534722      -1.18344533       0.57485353       0.48409993      -0.25951493      -8.67863707
Si       4.80240686       7.23267423       0.45924749      -0.59121078      -0.26701379      -1.00440025       0.73505147      -0.34557387       0.04075317      -8.70128520
Si       6.68971464       8.48271788       3.50230115       1.31886751       0.95669573      -0.01961345       0.01216303      -0.27231352      -0.05880335      -8.74180652
Si       8.69697599       9.33318174       6.72278667       0.31032566      -0.28158837       0.85904953      -0.65391795       0.58113410      -0.27520809      -8.71628063
Si       4.81293671       0.60621349       0.30360740      -0.85838958      -0.75189045      -0.02432406      -0.13585026      -0.21519777      -0.34517587      -8.74580879
Si       6.61465794       1.68320467       3.50727660       1.67384348      -1.84306148       0.02484991       0.05642229       0.02221677      -0.02682386      -8.70836184
Si       8.75605564       2.80581195       6.53956032      -1.22136440       0.19924520      -0.25322080      -0.01397932      -0.15465982       0.36216753      -8.71860323
Si       6.85061779       3.77135559       0.37803710       0.97920636      -0.35755587      -0.88560581      -0.74469947       0.41922703       0.26895910      -8.73909192
Si       8.54725264       5.01166063       3.51859612       0.22608563       0.48996084       1.12592010       0.08622423      -0.03470059       0.00857499      -8.71032960
Si      10.70145860       6.11770018       6.60356815      -0.21235925      -0.05838813       0.12190443      -0.46323825      -0.21583444       0.12958878      -8.71396626
Si       8.60742523       7.32338158       0.42067985       0.24654849      -0.61906168       1.37165808       0.02385852      -0.41826077      -0.61462666      -8.71348136
Si      10.55787718       8.26344675       3.38169645      -1.86739894      -0.72175579      -0.76461151       0.29763703       0.06954776       0.69324685      -8.61695098
Si      12.41432076       9.53591510       6.76335355      -0.24341931       1.25583420       0.11608394       0.38445438      -0.29941879      -0.18642208      -8.72515316
Si       8.63785778       0.39806840       0.39242916      -1.02522607       0.27259878       0.43592746       0.03806780       0.86319851      -0.13407779      -8.72679292
Si      10.45832654       1.57353082       3.44612664      -1.02627160      -0.86355691      -0.25238808       0.80286120       0.52353554       0.63013336      -8.71513808
Si      12.58369214       2.71346924       6.59773892       0.24789927       1.29462103       0.33198097      -0.12625264      -0.27831089      -0.31917999      -8.77608166
Si      10.58539223       3.91259917       0.44643049       0.11385803      -0.73789699      -0.49399503      -0.37327689      -0.01823528       0.50627394      -8.73666700
Si      12.56660465       4.93729952       3.53755681       0.32298405       0.11157073       0.58793637      -0.58767891      -0.35473386       0.08079127      -8.72754262
Si      14.42047636       6.16419875       6.67714019      -0.35476391       0.67571948       0.37149364       0.39813918      -0.28820272       0.29748458      -8.72415968
Si      12.60409290       7.20574965       0.35064406       0.91110552      -0.62295159      -0.18328313      -0.47194418       0.15712704      -0.28451921      -8.72462388
Si      14.31252822       8.30786287       3.64625592      -0.55865453       0.28674711      -0.26547764       0.53994376       0.51258376      -0.10076186      -8.72649437
Si      16.39603477       9.33682698       6.77656747       0.41368863      -0.18575030      -0.17032819      -0.63807511       0.78789752      -0.20141942      -8.75417988
P        0.97337394       0.69746067       0.38635658      -1.55123567       1.05605565       0.53604589       0.29414901      -0.48035662      -0.01778951      -9.78679732
54
Lattice="11.5478352 0.0 0.0 5.773917198490155 10.000722372470358 0.0 5.773916394327279 3.333571176804646 9.428767828939895" Properties=species:S:1:pos:R:3:momenta:R:3:forces:R:3:energies:R:1 spacegroup="_JSON {\"number\": 1, \"setting\": 1}" unit_cell=conventional occupancy="_JSON {\"0\": {\"Si\": 1.0}, \"1\": {\"Si\": 1.0}, \"2\": {\"Si\": 1.0}, \"3\": {\"Si\": 1.0}, \"4\": {\"Si\": 1.0}, \"5\": {\"Si\": 1.0}, \"6\": {\"Si\": 1.0}, \"7\": {\"Si\": 1.0}, \"8\": {\"Si\": 1.0}, \"9\": {\"Si\": 1.0}, \"10\": {\"Si\": 1.0}, \"11\": {\"Si\": 1.0}, \"12\": {\"Si\": 1.0}, \"13\": {\"Si\": 1.0}, \"14\": {\"Si\": 1.0}, \"15\": {\"Si\": 1.0}, \"16\": {\"Si\": 1.0}, \"17\": {\"Si\": 1.0}, \"18\": {\"Si\": 1.0}, \"19\": {\"Si\": 1.0}, \"20\": {\"Si\": 1.0}, \"21\": {\"Si\": 1.0}, \"22\": {\"Si\": 1.0}, \"23\": {\"Si\": 1.0}, \"24\": {\"Si\": 1.0}, \"25\": {\"Si\": 1.0}, \"26\": {\"Si\": 1.0}, \"27\": {\"Si\": 1.0}, \"28\": {\"Si\": 1.0}, \"29\": {\"Si\": 1.0}, \"30\": {\"Si\": 1.0}, \"31\": {\"Si\": 1.0}, \"32\": {\"Si\": 1.0}, \"33\": {\"Si\": 1.0}, \"34\": {\"Si\": 1.0}, \"35\": {\"Si\": 1.0}, \"36\": {\"Si\": 1.0}, \"37\": {\"Si\": 1.0}, \"38\": {\"Si\": 1.0}, \"39\": {\"Si\": 1.0}, \"40\": {\"Si\": 1.0}, \"41\": {\"Si\": 1.0}, \"42\": {\"Si\": 1.0}, \"43\": {\"Si\": 1.0}, \"44\": {\"Si\": 1.0}, \"45\": {\"Si\": 1.0}, \"46\": {\"Si\": 1.0}, \"47\": {\"Si\": 1.0}, \"48\": {\"Si\": 1.0}, \"49\": {\"Si\": 1.0}, \"50\": {\"Si\": 1.0}, \"51\": {\"Si\": 1.0}, \"52\": {\"Si\": 1.0}, \"53\": {\"P\": 1.0}}" energy=-470.4982945889967 stress="-0.0009000948960393258 -0.002256435776752528 -0.001280887816258921 -0.002256435776752528 0.0007541069238461326 -0.0003340096078948212 -0.001280887816258921 -0.0003340096078948212 -0.001674698210386107" free_energy=-470.4982945889967 pbc="T T T"
Si       6.58588695       3.96607434       2.70584440       1.08943945       0.08124993      -0.03596014       0.82290324      -0.88072195       0.44159307      -8.63061553
Si       8.67133397       5.09034309       5.83916710      -0.03216772       0.19554455      -0.40906093      -0.07733127      -0.37704459       0.83235281      -8.75361206
Si      10.64303343       6.14149257       8.95666582       0.33863491      -0.21384940      -0.26443863      -0.07314104      -0.24746144       0.26090298      -8.69461939
Si       8.52814332       7.27304918       2.74734002       0.68836369      -0.11206787       0.56543489       0.28085575      -0.81872666       0.14018934      -8.76936225
Si      10.59090570       8.33637708       5.85406182       0.58460481      -0.19473947      -0.53627932       0.31709682      -0.02200799      -0.66655113      -8.69998356
Si      12.52997386       9.34043943       9.11191321      -0.07080634       0.54311229      -0.41440058      -0.10151517       0.89695942      -0.26093970      -8.70731470
Si      10.50425664      10.55081843       2.62311573       0.49054581      -0.07185926       0.86004288       0.67291349      -0.70881166       0.69573156      -8.72131794
Si      12.52681076      11.69802986       5.91473574      -0.58749816      -0.50104470       0.19893885      -0.02342206       0.16484236      -0.69099974      -8.76111192
Si      14.50615596      12.87898389       8.93089130       0.66400754      -0.12947966       0.21824597      -1.73145383      -0.96028409      -0.10200146      -8.41880769
Si      10.58605913       3.88333531       2.79135180       0.25811764       0.57936483      -0.76349306      -0.78200551      -0.14763516       0.21068969      -8.66931721
Si      12.59288167       4.87211594       5.82968851      -1.03477204       0.58357320      -0.78022414      -0.23112118       1.73415136       0.79978362      -8.70873313
Si      14.51657172       5.99171380       9.09011318       0.16202254       0.21593146       0.61421477       0.11160223       0.04931733      -0.60252615      -8.73775287
Si      12.62782913       7.11571794       2.71480483      -0.87176201       0.88130993       1.00949149      -1.70446150       0.35787971      -0.15886525      -8.68580632
Si      14.36207596       8.46052179       5.97168030      -0.10445188       0.27636453      -0.68167849      -0.12784872      -0.55776986       0.20136434      -8.71295158
Si      16.35163477       9.47626393       9.10311393      -0.29622614      -0.43111220      -0.08616451       0.26101168      -0.15584772       0.12087312      -8.70698245
Si      14.28358453      10.49955369       2.75516622      -0.33556638      -0.29124966       0.12936169       0.49443636      -0.36180593      -0.47613834      -8.76894780
Si      16.48231944      11.49163353       5.84916898      -0.39872933       0.36192259      -0.16663221      -0.81892602       1.12989069      -0.05924074      -8.62569913
Si      18.25615580      12.79246878       8.89036389       0.00008082      -0.00359217       1.08433554      -0.01435240      -0.80398213       0.93388877      -8.68497018
Si      14.45665950       3.84913804       2.82351151      -0.50731622       0.44339923      -0.20434053       0.14134349       0.42850183      -0.07956206      -8.74221178
Si      16.39618552       4.99410727       5.88752119       0.33315192      -0.66568692       0.88239939      -1.27126486      -0.18113922       0.52185361      -8.71260828
Si      18.33335733       6.24796731       9.20104656      -0.36128518      -0.74404146      -0.14222306      -0.52742111      -0.55809248      -1.74377434      -8.53539232
Si      16.29483847       7.37688109       2.81716587      -0.07991711       0.25951703      -0.20118586       0.17066767      -0.33448271      -0.24034893      -8.66657278
Si      18.24656554       8.32775523       5.81852396       0.82784697      -0.74816467       0.37767360       0.58464525      -0.21281986       0.96107227      -8.70188482
Si      20.26647271       9.36815114       9.07421396      -0.07965925       0.21200086      -0.43568493      -0.07283556       0.28720809      -0.29204485      -8.77796702
Si      18.28999182      10.63161602       2.71899064      -1.04971797      -1.12397097      -0.35078887      -0.20573319       0.93199573      -0.02180771      -8.54812000
Si      20.31213822      11.62817620       5.95789550      -0.44199474      -0.57564012       0.04213473      -0.40704172      -0.70445191       0.14897575      -8.70830656
Si      22.22887802      12.79716242       9.06209579       0.28169280       0.05873404       0.03002238      -0.81734628      -0.08315456       0.26013426      -8.51647142
Si       2.94948543       1.68959698       3.59896173       0.25283096       0.19451424       0.00756826      -0.41596401      -0.50638571      -0.28942963      -8.71466758
Si       4.86273953       2.75098516       6.72773358       0.93069769       0.32977711      -1.11918218       0.19545709       0.91366720      -0.28246004      -8.74633904
Si       2.95585809       3.87792237       0.50356115      -0.05694428       0.03404314       0.24213337       0.76105594      -0.14249218      -0.23370000      -8.71078764
Si       4.70519703       5.12063013       3.58698905      -0.09091536      -0.69478522      -0.23772518       0.68332646      -0.08221186      -0.55711227      -8.74198434
Si       6.66652028       6.07911594       6.67938480       0.47316119       0.40364361      -0.80484147       1.37064087       0.72874640       0.67293314      -8.62844023
Si       4.80434873       7.20829040       0.41641804       0.69006554      -0.57365828      -0.49023622       0.80811189       0.00808039       0.57832080      -8.69281626
Si       6.74776436       8.51003381       3.49860425       0.69626574      -0.15965138      -0.08612178      -0.76067264      -1.19349535       0.07114574      -8.72127159
Si       8.68604093       9.34051191       6.75045586      -0.66507377       0.49784556       0.06227929      -0.40764162       0.32942983      -0.78152442      -8.70817683
Si       4.77795331       0.57291384       0.29313104      -0.17723917      -0.26101809      -0.22199524       0.98394122       0.76194563       0.23315784      -8.75278315
Si       6.68844321       1.60638108       3.51035901       0.83027201      -0.75774764       0.16570154      -1.12039929       1.29646076       0.23944296      -8.64652574
Si       8.70287679       2.81040335       6.54104010      -0.63611409      -0.01255057       0.31314570       0.64875978      -0.11402840       0.36172702      -8.66945317
Si       6.86508403       3.77131972       0.34843333      -0.50783708       0.39455261      -0.15468910      -1.03048916       0.55218591       0.60621684      -8.74675014
Si       8.56294880       5.03521574       3.56207944       0.38998336       0.38197527       0.25122270       0.15235533      -0.14319983      -1.05792201      -8.69437664
Si      10.67600527       6.10500650       6.61087397      -0.68531893      -0.40796977       0.07550831      -0.17057372      -0.13905965      -0.18145647      -8.72176467
Si       8.61998250       7.28186682       0.45840987       0.21608685      -0.82319586      -0.05566235      -0.04281621       0.13810648      -1.07166500      -8.68337857
Si      10.48807150       8.23840477       3.37328533      -0.48259643      -0.04994131       0.52106419       1.48326414       0.76823560       0.97179045      -8.57376736
Si      12.41818057       9.57770914       6.76421615       0.39690015       0.11224064      -0.05872073       0.40024016      -1.15451477      -0.09569257      -8.71682672
Si       8.59670696       0.44065235       0.40869879      -0.35507630       1.21709929       0.17703518       0.77019928       0.31551365      -0.16851021      -8.70055773
Si      10.44408992       1.55485552       3.45780080       0.53551316       0.23241247       0.65475099       0.98660785       0.82984592       0.44709675      -8.67935187
Si      12.59045795       2.75552493       6.60061275      -0.02312788       0.10734829      -0.18899922      -0.25334387      -1.02780862      -0.19640078      -8.76957100
Si      10.57735778       3.88129519       0.44165426      -0.37230666      -0.32168161       0.29215792      -0.18083360       0.49833582       0.42051922      -8.75186304
Si      12.56183436       4.93149996       3.56145181      -0.47672748      -0.23805499       0.11338280      -0.46852780       0.01384612      -0.71752095      -8.74826814
Si      14.41745166       6.18096800       6.70302145       0.21866484      -0.13913728       0.51499689       0.31441073      -0.68116904      -0.10095947      -8.62996174
Si      12.62602813       7.18475094       0.33512825      -0.19337405      -0.09399721      -0.26832492      -0.91867093       0.47807649       0.25465483      -8.68921163
Si      14.31145563       8.34433923       3.63200991       0.58253992       1.05763377      -0.23192752       0.76841491       0.29994197       0.07229749      -8.75518058
Si      16.39276649       9.35419569       6.76005042      -0.49126718       0.73886336      -0.45911335      -0.44787379       0.35515250      -0.18990785      -8.76710524
P        0.92096224       0.72429682       0.41040986      -0.46570118      -0.05408606       0.44685122       1.02076643      -0.96771189      -0.13964619      -9.76967328
54
Lattice="11.5478352 0.0 0.0 5.773917198490155 10.000722372470358 0.0 5.773916394327279 3.333571176804646 9.428767828939895" Properties=species:S:1:pos:R:3:momenta:R:3:forces:R:3:energies:R:1 spacegroup="_JSON {\"number\": 1, \"setting\": 1}" unit_cell=conventional occupancy="_JSON {\"0\": {\"Si\": 1.0}, \"1\": {\"Si\": 1.0}, \"2\": {\"Si\": 1.0}, \"3\": {\"Si\": 1.0}, \"4\": {\"Si\": 1.0}, \"5\": {\"Si\": 1.0}, \"6\": {\"Si\": 1.0}, \"7\": {\"Si\": 1.0}, \"8\": {\"Si\": 1.0}, \"9\": {\"Si\": 1.0}, \"10\": {\"Si\": 1.0}, \"11\": {\"Si\": 1.0}, \"12\": {\"Si\": 1.0}, \"13\": {\"Si\": 1.0}, \"14\": {\"Si\": 1.0}, \"15\": {\"Si\": 1.0}, \"16\": {\"Si\": 1.0}, \"17\": {\"Si\": 1.0}, \"18\": {\"Si\": 1.0}, \"19\": {\"Si\": 1.0}, \"20\": {\"Si\": 1.0}, \"21\": {\"Si\": 1.0}, \"22\": {\"Si\": 1.0}, \"23\": {\"Si\": 1.0}, \"24\": {\"Si\": 1.0}, \"25\": {\"Si\": 1.0}, \"26\": {\"Si\": 1.0}, \"27\": {\"Si\": 1.0}, \"28\": {\"Si\": 1.0}, \"29\": {\"Si\": 1.0}, \"30\": {\"Si\": 1.0}, \"31\": {\"Si\": 1.0}, \"32\": {\"Si\": 1.0}, \"33\": {\"Si\": 1.0}, \"34\": {\"Si\": 1.0}, \"35\": {\"Si\": 1.0}, \"36\": {\"Si\": 1.0}, \"37\": {\"Si\": 1.0}, \"38\": {\"Si\": 1.0}, \"39\": {\"Si\": 1.0}, \"40\": {\"Si\": 1.0}, \"41\": {\"Si\": 1.0}, \"42\": {\"Si\": 1.0}, \"43\": {\"Si\": 1.0}, \"44\": {\"Si\": 1.0}, \"45\": {\"Si\": 1.0}, \"46\": {\"Si\": 1.0}, \"47\": {\"Si\": 1.0}, \"48\": {\"Si\": 1.0}, \"49\": {\"Si\": 1.0}, \"50\": {\"Si\": 1.0}, \"51\": {\"Si\": 1.0}, \"52\": {\"Si\": 1.0}, \"53\": {\"P\": 1.0}}" energy=-471.8213180107422 stress="0.00017392649823266682 0.0003369180744486227 6.848740571235158e-05 0.0003369180744486227 -0.0012171998641756774 0.0007480211365120234 6.848740571235158e-05 0.0007480211365120234 -0.0001055555444499199" free_energy=-471.8213180107422 pbc="T T T"
Si       6.66604630       3.93735703       2.72092164       1.74420227      -1.10186292       0.58271092      -0.05632649      -0.56522360       0.31709471      -8.69135651
Si       8.66667757       5.08211943       5.84886245      -0.12425722      -0.57683029       0.65378737       0.00562320      -0.62676161       0.34221850      -8.76122143
Si      10.65357301       6.12233395       8.95482340      -0.00471654      -0.45168377       0.19775384      -0.33332103       0.00990502       0.26951685      -8.73373415
Si       8.57187887       7.23928338       2.77327357       0.96311000      -0.99770940       0.24135898       0.19787473      -0.11284556      -0.55589794      -8.76755179
Si      10.62481220       8.32749439       5.81133197       0.53540044      -0.11507001      -0.82592578      -0.35850431       0.09157541       0.39060195      -8.68536307
Si      12.52555767       9.39486914       9.08207785      -0.02699370       1.31290591      -0.67067968       0.16976976       0.03247075      -0.05367154      -8.76087540
Si      10.55128117      10.52393769       2.68635258       1.15984603      -0.80483184       1.35930881       0.10414016      -0.11305152      -0.06487106      -8.73770385
Si      12.50430363      11.67849034       5.89721160      -0.10741636      -0.26517858      -0.81619722       0.59393944       0.09003983      -0.47087903      -8.76601009
Si      14.47622609      12.83649698       8.94046974      -1.58919103      -1.34598550       0.24669686      -0.88624593      -0.39345197       0.26644248      -8.46892706
Si      10.56952679       3.90411277       2.76616342      -0.83568040       0.14889690      -0.08689420      -0.55284500      -0.39425917       0.62095408      -8.70285362
Si      12.53592131       4.95525392       5.82633800      -0.99095255       2.18611908       0.67152080       0.34569498       0.16743261       0.84249580      -8.74560877
Si      14.52072995       6.01156143       9.09798825      -0.18554319       0.68359432      -0.30301676      -0.57989066       0.58188257      -0.54659486      -8.75079103
Si      12.52875218       7.17273285       2.75801587      -2.53412199       1.22278344       0.57837295      -0.22217744       0.05616294      -0.40308194      -8.70203703
Si      14.35658654       8.45072431       5.94711593       0.01603199      -0.70875485      -0.21112555       0.34128657      -0.77160278       0.36018382      -8.73105632
Si      16.34725695       9.44873969       9.09873830       0.12552907      -0.56859704      -0.18737463       0.24088756       0.04158131      -0.28995216      -8.73263149
Si      14.29438404      10.48276641       2.74430510       0.82968451      -0.03691769      -0.46603351       0.80647831       0.82270370      -0.16645039      -8.74622279
Si      16.43381222      11.55329611       5.84299712      -1.33599450       1.89096638       0.03823540      -0.35100163       0.71800479       0.34839963      -8.72055394
Si      18.25696947      12.76410397       8.96840408       0.07845325      -0.96405010       1.57897163       0.16475664      -0.33600186      -0.28877488      -8.73363495
Si      14.43727443       3.88284190       2.81219322      -0.19348931       0.70106276      -0.19353239       0.28450706      -0.11946843       0.04713273      -8.78164678
Si      16.37076412       4.96420727       5.94102518      -1.06481114      -0.17794091       0.89175381      -0.34389435       0.93574775      -0.52407949      -8.74973145
Si      18.30049185       6.19444499       9.13226011      -0.72045504      -1.14369811      -2.25734833       0.13512842       0.03498694      -0.82876413      -8.55855371
Si      16.30083448       7.37189864       2.79811002       0.35195511      -0.55506678      -0.49305534       0.32836668      -0.73407710      -0.10760347      -8.69132114
Si      18.30008530       8.29261964       5.86834855       0.94176560      -0.34191726       1.32058732      -0.47816959       0.74269475       0.16221208      -8.73797688
Si      20.26045046       9.38881389       9.04517020      -0.13305596       0.55345018      -0.56215252      -0.00701806       0.18780767       0.13626914      -8.76550747
Si      18.23772394      10.61176012       2.70478228      -0.72290882       0.29011525      -0.07597708       0.65171764       0.62749915       0.41358992      -8.57421353
Si      20.27968750      11.58211550       5.96280805      -0.66239989      -0.91397920       0.04685530       0.10560198       0.34449896      -0.23381095      -8.72781351
Si      22.21174092      12.79655822       9.06783277      -0.87485398      -0.09239725       0.08154631      -0.56510636      -0.12269627      -0.15666465      -8.51512056
Si       2.94222005       1.67964456       3.58676579      -0.56522431      -0.55257869      -0.47854897      -0.54345005      -0.41300722      -0.30535349      -8.69361514
Si       4.90515448       2.79279159       6.67060006       0.42588472       0.97835963      -0.80985811      -0.79904290      -0.20771290       0.67990363      -8.74116863
Si       2.97532686       3.87311146       0.50015237       0.60059802      -0.23482186      -0.49869944      -0.01260572      -0.19772922      -0.70439370      -8.71016761
Si       4.72905406       5.08480910       3.56104925       1.01784895      -0.61253651      -0.57645309       0.72483287       0.14626459       0.12510652      -8.71862774
Si       6.73398014       6.11726090       6.66608966       1.77075202       0.76158041       0.31137660       0.09418952      -0.37921640       0.70918290      -8.71422410
Si       4.86193642       7.18504054       0.41309136       1.24814133      -0.17835859       0.32701037      -0.20370648       0.52771608       0.42363423      -8.71826014
Si       6.75366279       8.45468011       3.50060910      -0.44634396      -1.84767306       0.21683647      -0.64272772      -0.77339276       0.28015923      -8.72398552
Si       8.64796002       9.37144741       6.72302643      -0.52246657       0.52292591      -1.04543355       0.62312944      -0.28792713      -0.51436769      -8.74649767
Si       4.80458428       0.58602028       0.29815222       1.00896792       0.58646762       0.50948032       0.28504828       0.08600949       0.60997756      -8.76552332
Si       6.68975560       1.61744396       3.52837694      -0.62290765       1.08021566       0.46535898      -0.50168899       0.88498512       0.01885574      -8.70742502
Si       8.69150314       2.80591275       6.56875566       0.08711227      -0.14905885       0.67567722       0.18964892      -0.07031302       0.09766537      -8.69380077
Si       6.80810157       3.81188972       0.36079412      -1.42737176       1.09942877       0.54040073      -0.10220317       0.33537454       0.26704265      -8.74758007
Si       8.59120148       5.04681844       3.53686727       0.71087171      -0.01293499      -1.03582705       0.23086490      -0.42323306      -0.36159953      -8.74504066
Si      10.63541655       6.08470548       6.60727748      -0.83156193      -0.21556134      -0.18113776      -0.04690268       0.44203091      -0.05151188      -8.75415319
Si       8.63033772       7.24764476       0.42250922       0.19806929      -0.43420106      -1.09602852       0.03536120       0.31567659      -0.21813594      -8.71373525
Si      10.51921472       8.26566686       3.43510236       1.49748327       1.01848624       1.70666090       0.77697933       0.48319313       0.44503607      -8.73404259
Si      12.45059710       9.53970194       6.75478022       0.73695497      -1.44890378      -0.37326812      -0.00404380      -0.69771237      -0.36525748      -8.73609864
Si       8.60855245       0.50696905       0.41239460       0.76472992       1.10803779      -0.03025686       0.59083399      -0.47032628      -0.14490102      -8.72304675
Si      10.49731833       1.59656889       3.50084931       1.19632565       1.28310363       0.79985910      -0.17416978       0.52066390      -0.27804307      -8.70245218
Si      12.57782488       2.73200038       6.59091682      -0.47937162      -0.72335836      -0.02609122      -0.32215428       0.05546224       0.40765806      -8.75434327
Si      10.55674567       3.88270593       0.46574293      -0.29622721       0.30765070       0.45599181       0.27425397       0.22520835      -0.24546174      -8.76280170
Si      12.52067554       4.92806108       3.53779657      -1.04323331       0.26575933      -0.94246631      -0.25916607       0.62643500      -0.41823165      -8.75872192
Si      14.43713297       6.15053326       6.72308112       0.43414388      -0.90875899       0.20296081      -0.07708351      -0.22672242      -0.28009827      -8.65203106
Si      12.58264955       7.19603202       0.33821566      -1.35782121       0.43513809       0.50341783      -0.49964427       0.12035343       0.70143330      -8.72991334
Si      14.36204921       8.39774534       3.62018869       1.11073114       0.67810218      -0.27280614      -0.14606410      -0.84386734      -0.13256505      -8.76611801
Si      16.35684021       9.39973278       6.72916365      -0.72973959       0.87706441      -0.68920493       0.13861157      -0.11656795      -0.07084324      -8.74462974
P        0.93293506       0.68658048       0.42332797       0.87451744      -1.51099702       0.00090163       0.62962730      -0.85719957      -0.50090669      -9.82329569
54
Lattice="11.5478352 0.0 0.0 5.773917198490155 10.000722372470358 0.0 5.773916394327279 3.333571176804646 9.428767828939895" Properties=species:S:1:pos:R:3:momenta:R:3:forces:R:3:energies:R:1 spacegroup="_JSON {\"number\": 1, \"setting\": 1}" unit_cell=conventional occupancy="_JSON {\"0\": {\"Si\": 1.0}, \"1\": {\"Si\": 1.0}, \"2\": {\"Si\": 1.0}, \"3\": {\"Si\": 1.0}, \"4\": {\"Si\": 1.0}, \"5\": {\"Si\": 1.0}, \"6\": {\"Si\": 1.0}, \"7\": {\"Si\": 1.0}, \"8\": {\"Si\": 1.0}, \"9\": {\"Si\": 1.0}, \"10\": {\"Si\": 1.0}, \"11\": {\"Si\": 1.0}, \"12\": {\"Si\": 1.0}, \"13\": {\"Si\": 1.0}, \"14\": {\"Si\": 1.0}, \"15\": {\"Si\": 1.0}, \"16\": {\"Si\": 1.0}, \"17\": {\"Si\": 1.0}, \"18\": {\"Si\": 1.0}, \"19\": {\"Si\": 1.0}, \"20\": {\"Si\": 1.0}, \"21\": {\"Si\": 1.0}, \"22\": {\"Si\": 1.0}, \"23\": {\"Si\": 1.0}, \"24\": {\"Si\": 1.0}, \"25\": {\"Si\": 1.0}, \"26\": {\"Si\": 1.0}, \"27\": {\"Si\": 1.0}, \"28\": {\"Si\": 1.0}, \"29\": {\"Si\": 1.0}, \"30\": {\"Si\": 1.0}, \"31\": {\"Si\": 1.0}, \"32\": {\"Si\": 1.0}, \"33\": {\"Si\": 1.0}, \"34\": {\"Si\": 1.0}, \"35\": {\"Si\": 1.0}, \"36\": {\"Si\": 1.0}, \"37\": {\"Si\": 1.0}, \"38\": {\"Si\": 1.0}, \"39\": {\"Si\": 1.0}, \"40\": {\"Si\": 1.0}, \"41\": {\"Si\": 1.0}, \"42\": {\"Si\": 1.0}, \"43\": {\"Si\": 1.0}, \"44\": {\"Si\": 1.0}, \"45\": {\"Si\": 1.0}, \"46\": {\"Si\": 1.0}, \"47\": {\"Si\": 1.0}, \"48\": {\"Si\": 1.0}, \"49\": {\"Si\": 1.0}, \"50\": {\"Si\": 1.0}, \"51\": {\"Si\": 1.0}, \"52\": {\"Si\": 1.0}, \"53\": {\"P\": 1.0}}" energy=-471.88946670772066 stress="-0.00030884281918482163 0.0023537422268226135 0.0017151139789030219 0.0023537422268226135 -0.0028270901793221804 0.0007749260124302758 0.0017151139789030219 0.0007749260124302758 5.749483598986151e-05" free_energy=-471.88946670772066 pbc="T T T"
Si       6.74544032       3.86907672       2.75833469       1.11267868      -1.21993426       0.70855347      -0.70899939       0.54016314      -0.21306463      -8.74732793
Si       8.66297616       5.02820297       5.88306276       0.02581056      -1.41066151       0.41317935       0.16407145      -0.33953232      -0.57385813      -8.73111841
Si      10.64143691       6.10386961       8.97181734      -0.41133186      -0.17687606       0.37429359      -0.14852719       0.28869987      -0.01953027      -8.77296384
Si       8.63213703       7.19821047       2.76158635       1.32883001      -0.30305923      -0.68268780       0.16852673       0.89221758      -0.52331766      -8.70680515
Si      10.63484110       8.32423147       5.79769207      -0.20767844      -0.03091324       0.55132713      -0.56294040       0.00697699       1.30931172      -8.69828779
Si      12.53187611       9.45515848       9.04669801       0.24844293       0.82856000      -0.64415228       0.08486614      -0.57156345       0.07933871      -8.76895427
Si      10.60676819      10.49047017       2.74783623       0.77486752      -0.21343312       0.85485426      -0.59509642       0.87507870      -0.56270183      -8.72702809
Si      12.52077367      11.66570630       5.84815602       0.65516990      -0.25189187      -0.79291506       0.27436796      -0.03245279       0.53596872      -8.73780080
Si      14.38020454      12.76467810       8.96894783      -1.64908225      -1.13296421       0.87819761       0.78312096       0.60834401       0.40914161      -8.52302925
Si      10.51450011       3.89715022       2.78199597      -1.01036819      -0.37471162       0.54678833       0.43788445      -0.22222326       0.04847816      -8.75799878
Si      12.50262695       5.05543241       5.88013322      -0.21568192       1.27007325       1.08366531       0.56246724      -1.23820899      -0.30000647      -8.70384183
Si      14.48452487       6.07217082       9.06658520      -1.21086168       1.59174738      -0.75675915      -0.63080258       0.43370345      -0.00364171      -8.74577475
Si      12.41290492       7.23291661       2.77119468      -1.39233490       0.92795826      -0.09910534       1.65225699      -0.47957752      -0.46513338      -8.68858169
Si      14.37634505       8.38229680       5.94610505       0.80988201      -1.87844293       0.06997062       0.60592455      -0.65716627      -0.04357654      -8.75524176
Si      16.35975271       9.42456542       9.07317071       0.27804243      -0.27600375      -0.84049529      -0.04072737       0.33185481      -0.48584389      -8.74773054
Si      14.36233380      10.52140442       2.72300378       1.59928365       1.53997242      -0.16054832       0.16565188       0.92022581       0.54128931      -8.71655993
Si      16.35850536      11.66752802       5.86047644      -1.34429432       2.17056920       0.61340217       0.39719427      -0.42787139       0.28209044      -8.77218761
Si      18.27005568      12.71225707       9.03113912       0.45023485      -0.77418778       0.68621495       0.27526026       0.57801263      -0.77055877      -8.73291324
Si      14.43801786       3.91026047       2.80177977       0.19826523       0.27638296      -0.25723692       0.18374644      -0.38056414      -0.15767392      -8.77391757
Si      16.31968768       4.99665139       5.95925944      -0.54046309       1.36669960      -0.29861062       0.98524870       0.72843314      -0.90013243      -8.71124399
Si      18.27547603       6.13869575       9.00412493      -0.11702354      -0.94793945      -2.12394773       0.58128561       0.17016783       1.13931199      -8.52790010
Si      16.32846424       7.31253300       2.77114549       0.59417203      -1.69617560      -0.46537485      -0.08796839      -0.66731267       0.16278399      -8.76693830
Si      18.32126461       8.30643216       5.93253809      -0.26572064       0.82923969       0.93160225      -0.96053051       0.58098365      -0.59052788      -8.72538426
Si      20.25298887       9.42435461       9.02435080      -0.16193753       0.76964957      -0.17958783      -0.04903290       0.05872662       0.33579749      -8.69254881
Si      18.22971880      10.63439725       2.71852205       0.43315167       0.24283533       0.57659103       0.68313590      -0.66116668       0.31618770      -8.57160433
Si      20.25089534      11.55945541       5.94962596      -0.43175403       0.22967552      -0.64631453       0.11934810       1.01988517      -0.59442716      -8.71710472
Si      22.15447242      12.78628502       9.06412051      -1.07477859      -0.31057321      -0.23921118       0.34683550      -0.16121467      -0.22082874      -8.55621086
Si       2.89754545       1.64003686       3.55239569      -0.97020989      -0.81817278      -0.76171662       0.12075944       0.14290179      -0.02881626      -8.70642313
Si       4.89457681       2.82275520       6.65784367      -0.79992858      -0.00445364       0.30822670      -0.68017361      -0.84207734       0.60356422      -8.71965940
Si       2.99456807       3.85503345       0.44742716      -0.07561584      -0.39050458      -1.43178117      -0.82001719       0.05371218      -0.38390997      -8.70486554
Si       4.80580107       5.05663996       3.54142113       1.76344606      -0.51248332      -0.09080189       0.14769780      -0.05628196       0.43732901      -8.70495352
Si       6.81179891       6.13308077       6.70095388       0.87956410      -0.24427786       0.75485973      -1.13148244      -0.70712192      -0.33712424      -8.73258055
Si       4.90685700       7.19913958       0.43948796       0.26608829       0.72368477       0.51122342      -0.95852623       0.53763645      -0.23829907      -8.73022676
Si       6.71463021       8.34238982       3.52287401      -0.82132592      -2.12701172       0.62019050       0.21968393       0.42489381       0.22704806      -8.70284110
Si       8.65312445       9.38502583       6.65934904       0.81288145      -0.00124523      -1.14630647       0.95262946      -0.25658847       0.40114480      -8.75972099
Si       4.85410737       0.60447110       0.34714234       0.64383577      -0.14062608       1.29298311      -0.63643930      -0.89784591       0.33599323      -8.69488908
Si       6.65509922       1.69123579       3.54662957      -0.39098896       1.36114737       0.11082566       0.69520233      -0.57421153      -0.43197503      -8.74780346
Si       8.69222598       2.79625845       6.60711847      -0.27567417      -0.19650943       0.80106633      -0.64654318       0.01486033       0.15468874      -8.74050795
Si       6.73888390       3.87865802       0.39446648      -1.05805657       1.34955309       0.65195691       0.49496111      -0.04643216      -0.09382808      -8.71805873
Si       8.63458726       5.02762736       3.48594558       0.83542748      -0.70569165      -0.58969587      -0.19227136      -0.34444030       0.85795451      -8.74765650
Si      10.58936407       6.09543274       6.60218842      -0.91541222       0.66063225       0.11344345      -0.00019877       0.55675717       0.43042596      -8.74729409
Si       8.64443168       7.23340085       0.36738872       0.38381714      -0.20305719      -0.81546732       0.20434212      -0.05177657       0.52328996      -8.73779882
Si      10.60397660       8.32926378       3.53074498       1.26457413       1.24103415       1.71393362      -1.02511002      -0.16777191      -0.42998591      -8.75518043
Si      12.48446679       9.45003170       6.71848237       0.49174799      -1.70013105      -1.01666480      -0.23221749       0.35424088      -0.37724810      -8.73238099
Si       8.66299832       0.54442081       0.40399142       1.11442274       0.34111518      -0.30882595      -0.18349623      -0.37447485      -0.20414929      -8.75373658
Si      10.54314595       1.67818055       3.52754552       0.42005090       1.67030363       0.18381887      -0.66880266      -0.11579964      -0.39936882      -8.72935595
Si      12.54221823       2.70902927       6.61024375      -0.80822344       0.04571928       0.82097828      -0.04598822       0.82754563       0.61990634      -8.69408241
Si      10.55433196       3.89947061       0.47358038       0.22486726       0.17438219      -0.24943017       0.34857608      -0.38149296      -0.59876243      -8.73562070
Si      12.45988051       4.96904061       3.48582197      -1.16201466       1.28679339      -0.77306304       0.18731507       0.56694172       0.61067303      -8.72804161
Si      14.45061274       6.10393635       6.72394564      -0.03817853      -0.66940928      -0.13541727      -0.52139399       0.53308494      -0.14296611      -8.73985318
Si      12.50172675       7.21520816       0.39110466      -1.51805019       0.14233641       1.43326612       0.32134858      -0.46354244       0.36561698      -8.75786714
Si      14.40593160       8.39537611       3.59808483       0.43623856      -0.76967218      -0.61568187      -0.62800730      -0.83987528      -0.30669886      -8.71626952
Si      16.32874874       9.44108110       6.69248797      -0.26753000       0.71467775      -0.66117780       0.41902442      -0.05951180       0.11181038      -8.71313781
P        0.98599341       0.59160595       0.40356293       1.08872658      -2.27372879      -0.82243563      -0.42744033      -0.02794909      -0.44118945      -9.86166215
54
Lattice="11.5478352 0.0 0.0 5.773917198490155 10.000722372470358 0.0 5.773916394327279 3.333571176804646 9.428767828939895" Properties=species:S:1:pos:R:3:momenta:R:3:forces:R:3:energies:R:1 spacegroup="_JSON {\"number\": 1, \"setting\": 1}" unit_cell=conventional occupancy="_JSON {\"0\": {\"Si\": 1.0}, \"1\": {\"Si\": 1.0}, \"2\": {\"Si\": 1.0}, \"3\": {\"Si\": 1.0}, \"4\": {\"Si\": 1.0}, \"5\": {\"Si\": 1.0}, \"6\": {\"Si\": 1.0}, \"7\": {\"Si\": 1.0}, \"8\": {\"Si\": 1.0}, \"9\": {\"Si\": 1.0}, \"10\": {\"Si\": 1.0}, \"11\": {\"Si\": 1.0}, \"12\": {\"Si\": 1.0}, \"13\": {\"Si\": 1.0}, \"14\": {\"Si\": 1.0}, \"15\": {\"Si\": 1.0}, \"16\": {\"Si\": 1.0}, \"17\": {\"Si\": 1.0}, \"18\": {\"Si\": 1.0}, \"19\": {\"Si\": 1.0}, \"20\": {\"Si\": 1.0}, \"21\": {\"Si\": 1.0}, \"22\": {\"Si\": 1.0}, \"23\": {\"Si\": 1.0}, \"24\": {\"Si\": 1.0}, \"25\": {\"Si\": 1.0}, \"26\": {\"Si\": 1.0}, \"27\": {\"Si\": 1.0}, \"28\": {\"Si\": 1.0}, \"29\": {\"Si\": 1.0}, \"30\": {\"Si\": 1.0}, \"31\": {\"Si\": 1.0}, \"32\": {\"Si\": 1.0}, \"33\": {\"Si\": 1.0}, \"34\": {\"Si\": 1.0}, \"35\": {\"Si\": 1.0}, \"36\": {\"Si\": 1.0}, \"37\": {\"Si\": 1.0}, \"38\": {\"Si\": 1.0}, \"39\": {\"Si\": 1.0}, \"40\": {\"Si\": 1.0}, \"41\": {\"Si\": 1.0}, \"42\": {\"Si\": 1.0}, \"43\": {\"Si\": 1.0}, \"44\": {\"Si\": 1.0}, \"45\": {\"Si\": 1.0}, \"46\": {\"Si\": 1.0}, \"47\": {\"Si\": 1.0}, \"48\": {\"Si\": 1.0}, \"49\": {\"Si\": 1.0}, \"50\": {\"Si\": 1.0}, \"51\": {\"Si\": 1.0}, \"52\": {\"Si\": 1.0}, \"53\": {\"P\": 1.0}}" energy=-471.528612709821 stress="-0.0015014910158587316 0.0013469276302236518 0.00106097345100166 0.0013469276302236518 -0.002222719030524574 0.00030371353094149465 0.00106097345100166 0.00030371353094149465 -0.0015950617529683251" free_energy=-471.528612709821 pbc="T T T"
Si       6.77710039       3.83908743       2.78095323       0.14363997       0.24935446       0.06182329      -0.50837294       1.16696449      -0.55563503      -8.74272410
Si       8.66958168       4.95159952       5.88051334       0.18398715      -1.26663266      -0.48008771      -0.00016293       0.59863612      -0.44400637      -8.71695822
Si      10.61787219       6.10282706       8.99071951      -0.42496824       0.05069341       0.37708105       0.08760365      -0.04110098       0.09891607      -8.76330738
Si       8.70361859       7.21477421       2.71472458       1.27333563       0.81029633      -0.87846191      -0.31145357       0.41016971       0.35735801      -8.67754562
Si      10.60585777       8.32142790       5.87228999      -0.76613100      -0.09960818       2.05131520      -0.03532874      -0.08376960       0.36158251      -8.76188376
Si      12.54200091       9.47845977       9.01575384       0.01537072       0.13529957      -0.54211882      -0.37927989      -0.27605920       0.05200218      -8.75178513
Si      10.62125004      10.51661592       2.77188476      -0.24461396       1.18008166       0.12591603      -0.66599982       0.74044204      -0.30527202      -8.74736587
Si      12.55542600      11.65027882       5.83405028       0.44178931      -0.35755598       0.31325186      -0.60110352      -0.11574228       0.75269982      -8.70216382
Si      14.33854870      12.73119312       9.02520127       0.29379777      -0.15448480       1.13962594       1.65603932       0.56973157      -0.07067042      -8.53347599
Si      10.49108222       3.87712351       2.79922286       0.30952916      -0.18919550      -0.13385648       1.15682906       0.54765284      -0.88248447      -8.74639666
Si      12.50503613       5.07251679       5.91752683       0.10965207      -0.56010153       0.24220904      -0.19614417      -0.99404609      -0.68928726      -8.68269541
Si      14.40378253       6.16325228       9.03333176      -1.67653527       1.66895851      -0.40380790       0.12048570      -0.39172354       0.40950247      -8.72266612
Si      12.40643123       7.26350304       2.75470169       1.02915849       0.31493829      -0.33231450       1.18670241      -0.18831170       0.29511450      -8.76090865
Si      14.43774852       8.26831638       5.94103694       1.38869195      -2.17955258      -0.40011324       0.05190054       0.47678260      -0.57946239      -8.75503002
Si      16.37126169       9.42256458       9.01378552       0.15438766       0.16070625      -1.30583760      -0.06531663       0.17415838      -0.02160148      -8.74854768
Si      14.44400947      10.62201716       2.73651670       1.32383063       1.91929905       0.61418629      -0.57979963      -0.55270908       0.29548607      -8.69686085
Si      16.31005075      11.75477530       5.89743756      -0.41574911       1.00800748       0.67894579       0.71731717      -0.98805517      -0.16207103      -8.73586968
Si      18.30251563      12.69735832       9.04295728       0.72752860       0.20221631      -0.06376833       0.03777377       0.56361385      -0.09191981      -8.74319193
Si      14.45132068       3.91182708       2.77960730       0.21809624      -0.15944392      -0.61812890      -0.17064261      -0.15180303      -0.26970395      -8.67855272
Si      16.33449171       5.07823217       5.91620064       1.07269142       1.37395346      -1.12759272       0.82978097      -0.70943506      -0.05463110      -8.70609587
Si      18.29024005       6.09307108       8.95397215       0.60453790      -0.84189933       0.38661811       0.27334005      -0.03198928       1.75564117      -8.51392278
Si      16.35080805       7.20489192       2.75504174       0.18472729      -2.20583557      -0.12856877      -0.36215231       0.13051391       0.23264092      -8.79067894
Si      18.27904306       8.36126277       5.95814155      -1.07438116       1.03735831       0.07033445       0.08989719      -0.29361998      -0.49005047      -8.72771640
Si      20.24083359       9.46451905       9.02691339      -0.34004566       0.70474065       0.23706232      -0.19937185      -0.16196138       0.17237564      -8.63891388
Si      18.26640598      10.61145209       2.75417619       0.68358088      -1.24851647       0.64433105      -0.39548728      -1.15402675      -0.21739879      -8.49630974
Si      20.22855290      11.60621004       5.89571650      -0.50485684       1.38779203      -1.29186489      -0.20858601       0.37887615      -0.13222701      -8.73284900
Si      22.11934845      12.76492011       9.04446365      -0.16736758      -0.44696966      -0.47170181       0.70734117       0.07246822      -0.06893673      -8.61083125
Si       2.86205036       1.61210533       3.51474739      -0.20045533      -0.06221069      -0.61774926       0.80147610       0.84707106       0.18050500      -8.74203974
Si       4.83482657       2.79789517       6.68543975      -1.27883502      -0.74166804       0.48355050       0.10719035      -0.06303858      -0.40859787      -8.69862188
Si       2.95678714       3.84135956       0.36691850      -1.32366060      -0.04272791      -1.42790713      -0.63530700       0.39336581       0.43718274      -8.72475792
Si       4.89370402       5.02259864       3.55126848       1.36207813      -0.87116602       0.38605379      -0.73727243      -0.38397882       0.11824798      -8.74084477
Si       6.81293570       6.10126926       6.71019225      -0.77981942      -0.77703976      -0.63298064      -0.88961348       0.04371757      -1.17178432      -8.73194985
Si       4.88653542       7.24948558       0.44949662      -0.92747615       0.98134551      -0.23131474      -0.51250895      -0.30218858      -0.61585701      -8.74421240
Si       6.68924819       8.25622408       3.56133642      -0.01802593      -1.02209545       0.75692131       0.70991859       0.94401511      -0.12933718      -8.66719588
Si       8.71997917       9.38514494       6.62212903       1.36247537       0.24263301      -0.15056087      -0.50684341       0.66187881       0.87777458      -8.75669447
Si       4.86130838       0.56380732       0.41940614      -0.36642116      -1.29120732       1.25320115      -0.61698235      -0.43395006      -0.47640026      -8.66117093
Si       6.66685225       1.72694694       3.53696274       0.89265038      -0.16824881      -0.41346899       0.89957141      -1.19334034      -0.17990373      -8.73255270
Si       8.64885625       2.78643589       6.65999489      -1.35644137      -0.19334497       1.28234480      -0.54097710      -0.04095278       0.39716684      -8.75908138
Si       6.70120408       3.94365970       0.42319620      -0.43730534       1.05038409       0.41212152       0.26148757      -0.34766905      -0.21833395      -8.72613464
Si       8.66374886       4.98728105       3.49146904       0.17709142      -0.61397252       0.77102741      -0.54928615       0.48785110       0.72602961      -8.72669691
Si      10.54515862       6.14133672       6.62715215      -0.67087460       0.81763121       0.84650950       0.37470789      -0.50003421       0.45700859      -8.73722977
Si       8.67286132       7.21579790       0.34653905       0.67421473      -0.53145705       0.00932274       0.09615162      -0.29313271       0.47370136      -8.75362881
Si      10.62483394       8.38281961       3.59946196      -0.44620860       0.70628627       0.84299147      -0.93763123      -0.52393911      -0.67165160      -8.71624440
Si      12.50664493       9.38106600       6.65581027       0.49004999      -0.83931403      -1.23890626       0.28563563       0.70067190       0.14402434      -8.71419353
Si       8.70585521       0.55839787       0.38234498       0.38369566       0.39886532      -0.43715580      -0.69881816       0.42329909       0.10354477      -8.73126748
Si      10.54731000       1.75033775       3.52929780      -0.03941114       0.86064429       0.05722043       0.19477909      -0.94665568       0.27195391      -8.74012462
Si      12.50283563       2.74326235       6.67284775      -0.60086313       1.19553060       1.41750149       0.31002654       0.56463611       0.03105397      -8.72410852
Si      10.57619091       3.89095773       0.43879262       0.52007888      -0.50939939      -1.02232215       0.00087895      -0.41669401      -0.38094578      -8.69916052
Si      12.41351787       5.04848873       3.47480861      -0.45347700       1.48926197       0.42143971       0.77333791      -0.41790214       0.86868052      -8.68015141
Si      14.42979121       6.09077931       6.71364740      -0.65473113       0.10380087      -0.21868378      -0.12537313       0.27026378       0.01044160      -8.78912654
Si      12.44203064       7.20472630       0.46665377      -0.62476189      -0.48441120       1.11294142       0.83461617      -0.24154588      -0.92683553      -8.73871648
Si      14.40891708       8.33333444       3.55392185      -0.17632181      -1.35909034      -1.02714917      -0.04706962       0.09345089      -0.13912137      -8.66809846
Si      16.32875209       9.47910828       6.66216236       0.19143993       0.77239235      -0.50633816       0.11779198       0.08131177       0.06473788      -8.73396021
P        1.01108659       0.49359878       0.35752713      -0.24236893      -1.60532155      -0.89308711      -1.20569586       0.89783221       0.40875385      -9.80540102
54
Lattice="11.5478352 0.0 0.0 5.773917198490155 10.000722372470358 0.0 5.773916394327279 3.333571176804646 9.428767828939895" Properties=species:S:1:pos:R:3:momenta:R:3:forces:R:3:energies:R:1 spacegroup="_JSON {\"number\": 1, \"setting\": 1}" unit_cell=conventional occupancy="_JSON {\"0\": {\"Si\": 1.0}, \"1\": {\"Si\": 1.0}, \"2\": {\"Si\": 1.0}, \"3\": {\"Si\": 1.0}, \"4\": {\"Si\": 1.0}, \"5\": {\"Si\": 1.0}, \"6\": {\"Si\": 1.0}, \"7\": {\"Si\": 1.0}, \"8\": {\"Si\": 1.0}, \"9\": {\"Si\": 1.0}, \"10\": {\"Si\": 1.0}, \"11\": {\"Si\": 1.0}, \"12\": {\"Si\": 1.0}, \"13\": {\"Si\": 1.0}, \"14\": {\"Si\": 1.0}, \"15\": {\"Si\": 1.0}, \"16\": {\"Si\": 1.0}, \"17\": {\"Si\": 1.0}, \"18\": {\"Si\": 1.0}, \"19\": {\"Si\": 1.0}, \"20\": {\"Si\": 1.0}, \"21\": {\"Si\": 1.0}, \"22\": {\"Si\": 1.0}, \"23\": {\"Si\": 1.0}, \"24\": {\"Si\": 1.0}, \"25\": {\"Si\": 1.0}, \"26\": {\"Si\": 1.0}, \"27\": {\"Si\": 1.0}, \"28\": {\"Si\": 1.0}, \"29\": {\"Si\": 1.0}, \"30\": {\"Si\": 1.0}, \"31\": {\"Si\": 1.0}, \"32\": {\"Si\": 1.0}, \"33\": {\"Si\": 1.0}, \"34\": {\"Si\": 1.0}, \"35\": {\"Si\": 1.0}, \"36\": {\"Si\": 1.0}, \"37\": {\"Si\": 1.0}, \"38\": {\"Si\": 1.0}, \"39\": {\"Si\": 1.0}, \"40\": {\"Si\": 1.0}, \"41\": {\"Si\": 1.0}, \"42\": {\"Si\": 1.0}, \"43\": {\"Si\": 1.0}, \"44\": {\"Si\": 1.0}, \"45\": {\"Si\": 1.0}, \"46\": {\"Si\": 1.0}, \"47\": {\"Si\": 1.0}, \"48\": {\"Si\": 1.0}, \"49\": {\"Si\": 1.0}, \"50\": {\"Si\": 1.0}, \"51\": {\"Si\": 1.0}, \"52\": {\"Si\": 1.0}, \"53\": {\"P\": 1.0}}" energy=-471.3922691905766 stress="-0.0015028632145297994 -0.0019301382010599804 -0.0016184065343306986 -0.0019301382010599804 0.0005536150736458378 -0.0004433788176644634 -0.0016184065343306986 -0.0004433788176644634 -0.0019134538919636794" free_energy=-471.3922691905766 pbc="T T T"
Si       6.77251627       3.88503650       2.76622695      -0.15514112       1.17600832      -0.51934354       0.13295172      -0.08412897      -0.15149131      -8.75462118
Si       8.67561741       4.91533032       5.84958379      -0.02393942      -0.04388290      -0.43297595      -0.27061279       0.87064844       0.58781032      -8.72174927
Si      10.59753247       6.09948038       9.01906312      -0.39793787      -0.24318024       0.78672039      -0.09097769      -0.29387926       0.41394569      -8.71479329
Si       8.75218440       7.26126153       2.69283803       0.45499997       0.72876880       0.19643450      -0.78422765      -0.50500864       0.93323449      -8.68048564
Si      10.57484058       8.31350955       5.97428459      -0.26092621      -0.16651504       1.50299837       0.53893744       0.06202534      -0.92680645      -8.76786585
Si      12.52668683       9.48135355       8.98794712      -0.58486246       0.08467626      -0.53766870      -0.31930598       0.15063597      -0.02299077      -8.71933540
Si      10.58958541      10.59421706       2.77415260      -0.77263969       1.49495220       0.08179343       0.08707081      -0.36397821       0.15895678      -8.76757573
Si      12.54709298      11.62605924       5.87194150      -0.85891505      -0.56365278       0.94819006      -0.96339059      -0.09787454       0.03679823      -8.71393906
Si      14.41058493      12.73921784       9.08092953       2.14884206       0.33602340       0.97674579       0.44960574       0.05986889      -0.12449217      -8.59284404
Si      10.54687807       3.89449152       2.75703129       1.63761739       0.87312875      -1.39616757       0.45601470       0.61688625      -0.56819945      -8.75970447
Si      12.49626318       5.01876276       5.90754689      -0.51252453      -1.18122183      -0.50100314      -0.46114856       0.21608142      -0.20283765      -8.72733869
Si      14.33074173       6.22781154       9.02720835      -0.92309926       0.66400303       0.12562626       0.83096651      -0.88096599       0.23392622      -8.70869367
Si      12.48399410       7.27918724       2.75665630       1.47303347       0.34579115       0.45796448      -0.58986983       0.05254940       0.48283447      -8.79179212
Si      14.50491033       8.18989150       5.89313548       1.03873503      -0.52100569      -1.46072550      -0.46771582       1.56224915      -0.68674182      -8.70628076
Si      16.37933607       9.43216154       8.95236499       0.20016498       0.09135132      -0.89013186       0.11180900      -0.26779804       0.53747088      -8.73682715
Si      14.48636029      10.68387383       2.76960545       0.28194321       0.14706678       0.44601010      -0.57688877      -1.67169446      -0.47794486      -8.67591612
Si      16.31018182      11.77448358       5.92661275       0.28014075      -0.11273267       0.45682398       0.17368016      -0.42020236      -0.07788197      -8.72115060
Si      18.33763169      12.72312125       9.04839078       0.51689376       0.65244862       0.46407523      -0.32882362       0.06439999       0.64203691      -8.72853053
Si      14.45264487       3.90274292       2.73838604      -0.22245494      -0.08178867      -0.89575802      -0.38277434       0.26066067      -0.04175130      -8.62304947
Si      16.40291532       5.11102422       5.86740559       1.08706092      -0.32359069      -0.53521512      -0.90419058      -1.48302366       0.70689278      -8.67495639
Si      18.32242857       6.04362252       9.02000082       0.39635148      -1.10736182       1.61640634      -0.59756838      -0.26871661      -0.22241329      -8.56305323
Si      16.35015267       7.10591519       2.75418605      -0.10731755      -1.35119351       0.02445423       0.03752986       0.95936528      -0.04284364      -8.74406705
Si      18.24187378       8.39812183       5.94748410      -0.10251962       0.28748196      -0.38263284       1.01097679      -0.59839701      -0.11430722      -8.70032488
Si      20.21320479       9.49350100       9.04173602      -0.73666921       0.36674419       0.24127986      -0.27811361      -0.29292200      -0.16541721      -8.68237229
Si      18.28064356      10.50806943       2.77701905      -0.16971984      -2.44790217       0.20304100      -0.51467973      -0.17542227      -0.31683065      -8.48346342
Si      20.19127776      11.68393804       5.83224062      -0.94089761       1.41232832      -0.94175526      -0.29998883      -0.26204994       0.58927359      -8.71634623
Si      22.13056953      12.75114987       9.01858308       0.39415690       0.05141738      -0.49421647      -0.07730576       0.55588844       0.01173014      -8.64463525
Si       2.87695643       1.64338103       3.48711793       0.54958504       1.21105356      -0.49248592      -0.04827583       0.66248112      -0.02969314      -8.78664349
Si       4.78110296       2.76555860       6.68594995      -0.61508973      -0.34760660      -0.57619536       0.69948165       0.49963153      -0.83451177      -8.65168718
Si       2.87623929       3.85604648       0.31685475      -1.44056724       0.61376530      -0.35094211       0.54431310       0.42489043       0.92985337      -8.73990656
Si       4.92734618       4.96140200       3.56923697      -0.24272177      -1.42455719       0.16969114      -1.35386273      -0.23052162      -0.38160131      -8.74880678
Si       6.75308674       6.07173517       6.64652466      -1.13029807      -0.16898847      -1.40323498       0.55634184       0.74111138       0.32080712      -8.71567144
Si       4.82726412       7.27830613       0.41867261      -1.15242707      -0.05362584      -0.80185213       0.19624729      -0.94618996      -0.07152834      -8.73799489
Si       6.71228273       8.23502007       3.58923998       0.78901731       0.08068543       0.18010855       0.29065093       0.40852272      -0.60934677      -8.70213218
Si       8.75067087       9.43302708       6.64837999      -0.48122118       1.67027267       1.09480991      -1.58591028       0.96710236       0.62739132      -8.70705392
Si       4.82491020       0.49201313       0.45915452      -0.84059976      -1.17689874       0.18125215       0.10933698       0.62725643      -0.76457036      -8.69505379
Si       6.74298381       1.68434702       3.51373160       1.82042387      -1.13003955      -0.36344584       0.13282910       0.06344467       0.25411415      -8.75459103
Si       8.57005436       2.77420889       6.73889426      -1.36070378      -0.25691663       1.58582371       0.56026238       0.02015353      -0.14936163      -8.74800672
Si       6.68189824       3.98486733       0.43570590      -0.41066993       0.51870659       0.04568236      -0.17053237      -0.35459405      -0.29190680      -8.75169640
Si       8.65920556       4.97881976       3.54547486      -0.15534793       0.33473420       0.95242512       0.19717942       0.65862843      -0.57556931      -8.72475510
Si      10.52733405       6.15158273       6.68505913       0.02301939      -0.60936352       1.24714635       0.49140087      -1.18216445       0.00531872      -8.71600623
Si       8.70693339       7.17895939       0.35974179       0.51419321      -0.79342750       0.38925069      -0.32957658       0.01684797       0.06910968      -8.75307830
Si      10.57966920       8.40132988       3.62075119      -0.97616684       0.07528862       0.05159743       0.23840254      -0.22634246      -0.33651239      -8.70382011
Si      12.54817135       9.36056431       6.60216347       1.11901850      -0.04034232      -0.70496566       0.37715726       0.31101136       0.53715471      -8.70331662
Si       8.70163635       0.60024832       0.36830314      -0.44325728       1.21751361      -0.01462824      -0.30302554       0.49849186       0.42686345      -8.69453769
Si      10.56530113       1.75902669       3.54804683       0.89744763      -0.43926054       0.68020594       0.84127714      -0.59870820       0.34613932      -8.74267305
Si      12.48421650       2.81774190       6.73760651      -0.11369759       1.40896320       0.85702185       0.28824019      -0.35966105      -0.70708712      -8.75726815
Si      10.59889704       3.85340774       0.37441323       0.26880527      -0.79562622      -1.34402253      -0.29491148       0.07887959      -0.03023689      -8.69220987
Si      12.42369800       5.09950115       3.52545457       0.88670635       0.29703848       1.34591878       0.93380058      -1.01907461       0.20767346      -8.68623453
Si      14.39985734       6.09379548       6.70306383      -0.33803982      -0.20995582      -0.18701408       0.44856808      -0.55831220      -0.00629138      -8.74001560
Si      12.44221509       7.17694470       0.47809131       0.60711169      -0.43749978      -0.76033457       0.71906251       0.29976141      -1.21723837      -8.72592046
Si      14.41105093       8.27637376       3.50042929       0.50668086      -0.60724575      -0.89037680       0.90584515       0.89353985       0.32463621      -8.63988794
Si      16.33769088       9.52115989       6.63535113       0.06478074       0.75585953      -0.56285018      -0.20242918      -0.21677237      -0.11377278      -8.75230961
P        0.96360324       0.45007508       0.33654960      -1.48635743      -0.26068918       0.13044437      -0.16383323       0.75538904       0.87820608      -9.79927979
54
Lattice="11.5478352 0.0 0.0 5.773917198490155 10.000722372470358 0.0 5.773916394327279 3.333571176804646 9.428767828939895" Properties=species:S:1:pos:R:3:momenta:R:3:forces:R:3:energies:R:1 spacegroup="_JSON {\"number\": 1, \"setting\": 1}" unit_cell=conventional occupancy="_JSON {\"0\": {\"Si\": 1.0}, \"1\": {\"Si\": 1.0}, \"2\": {\"Si\": 1.0}, \"3\": {\"Si\": 1.0}, \"4\": {\"Si\": 1.0}, \"5\": {\"Si\": 1.0}, \"6\": {\"Si\": 1.0}, \"7\": {\"Si\": 1.0}, \"8\": {\"Si\": 1.0}, \"9\": {\"Si\": 1.0}, \"10\": {\"Si\": 1.0}, \"11\": {\"Si\": 1.0}, \"12\": {\"Si\": 1.0}, \"13\": {\"Si\": 1.0}, \"14\": {\"Si\": 1.0}, \"15\": {\"Si\": 1.0}, \"16\": {\"Si\": 1.0}, \"17\": {\"Si\": 1.0}, \"18\": {\"Si\": 1.0}, \"19\": {\"Si\": 1.0}, \"20\": {\"Si\": 1.0}, \"21\": {\"Si\": 1.0}, \"22\": {\"Si\": 1.0}, \"23\": {\"Si\": 1.0}, \"24\": {\"Si\": 1.0}, \"25\": {\"Si\": 1.0}, \"26\": {\"Si\": 1.0}, \"27\": {\"Si\": 1.0}, \"28\": {\"Si\": 1.0}, \"29\": {\"Si\": 1.0}, \"30\": {\"Si\": 1.0}, \"31\": {\"Si\": 1.0}, \"32\": {\"Si\": 1.0}, \"33\": {\"Si\": 1.0}, \"34\": {\"Si\": 1.0}, \"35\": {\"Si\": 1.0}, \"36\": {\"Si\": 1.0}, \"37\": {\"Si\": 1.0}, \"38\": {\"Si\": 1.0}, \"39\": {\"Si\": 1.0}, \"40\": {\"Si\": 1.0}, \"41\": {\"Si\": 1.0}, \"42\": {\"Si\": 1.0}, \"43\": {\"Si\": 1.0}, \"44\": {\"Si\": 1.0}, \"45\": {\"Si\": 1.0}, \"46\": {\"Si\": 1.0}, \"47\": {\"Si\": 1.0}, \"48\": {\"Si\": 1.0}, \"49\": {\"Si\": 1.0}, \"50\": {\"Si\": 1.0}, \"51\": {\"Si\": 1.0}, \"52\": {\"Si\": 1.0}, \"53\": {\"P\": 1.0}}" energy=-471.47809750925967 stress="-0.000527002144926267 -0.0017330639993114003 -0.0013755316510692147 -0.0017330639993114003 0.002120598682743625 -0.0006259142345140275 -0.0013755316510692147 -0.0006259142345140275 -0.00016816021213453936" free_energy=-471.47809750925967 pbc="T T T"
Si       6.77510644       3.93029498       2.73952618       0.30314972       0.37144833      -0.38130647       0.31745858      -0.78275562       0.30595886      -8.74243227
Si       8.66268304       4.94032839       5.85846505      -0.46308241       0.84273812       0.83715923      -0.23701153       0.26156991       0.82043336      -8.73769911
Si      10.57045097       6.07606026       9.07656825      -0.66106198      -0.60132865       1.35672475      -0.18870877      -0.09394821       0.21131847      -8.70181300
Si       8.74454647       7.27329880       2.73471233      -0.70580533      -0.34723123       1.24107148      -0.59576040      -0.78908149       0.30689778      -8.73610986
Si      10.57608597       8.31117323       6.01694563       0.15906086       0.13743636       0.18262100      -0.02123066       0.28503080      -0.70213666      -8.73608030
Si      12.48915860       9.49226366       8.95900064      -0.71667675       0.30531926      -0.54443757       0.18868143       0.04980850       0.06289989      -8.71687807
Si      10.56427437      10.64916475       2.78426886      -0.00555270       0.47155374       0.27533381       0.79403867      -0.85289453       0.06357739      -8.73865823
Si      12.47328014      11.59616721       5.91488028      -1.69777508      -0.49625417       0.54838668       0.05014703       0.20260078      -0.51516189      -8.73532837
Si      14.51353695      12.74984414       9.12567016       1.27054567      -0.11457216       0.66585767      -1.48834582      -0.62955335      -0.34952112      -8.52590443
Si      10.63916016       3.95336264       2.67450713       1.67790869       1.13797246      -1.48877186      -0.34285433      -0.29009659       0.44987600      -8.70645156
Si      12.45691080       4.97694552       5.88358695      -0.84489518      -0.24816199      -0.21778050       0.10211614       0.84626926       0.54460472      -8.75201086
Si      14.31452580       6.23105785       9.03808329       0.24647475      -0.43446930       0.19215104       0.59394310      -0.45422152      -0.15123667      -8.73727268
Si      12.52696152       7.29491032       2.78966333       0.07594067       0.16616251       0.61053324      -0.92374817      -0.27269983      -0.24756944      -8.73638779
Si      14.54044886       8.21737518       5.79895536       0.32125711       1.35298487      -1.87777187      -0.44318576       0.72249671       0.29513072      -8.72694593
Si      16.39453184       9.42358697       8.92680302       0.36584525      -0.43889344      -0.11577840       0.05862790      -0.33870996       0.41323102      -8.73548185
Si      14.49409828      10.62819522       2.77231277       0.31930954      -2.11917396      -0.32036655       0.57323221      -1.04078086      -0.38462084      -8.72837788
Si      16.32582404      11.76221183       5.95033236       0.23140812      -0.18724178       0.48108527      -0.16421353       0.23143923       0.04865142      -8.71773923
Si      18.34972036      12.75735578       9.09411157      -0.07439369       0.63059051       1.12566182      -0.39015437      -0.02625266       0.04974959      -8.71824704
Si      14.42602188       3.91228597       2.69385260      -0.77652338       0.48909501      -0.71868555      -0.31316126       0.41448420       0.28075778      -8.70795027
Si      16.41302190       5.03736006       5.86570522      -0.75774419      -2.33690778       0.40572173      -1.10331955      -0.85092187       0.44270685      -8.72262817
Si      18.31489583       5.97787993       9.07865918      -0.68939265      -1.26439415       0.37808484      -0.61147562       0.26010970      -1.17706554      -8.51425463
Si      16.35268821       7.07243077       2.75116511       0.32222405       0.01751284      -0.17495917       0.49327159       0.72671431      -0.18227111      -8.69639128
Si      18.27217794       8.39472554       5.92665590       1.11236545      -0.28631102      -0.35935121       0.44226567      -0.08773678       0.08634272      -8.70839041
Si      20.16745459       9.50028163       9.04574476      -0.88266917      -0.13510154      -0.11016053       0.21374228      -0.39288031      -0.24667065      -8.76069791
Si      18.25974753      10.39422538       2.77611776      -0.46376785      -1.46232008      -0.22558822       0.12531652       1.48124883      -0.25702856      -8.48649192
Si      20.13295782      11.74726078       5.80873768      -1.19323400       1.00780285       0.05462182       0.05624854      -0.24578237       0.61275316      -8.72064398
Si      22.13672962      12.77448942       8.99231460      -0.33889353       0.76583352      -0.51322480      -0.76454368       0.27585998      -0.00275984      -8.60165779
Si       2.88827315       1.72106325       3.45894556      -0.35326094       1.48167310      -0.57033116      -0.94516773      -0.39651069       0.00984587      -8.73767847
Si       4.77428108       2.76656601       6.62935158       0.26074456       0.33188802      -1.39537031       0.32054386       0.26848385      -0.09460903      -8.72189241
Si       2.82883185       3.89978027       0.33181597      -0.33065836       0.90239079       0.80512627       0.68155841      -0.17186038       0.46016717      -8.72104550
Si       4.86398033       4.88423471       3.56124618      -2.03258812      -1.36300279      -0.47820045      -0.76925118       0.37587087      -0.38833428      -8.74791608
Si       6.72741378       6.09274308       6.60024416       0.22590100       0.89151967      -0.16643271       0.82531693       0.41320231       1.08526373      -8.68387386
Si       4.77924118       7.24360441       0.37962475      -0.60870507      -1.09323887      -0.60401397       0.46645704      -0.25686302       0.25662992      -8.73193051
Si       6.75787274       8.24220274       3.57547596       0.80813563      -0.05234987      -0.64019323      -0.27008767      -0.53430562      -0.35053549      -8.73907946
Si       8.67616845       9.54557158       6.71771325      -2.02050576       2.30268668       1.26659762      -0.27745477      -0.26219391      -0.47133329      -8.73063049
Si       4.79908288       0.46578160       0.44962871       0.11191045       0.35406872      -0.28864380       1.06190847       1.28170690       0.21528572      -8.70985349
Si       6.82742643       1.64216968       3.50911414       1.11083899      -0.26685073       0.25576950      -0.95266027       0.87662960       0.50485793      -8.69988424
Si       8.52648214       2.76370416       6.80632536      -0.25218821      -0.11088035       0.79531406       0.74710959       0.14596349      -0.88006406      -8.69622005
Si       6.65323982       3.99922091       0.42556441      -0.64260988       0.03441080      -0.44984106      -0.01750755      -0.32612627      -0.34801327      -8.75803025
Si       8.66733885       5.01756594       3.56225865       0.58584447       1.01902304      -0.40624514       0.66443228       0.15469372      -0.91814482      -8.72780648
Si      10.54429198       6.08225171       6.74453900       0.52863550      -1.76874137       0.91563373       0.10761214      -0.14280243      -0.39369758      -8.74118561
Si       8.71810333       7.14291563       0.38204088      -0.12323209      -0.49510948       0.47204450      -0.46111637       0.34345203       0.10198556      -8.71326802
Si      10.54782780       8.40309870       3.61707623      -0.10171253       0.09389469      -0.07520945       0.75813147       0.16369864       0.11664983      -8.70287370
Si      12.61395551       9.36369538       6.58640220       1.19614843       0.04879463       0.08970523      -0.37601336      -0.11937186       0.47246751      -8.71652972
Si       8.67432670       0.67577469       0.38478126      -0.46192771       1.45455566       0.63140017       0.23074402      -0.31996114       0.37370829      -8.70918950
Si      10.63804097       1.72264257       3.58734067       1.65484231      -0.77583134       0.60082528      -0.01438754       0.08701358      -0.48414492      -8.71702928
Si      12.48598748       2.86749947       6.75676989       0.10529967       0.33330768      -0.02692819      -0.01486926      -0.94034051      -0.32096370      -8.74536149
Si      10.60197522       3.82031440       0.30614457      -0.12094013      -0.37289832      -1.18136896      -0.17462614       0.43996443       0.27874094      -8.72325063
Si      12.50197616       5.08067219       3.58926171       1.95265066      -0.85307883       0.78826101       0.34167722      -0.37789176      -0.93518142      -8.73353739
Si      14.39936110       6.06428722       6.68961383       0.28333047      -0.77042755      -0.39619004       0.30528385      -0.01273249      -0.26649590      -8.69853085
Si      12.49308885       7.17070863       0.40801267       1.10064850       0.28706014      -1.51555275      -0.19962674       0.63416810       0.32187173      -8.73660591
Si      14.47384719       8.28250948       3.46635796       1.77339585       0.82819284      -0.46339300       0.44649378       0.81196554       0.10948134      -8.72254561
Si      16.33583721       9.54487091       6.60152380      -0.05072282       0.00075681      -0.69117510       0.12248047      -0.77201587       0.02745068      -8.74948844
P        0.90382225       0.45616725       0.37413826      -0.73329684       0.33409709       1.42158028       0.97164291       0.02684661       0.73826413      -9.81393521
54
Lattice="11.5478352 0.0 0.0 5.773917198490155 10.000722372470358 0.0 5.773916394327279 3.333571176804646 9.428767828939895" Properties=species:S:1:pos:R:3:momenta:R:3:forces:R:3:energies:R:1 spacegroup="_JSON {\"number\": 1, \"setting\": 1}" unit_cell=conventional occupancy="_JSON {\"0\": {\"Si\": 1.0}, \"1\": {\"Si\": 1.0}, \"2\": {\"Si\": 1.0}, \"3\": {\"Si\": 1.0}, \"4\": {\"Si\": 1.0}, \"5\": {\"Si\": 1.0}, \"6\": {\"Si\": 1.0}, \"7\": {\"Si\": 1.0}, \"8\": {\"Si\": 1.0}, \"9\": {\"Si\": 1.0}, \"10\": {\"Si\": 1.0}, \"11\": {\"Si\": 1.0}, \"12\": {\"Si\": 1.0}, \"13\": {\"Si\": 1.0}, \"14\": {\"Si\": 1.0}, \"15\": {\"Si\": 1.0}, \"16\": {\"Si\": 1.0}, \"17\": {\"Si\": 1.0}, \"18\": {\"Si\": 1.0}, \"19\": {\"Si\": 1.0}, \"20\": {\"Si\": 1.0}, \"21\": {\"Si\": 1.0}, \"22\": {\"Si\": 1.0}, \"23\": {\"Si\": 1.0}, \"24\": {\"Si\": 1.0}, \"25\": {\"Si\": 1.0}, \"26\": {\"Si\": 1.0}, \"27\": {\"Si\": 1.0}, \"28\": {\"Si\": 1.0}, \"29\": {\"Si\": 1.0}, \"30\": {\"Si\": 1.0}, \"31\": {\"Si\": 1.0}, \"32\": {\"Si\": 1.0}, \"33\": {\"Si\": 1.0}, \"34\": {\"Si\": 1.0}, \"35\": {\"Si\": 1.0}, \"36\": {\"Si\": 1.0}, \"37\": {\"Si\": 1.0}, \"38\": {\"Si\": 1.0}, \"39\": {\"Si\": 1.0}, \"40\": {\"Si\": 1.0}, \"41\": {\"Si\": 1.0}, \"42\": {\"Si\": 1.0}, \"43\": {\"Si\": 1.0}, \"44\": {\"Si\": 1.0}, \"45\": {\"Si\": 1.0}, \"46\": {\"Si\": 1.0}, \"47\": {\"Si\": 1.0}, \"48\": {\"Si\": 1.0}, \"49\": {\"Si\": 1.0}, \"50\": {\"Si\": 1.0}, \"51\": {\"Si\": 1.0}, \"52\": {\"Si\": 1.0}, \"53\": {\"P\": 1.0}}" energy=-470.8849077431468 stress="0.0012154353863068322 0.002740845046630736 0.0015931064942643638 0.002740845046630736 -0.0019538026715181568 0.0010139395254779807 0.0015931064942643638 0.0010139395254779807 0.001890037884736402" free_energy=-470.8849077431468 pbc="T T T"
Si       6.79745052       3.92310877       2.73265801       0.41892011      -0.52789051       0.10675809      -0.17825500      -0.32090964       0.25396991      -8.73158595
Si       8.63443934       4.98626742       5.92154309      -0.48691949       0.75060931       1.27789758       0.25281422      -0.36050327      -0.30038800      -8.74642026
Si      10.53102632       6.04857014       9.14748003      -0.76820878      -0.26412224       1.15047598       0.09718425       0.61440221      -0.55174996      -8.72342524
Si       8.69798330       7.23218621       2.79904059      -0.76253831      -1.00025241       0.96163814       0.58719760       0.07011918      -0.66534880      -8.76313564
Si      10.57878214       8.32783914       6.00780656      -0.12042697       0.44733828      -0.36972466      -0.28267151       0.08866126      -0.06267195      -8.60967449
Si      12.46491842       9.50538812       8.93584908      -0.10761377       0.09886190      -0.26453061       0.57011864      -0.32041980       0.35028619      -8.73478349
Si      10.59131687      10.64639214       2.80087617       0.90540119      -0.42219567       0.36452725       0.28734888      -0.25011749       0.08457542      -8.73086478
Si      12.40358685      11.57901778       5.92203709      -0.64301971      -0.15822387      -0.27486025       1.26891146       0.20656052      -0.50126869      -8.70961045
Si      14.52059215      12.72113593       9.14731122      -0.87799685      -0.84008150       0.19592972      -1.02662970      -0.09427316      -0.21809598      -8.52301905
Si      10.71045095       3.99368314       2.62091744       0.99011664       0.26589456      -0.45915588      -0.54162305      -0.81291502       0.81960651      -8.62528890
Si      12.42601156       4.99089550       5.89431111      -0.14790531       0.60386373       0.56300587       0.81056818       0.16624384       0.29949603      -8.74556393
Si      14.34113390       6.20151519       9.03770573       0.58656508      -0.49577990      -0.28652849      -0.11330770       0.29839568      -0.45544159      -8.73977637
Si      12.50937002       7.29267225       2.80780196      -0.44437488      -0.23709823       0.02025979       0.24093362      -0.21477395      -0.48794682      -8.65764123
Si      14.54352371       8.30006381       5.72460259      -0.14314018       1.49475217      -0.75680153      -0.20468967      -0.47993510       1.06147720      -8.70477444
Si      16.41325514       9.39298148       8.93143260       0.28499754      -0.58147128       0.19593339      -0.18689172       0.23542696       0.03638347      -8.72371659
Si      14.53498517      10.50313456       2.74897472       1.17154418      -2.03000230      -0.40816735       0.32913760       1.37118520       0.23449957      -8.72921732
Si      16.33151001      11.76122221       5.97535924      -0.00206619       0.08271385       0.40285449      -0.11715751      -0.02594887      -0.22427865      -8.72565357
Si      18.33512106      12.79188764       9.14338226      -0.37402178       0.73017953       0.54460891       0.02996401       0.13896636      -0.75589797      -8.70949770
Si      14.37679723       3.94783981       2.66797752      -0.99147068       0.67049663      -0.27806040       0.12672642      -0.35710141       0.23449699      -8.76738439
Si      16.34858258       4.90911014       5.89328971      -1.33760957      -1.94793311       0.39367204       0.29711101       1.47661794      -0.53008477      -8.71708808
Si      18.26559781       5.93271901       9.05659471      -0.96919846      -0.27578253      -1.07029877       0.24675436       0.94487532      -0.57602810      -8.48710191
Si      16.38930618       7.09126859       2.73517986       1.02747504       0.49532254      -0.42229075       0.29899043      -0.08034289      -0.13620730      -8.70020056
Si      18.33549008       8.38355056       5.90929360       1.06607744      -0.04119901      -0.35300014      -0.48169937       0.28342943      -0.10326070      -8.71552037
Si      20.13752750       9.47792412       9.03300885      -0.14913924      -0.68361381      -0.30781836       0.61265350      -0.24212789       0.01630369      -8.76534276
Si      18.24672248      10.38118969       2.75801368       0.07811035       0.93651946      -0.34914406       0.55459158       1.34761428       0.19841909      -8.55102120
Si      20.07972874      11.79231742       5.82762607      -0.68899629       0.71632982       0.48933989       0.61853275      -0.22221054      -0.07455631      -8.70818950
Si      22.09167623      12.81831643       8.96762473      -1.26234615       0.76283880      -0.35735487      -0.30824833      -0.28912290       0.27039640      -8.50206452
Si       2.83749332       1.77096484       3.43230505      -1.40981888       0.22498460      -0.38153055      -0.26757581      -1.13894977       0.26028944      -8.66574611
Si       4.78919818       2.78157529       6.56740045       0.10251014      -0.06022277      -0.67034752      -0.46588917      -0.87889358       1.04630560      -8.73439470
Si       2.82702657       3.93028431       0.37906007       0.04021000       0.08700447       0.73470921      -0.18058569      -0.83704863      -0.55750498      -8.67327592
Si       4.74820515       4.83476736       3.52684842      -1.92727502      -0.37964205      -0.69182026       0.99663294       0.92548905       0.15946551      -8.68870808
Si       6.75422158       6.14058304       6.62965304       0.45370937       0.65402538       1.16258684      -0.49332243      -0.65316221       0.57472262      -8.69041030
Si       4.76359478       7.18979458       0.35696997      -0.03413232      -0.71223559      -0.29045222       0.28721749       0.70137167       0.13606019      -8.70712424
Si       6.78413453       8.21766715       3.53648845       0.09621491      -0.78081350      -0.69062657      -0.63196641      -0.13450293       0.25642545      -8.74006148
Si       8.57727998       9.64267329       6.75505762      -1.42751556       1.17232135       0.00049085       0.99442797      -1.14863027      -1.07009569      -8.67646795
Si       4.84023175       0.52556754       0.45164329       1.19567725       1.62854301       0.46988978       0.06672893       0.12721417       0.63341105      -8.76126035
Si       6.85183451       1.65672768       3.53882649      -0.03928384       0.64300419       0.77387795      -0.42289206       0.18763754       0.10269583      -8.70179649
Si       8.53492563       2.76327817       6.81161196       0.41107560       0.08586616      -0.58679778       0.10845975       0.11100702      -0.83688559      -8.68518425
Si       6.62493620       3.98817064       0.39076431      -0.31269799      -0.45554940      -0.80045286       0.46009053      -0.31576298      -0.04450701      -8.73451474
Si       8.72166600       5.06454526       3.51937931       1.39163631       0.48548600      -0.90244858       0.29132106      -0.95817124       0.34219564      -8.72685586
Si      10.56756678       6.00235187       6.77917363       0.18249677      -0.93171270       0.46822790      -0.56770793       1.20212665      -0.15479846      -8.71872217
Si       8.69619378       7.12910728       0.41262313      -0.64466007      -0.08718017       0.70869785      -0.19090574       0.12495326       0.15185088      -8.68409424
Si      10.56639312       8.41268240       3.61906377       0.65543986       0.19893947       0.15159648       0.16571114      -0.11266756       0.12386271      -8.74698517
Si      12.65221569       9.36177439       6.60489163       0.09188845      -0.08692556       0.51133236      -1.02866474       0.00990102       0.05997764      -8.72244332
Si       8.66134186       0.72717842       0.42805686      -0.01449232       0.29124773       0.90621035       0.30182916      -1.12652622      -0.07455760      -8.72948475
Si      10.71053114       1.69047546       3.59474896       0.85462629      -0.35016386      -0.35963683      -1.00477454       0.48491481      -0.64001763      -8.61986875
Si      12.48613777       2.85458335       6.75297933      -0.19240715      -0.63135413       0.06056074      -0.37131197      -0.18352212       0.37182094      -8.73842372
Si      10.59234806       3.81773208       0.25884846      -0.18103505       0.24826819      -0.53400328       0.07864445       0.33367564       0.61647673      -8.76189855
Si      12.60244443       5.03478253       3.59194986       1.51428117      -0.61930096      -0.60389526      -1.08326756       0.71004777      -0.60753792      -8.72627934
Si      14.42059443       6.03341359       6.65854426       0.41288128      -0.22858312      -0.74691021      -0.13512081       0.68709715      -0.10566800      -8.66357465
Si      12.52989145       7.20972771       0.35711230       0.10599390       1.12844509      -0.18623417      -0.93980873       0.33250686       1.24401362      -8.70960980
Si      14.56667791       8.34182052       3.43941155       1.43609133       1.03815973      -0.64241695      -0.82685655      -0.73570622      -0.17502181      -8.75531506
Si      16.34343853       9.51496132       6.57084464       0.43014129      -1.07005994      -0.38413046       0.46530167      -0.48472398       0.39139331      -8.74069714
P        0.90186613       0.46577710       0.45806958       0.55622935      -0.04262582       1.81435815       0.60592011      -0.40147117      -0.42105736      -9.83414793
54
Lattice="11.5478352 0.0 0.0 5.773917198490155 10.000722372470358 0.0 5.773916394327279 3.333571176804646 9.428767828939895" Properties=species:S:1:pos:R:3:momenta:R:3:forces:R:3:energies:R:1 spacegroup="_JSON {\"number\": 1, \"setting\": 1}" unit_cell=conventional occupancy="_JSON {\"0\": {\"Si\": 1.0}, \"1\": {\"Si\": 1.0}, \"2\": {\"Si\": 1.0}, \"3\": {\"Si\": 1.0}, \"4\": {\"Si\": 1.0}, \"5\": {\"Si\": 1.0}, \"6\": {\"Si\": 1.0}, \"7\": {\"Si\": 1.0}, \"8\": {\"Si\": 1.0}, \"9\": {\"Si\": 1.0}, \"10\": {\"Si\": 1.0}, \"11\": {\"Si\": 1.0}, \"12\": {\"Si\": 1.0}, \"13\": {\"Si\": 1.0}, \"14\": {\"Si\": 1.0}, \"15\": {\"Si\": 1.0}, \"16\": {\"Si\": 1.0}, \"17\": {\"Si\": 1.0}, \"18\": {\"Si\": 1.0}, \"19\": {\"Si\": 1.0}, \"20\": {\"Si\": 1.0}, \"21\": {\"Si\": 1.0}, \"22\": {\"Si\": 1.0}, \"23\": {\"Si\": 1.0}, \"24\": {\"Si\": 1.0}, \"25\": {\"Si\": 1.0}, \"26\": {\"Si\": 1.0}, \"27\": {\"Si\": 1.0}, \"28\": {\"Si\": 1.0}, \"29\": {\"Si\": 1.0}, \"30\": {\"Si\": 1.0}, \"31\": {\"Si\": 1.0}, \"32\": {\"Si\": 1.0}, \"33\": {\"Si\": 1.0}, \"34\": {\"Si\": 1.0}, \"35\": {\"Si\": 1.0}, \"36\": {\"Si\": 1.0}, \"37\": {\"Si\": 1.0}, \"38\": {\"Si\": 1.0}, \"39\": {\"Si\": 1.0}, \"40\": {\"Si\": 1.0}, \"41\": {\"Si\": 1.0}, \"42\": {\"Si\": 1.0}, \"43\": {\"Si\": 1.0}, \"44\": {\"Si\": 1.0}, \"45\": {\"Si\": 1.0}, \"46\": {\"Si\": 1.0}, \"47\": {\"Si\": 1.0}, \"48\": {\"Si\": 1.0}, \"49\": {\"Si\": 1.0}, \"50\": {\"Si\": 1.0}, \"51\": {\"Si\": 1.0}, \"52\": {\"Si\": 1.0}, \"53\": {\"P\": 1.0}}" energy=-470.5870060934991 stress="-0.00013535215742808748 0.0022805320275992506 0.001340889004225699 0.0022805320275992506 -0.001717472649492882 0.00044425659325785535 0.001340889004225699 0.00044425659325785535 0.0002936204010136723" free_energy=-470.5870060934991 pbc="T T T"
Si       6.80937584       3.89173028       2.74342689       0.00959474      -0.50867157       0.21390709      -0.27892499       0.30325820      -0.09414610      -8.68473739
Si       8.62298582       5.00816838       5.96644065       0.09172361       0.05031085       0.27961191       0.40775519      -0.48620119      -0.90059373      -8.73168755
Si      10.49832967       6.06478998       9.17922902      -0.40407634       0.91880424      -0.03904068       0.38964366       0.72490325      -0.92203006      -8.74601690
Si       8.68986755       7.19381596       2.81916645       0.53869026      -0.31919687      -0.20001117       0.91282058       0.61087636      -0.67175480      -8.75217112
Si      10.56084633       8.35149751       5.99116022      -0.56867400       0.39055296      -0.19370824      -0.29520187      -0.16581694       0.21477731      -8.60304812
Si      12.48026699       9.49603663       8.93924667       0.62993019      -0.47278371       0.44934131       0.31580393      -0.38448594       0.54963960      -8.75535268
Si      10.64042871      10.62294402       2.82487327       0.78877481      -0.34632397       0.58269227      -0.41550397       0.23916040       0.20940972      -8.70965338
Si      12.42145090      11.57791075       5.89436272       1.26956665       0.11502956      -0.62460175       1.03371596       0.19800978       0.11322463      -8.73177950
Si      14.45124434      12.68551322       9.15108884      -1.46034914      -0.32516425      -0.04129635       0.19234200       0.64996314      -0.16962795      -8.52546863
Si      10.74209618       3.97494277       2.62578723       0.22386541      -0.97099446       0.56642695      -0.50796148      -0.75607654       0.50357521      -8.66858661
Si      12.45002823       5.01987085       5.92680597       0.96470697       0.37710251       0.53518598       0.40694687      -0.31488274      -0.24961941      -8.72287349
Si      14.36367380       6.18736601       9.00537601       0.24480410      -0.10053121      -0.89885174      -0.22187944       0.08723906      -0.26365763      -8.72776731
Si      12.50389728       7.27569019       2.79108291       0.32395240      -0.31445474      -0.60164311       0.58297731       0.16611038      -0.25334304      -8.67843644
Si      14.52903082       8.35205322       5.72346287      -0.40326510       0.38028368       0.61689349      -0.17185944      -0.89205595       0.68211385      -8.69897952
Si      16.41835259       9.38004928       8.94174492      -0.13128717       0.22949360       0.20128955      -0.34086311       0.77249606       0.05219698      -8.69181330
Si      14.59955502      10.47215867       2.74046085       1.08743242       1.05370711       0.15457619      -0.48529000       2.10020939       0.51595161      -8.68236705
Si      16.32846265      11.75614367       5.98285330      -0.08740667      -0.42239817      -0.20491037      -0.01222413      -0.58106715      -0.55633741      -8.71394151
Si      18.32077037      12.83548087       9.14128860      -0.12958144       0.89152619      -0.58087156       0.19387029      -0.02649584      -0.56669858      -8.72663591
Si      14.33826927       3.95604418       2.65891572      -0.33273909      -0.53935332      -0.10091136       0.66137572      -1.02194548       0.12137224      -8.74305507
Si      16.29977337       4.87695498       5.88656887      -0.37764454       0.73878479      -0.67294025       0.87087503       1.53593681      -0.60675839      -8.67218924
Si      18.23074521       5.95216492       8.99461430      -0.27639650       0.90676867      -0.94154801       0.56810684       0.50939486       0.79300862      -8.48503599
Si      16.44529429       7.10723168       2.70779230       0.89765323       0.01800741      -0.62597657      -0.51127513      -0.44571517      -0.14664202      -8.73019682
Si      18.36653736       8.38716541       5.88479175       0.04083545       0.02831741      -0.59179809      -0.76863605      -0.29232425      -0.13721197      -8.72242627
Si      20.14662045       9.44010463       9.02040199       0.32282947      -0.59752042      -0.13622146      -0.05025427       0.37697914       0.15789823      -8.75778444
Si      18.27140334      10.46263378       2.75460892       0.76354864       1.74545339       0.30486616       0.13904801      -0.31344653       0.50235691      -8.61108477
Si      20.06842429      11.81863342       5.84370786       0.20684573       0.21612251       0.04103210       0.40602671      -0.49325017      -0.39173774      -8.70424144
Si      22.02436286      12.84098853       8.96332885      -1.07905133      -0.01348074       0.25586727       0.57948108      -0.73098851       0.50438887      -8.44569972
Si       2.76898503       1.74314804       3.42566699      -0.85760199      -1.10980106       0.20046106       1.09115617      -0.44070162       0.53963200      -8.63884231
Si       4.77564040       2.74002299       6.57672414      -0.55753357      -1.41133847       0.98927772      -0.21883383      -0.42948384       0.88732578      -8.74555334
Si       2.81475613       3.90266357       0.38888886      -0.60580424      -1.06996167      -0.43256017      -0.55649527      -0.54607299      -0.82666186      -8.68011066
Si       4.70041090       4.85186607       3.50149177       0.28289506       0.99469539      -0.23392034       1.66874892       0.75643420       0.31117731      -8.65598018
Si       6.75075997       6.14664979       6.69857851      -0.66307288      -0.41783019       1.12030067      -0.79230482      -0.64152990      -0.78290251      -8.66873132
Si       4.77087664       7.18342557       0.34405888       0.28577526       0.48267284      -0.25341434       0.17744050       0.73979984      -0.06410445      -8.70050461
Si       6.76829267       8.18646421       3.51359663      -0.55494934      -0.14342759      -0.14501130      -0.06119294       0.88396691       0.39565064      -8.71168233
Si       8.54847302       9.65832351       6.71762013       0.42671951      -0.56001256      -1.29262827       1.35133866      -1.07434783      -0.53361842      -8.67962070
Si       4.88811747       0.59714877       0.49795058       0.35189250       0.81891383       1.18704526      -1.02461359      -0.95864145       0.18621579      -8.72044975
Si       6.84329778       1.68682748       3.57626465      -0.12527776       0.33091575       0.50911574       0.21510858      -0.48910747      -0.46579944      -8.69987298
Si       8.55408111       2.77115635       6.75698819       0.23039104       0.19019241      -1.29202869      -0.23279420       0.01188637      -0.02920569      -8.71580582
Si       6.62936757       3.95376550       0.35295964       0.51048101      -0.80396050      -0.52176525       0.56349540      -0.10460209       0.42212327      -8.71462370
Si       8.79707025       5.04364699       3.49743455       1.28499455      -1.33853736       0.22625351      -0.49410254      -1.13933448       0.96128508      -8.68648841
Si      10.55332088       6.00643210       6.80058416      -0.67527781       1.12704486       0.35739675      -0.36225501       1.33773549      -0.12026014      -8.69756018
Si       8.66003419       7.12439285       0.45260137      -0.62609128      -0.16331889       0.72130191       0.23571587      -0.14070997      -0.22147710      -8.69078854
Si      10.60021710       8.41350192       3.62943674       0.53789377      -0.25153910       0.18979791      -0.21359872      -0.43124582      -0.08917368      -8.74753862
Si      12.61763913       9.36088525       6.62880922      -1.33378369       0.10755565       0.31454274      -0.71092756       0.22144090      -0.27060813      -8.73908781
Si       8.66917720       0.70241007       0.46498996       0.23688789      -1.06860415       0.34805344       0.00144977      -0.46899873      -0.66349113      -8.75080656
Si      10.71277409       1.69417010       3.55759280      -0.75684292       0.53126457      -0.89970489      -0.92194161       0.62530000      -0.01670919      -8.63189659
Si      12.46105400       2.82675476       6.77229686      -0.72066380      -0.23615773       0.63675341      -0.19322594       0.56589927       0.20393399      -8.75091024
Si      10.58687394       3.83983220       0.25727539      -0.02826234       0.51911649       0.50295651       0.07494355       0.03864031       0.71440568      -8.76755400
Si      12.62463696       5.03818466       3.55250615      -0.83792840       0.81059741      -0.62742741      -1.68286880       0.90760527       0.43927353      -8.69610787
Si      14.43421375       6.05225662       6.61989887       0.08371710       0.99657968      -0.63741294      -0.22033204       0.86274980       0.24048495      -8.69155791
Si      12.50448858       7.27110866       0.39122315      -0.90705353       0.99810724       1.30998282      -0.29192575      -0.48796868       0.53212183      -8.72850891
Si      14.60455479       8.34997551       3.40492024      -0.04180492      -0.89949442      -0.53923090      -1.01446230      -1.34497680       0.32420019      -8.71136958
Si      16.38313614       9.45056472       6.56826117       1.01085450      -1.16897647       0.31098775       0.16640344       0.36155698       0.48210156      -8.75047893
P        0.94091572       0.45283364       0.51315144       0.89516351      -0.39408740       0.20351775      -0.15484120       0.01492191      -1.54567484      -9.79154408
54
Lattice="11.5478352 0.0 0.0 5.773917198490155 10.000722372470358 0.0 5.773916394327279 3.333571176804646 9.428767828939895" Properties=species:S:1:pos:R:3:momenta:R:3:forces:R:3:energies:R:1 spacegroup="_JSON {\"number\": 1, \"setting\": 1}" unit_cell=conventional occupancy="_JSON {\"0\": {\"Si\": 1.0}, \"1\": {\"Si\": 1.0}, \"2\": {\"Si\": 1.0}, \"3\": {\"Si\": 1.0}, \"4\": {\"Si\": 1.0}, \"5\": {\"Si\": 1.0}, \"6\": {\"Si\": 1.0}, \"7\": {\"Si\": 1.0}, \"8\": {\"Si\": 1.0}, \"9\": {\"Si\": 1.0}, \"10\": {\"Si\": 1.0}, \"11\": {\"Si\": 1.0}, \"12\": {\"Si\": 1.0}, \"13\": {\"Si\": 1.0}, \"14\": {\"Si\": 1.0}, \"15\": {\"Si\": 1.0}, \"16\": {\"Si\": 1.0}, \"17\": {\"Si\": 1.0}, \"18\": {\"Si\": 1.0}, \"19\": {\"Si\": 1.0}, \"20\": {\"Si\": 1.0}, \"21\": {\"Si\": 1.0}, \"22\": {\"Si\": 1.0}, \"23\": {\"Si\": 1.0}, \"24\": {\"Si\": 1.0}, \"25\": {\"Si\": 1.0}, \"26\": {\"Si\": 1.0}, \"27\": {\"Si\": 1.0}, \"28\": {\"Si\": 1.0}, \"29\": {\"Si\": 1.0}, \"30\": {\"Si\": 1.0}, \"31\": {\"Si\": 1.0}, \"32\": {\"Si\": 1.0}, \"33\": {\"Si\": 1.0}, \"34\": {\"Si\": 1.0}, \"35\": {\"Si\": 1.0}, \"36\": {\"Si\": 1.0}, \"37\": {\"Si\": 1.0}, \"38\": {\"Si\": 1.0}, \"39\": {\"Si\": 1.0}, \"40\": {\"Si\": 1.0}, \"41\": {\"Si\": 1.0}, \"42\": {\"Si\": 1.0}, \"43\": {\"Si\": 1.0}, \"44\": {\"Si\": 1.0}, \"45\": {\"Si\": 1.0}, \"46\": {\"Si\": 1.0}, \"47\": {\"Si\": 1.0}, \"48\": {\"Si\": 1.0}, \"49\": {\"Si\": 1.0}, \"50\": {\"Si\": 1.0}, \"51\": {\"Si\": 1.0}, \"52\": {\"Si\": 1.0}, \"53\": {\"P\": 1.0}}" energy=-471.50397848156047 stress="-0.0006879178771260033 -0.00241994691958868 -0.0017589652701350312 -0.00241994691958868 0.002723068333683824 -0.0012804894359328418 -0.0017589652701350312 -0.0012804894359328418 -0.0019089716148607623" free_energy=-471.50397848156047 pbc="T T T"
Si       6.80302397       3.87892549       2.74949087      -0.15353521       0.01828222       0.01043093       0.10620599       0.28996351      -0.12278273      -8.68673366
Si       8.63931000       4.99653950       5.94889674       0.43324634      -0.37947252      -0.83656502       0.02968531      -0.03745816      -0.44473764      -8.74844321
Si      10.49390680       6.12916228       9.14639662       0.24705914       1.26753055      -1.06410740       0.42101570      -0.30587419      -0.33220679      -8.76066128
Si       8.74490981       7.19289576       2.79408524       1.34467304       0.09468076      -0.51516281       0.06504203      -0.11434678       0.25713211      -8.75157899
Si      10.52205855       8.36330875       5.98653197      -0.80888821       0.01921304      -0.07884415       0.12481234      -0.32048045      -0.16611401      -8.73643096
Si      12.51819485       9.45848544       8.98098372       0.66111600      -0.89863904       1.03117311      -0.28909021      -0.14221854       0.11120639      -8.75422683
Si      10.66163589      10.61218383       2.86505192      -0.02334462      -0.13822738       0.94990452      -0.56996083      -0.04687411       0.19463160      -8.71442527
Si      12.51230355      11.59216934       5.87392001       1.83372697       0.42364303      -0.04203057      -0.38103086       0.17073994       0.53625370      -8.75856105
Si      14.39211647      12.69224876       9.14048210      -0.61679763       0.50096136      -0.40060446       0.87924474       0.33655842      -0.30829946      -8.52016993
Si      10.73461141       3.90222956       2.66901735      -0.49953021      -1.57755191       0.95644315      -0.45627304       0.14662682       0.00364586      -8.74339542
Si      12.50094887       5.03134792       5.94427274       0.68160143       0.17687889       0.12564624      -0.72883945       0.13666039      -0.27347159      -8.69741505
Si      14.37347519       6.17860793       8.95396685       0.25437618      -0.34491762      -0.92878446       0.26141938      -0.34096637       0.25711226      -8.71219137
Si      12.53643583       7.27117650       2.75740096       0.72771833       0.22291201      -0.51609050      -0.15492515       0.45867531       0.38625215      -8.77207331
Si      14.50063887       8.34247053       5.77425146      -0.68320532      -0.57855229       1.15527865      -0.18183492      -0.21345386       0.02352075      -8.72412502
Si      16.39893101       9.42095003       8.95869317      -0.57532555       1.24592636       0.53236582      -0.20113086       0.43256621       0.37974168      -8.70284431
Si      14.62602693      10.58045286       2.76750342      -0.31765305       2.42834313       0.76630336      -1.38223451      -0.40016014       0.07172456      -8.70703126
Si      16.32382054      11.71169061       5.95084859      -0.08017641      -1.20074486      -0.96469788       0.02975980      -0.29209515      -0.34630091      -8.69500204
Si      18.31684958      12.87546828       9.10140873      -0.13694756       0.50763860      -0.66316977      -0.25845901      -0.50657080       0.49692570      -8.75065700
Si      14.34307334       3.89812910       2.66305003       0.41777754      -1.38688340       0.34177449       0.29390365       0.06360634       0.41945422      -8.73401713
Si      16.31124925       4.95312514       5.84002172       0.69781260       1.74033810      -0.84527941       0.38932620      -0.13774346       0.37607751      -8.70943582
Si      18.23359654       6.00968375       8.98453143       0.23549503       1.07956188       0.57431261      -0.03465924      -0.31118658       0.82153697      -8.52452585
Si      16.46730270       7.09564757       2.66898621      -0.10025565      -0.29573108      -0.83520492      -0.66506558       0.20019403      -0.06635200      -8.76037540
Si      18.34493897       8.36988429       5.85224574      -0.69686567      -0.78413791      -0.54487504      -0.11602424      -0.65995162       0.26701553      -8.73265919
Si      20.15454538       9.42745994       9.01765380      -0.11826436       0.15895258      -0.01569839      -0.43030914       0.54225182      -0.02787513      -8.68405501
Si      18.30188212      10.52735735       2.78160561       0.13504808       0.52595886       0.51945113      -0.82990390      -1.05162259      -0.27129498      -8.57364663
Si      20.08503205      11.80752781       5.83545085       0.25279287      -0.68838862      -0.21686202      -0.25248382      -0.66738503       0.15600889      -8.71527393
Si      21.99856272      12.81127425       8.99517310       0.22954978      -1.06928219       0.90498789       1.08433295      -0.50607571       0.28691453      -8.50377813
Si       2.78030008       1.68236696       3.45961887       1.45301975      -0.96261475       1.10005861       1.65918570       0.49509584       0.53361832      -8.69063932
Si       4.74901189       2.67082687       6.64840711      -0.24157336      -0.84505050       1.43532850       0.60525116       1.04648948      -0.31900890      -8.70529401
Si       2.76583072       3.83708086       0.34256408      -1.08344700      -1.16027085      -1.09893838       0.15340971       0.51521650       0.09935114      -8.74598124
Si       4.76949391       4.92214700       3.49498183       2.06853765       1.41966590      -0.14711654       0.55136499      -0.28131087      -0.19275425      -8.74064195
Si       6.69248558       6.10518398       6.71208479      -1.35929567      -1.04659322      -0.77165551       0.00517604      -0.16808146      -1.37907456      -8.70200554
Si       4.79256100       7.22794043       0.32770244       0.53039462       0.96727914      -0.35578375       0.12853917      -0.24201110      -0.00525499      -8.72618591
Si       6.74753823       8.21457395       3.51674132      -0.07937609       1.15488416       0.13707014       0.53863485       0.63520071      -0.10634137      -8.71122469
Si       8.61467338       9.59417573       6.63937367       1.81459630      -1.71493686      -1.47644789       0.21011014      -0.37896802       0.31989936      -8.73332871
Si       4.86497667       0.60730603       0.55567219      -1.21093945      -0.28744974       0.76778378      -0.91957678      -0.40427198      -0.75569761      -8.68254823
Si       6.84703680       1.68584050       3.58082192       0.26123549      -0.30464782      -0.36888405       0.17870213      -0.23658971      -0.57388452      -8.73014940
Si       8.56180347       2.77988479       6.69850888       0.20798176       0.11293019      -0.74359914       0.32622168      -0.09955689       0.72608377      -8.73709104
Si       6.67447544       3.91095274       0.34555139       1.11184822      -0.76156184       0.29100679       0.17716415       0.15223626       0.61236352      -8.74012240
Si       8.83658780       4.94509133       3.54116981       0.07241555      -2.05882233       1.26643383      -1.05722290       0.25749157       0.26475627      -8.69599152
Si      10.51457605       6.10654521       6.80975055      -0.59830114       2.40108155      -0.11832420       0.42414874       0.18216156      -0.53914708      -8.71529101
Si       8.64045208       7.11347333       0.47523064      -0.05575877      -0.15212699       0.02126796       0.47760109       0.24805999      -0.67154373      -8.73005973
Si      10.62232446       8.38473272       3.63359783       0.36632951      -0.78235850      -0.06431221       0.02003404      -0.18024746      -0.21346275      -8.72344207
Si      12.53165266       9.37562080       6.63623122      -1.68713384       0.44780321       0.03094428       0.29851796       0.19188454      -0.02743046      -8.73705474
Si       8.67791011       0.64291025       0.45661974       0.04296248      -0.92988426      -0.61645931      -0.19907090       0.58024725      -0.45816849      -8.74491869
Si      10.65358585       1.74184879       3.51913146      -1.11683892       1.13493203      -0.37418656       0.55232249       0.00234259       0.73202546      -8.71305096
Si      12.42289340       2.83480310       6.80167259      -0.60131807       0.45673197       0.22123768       0.31661771       0.22922933      -0.79803337      -8.76276843
Si      10.58552168       3.86720163       0.30799092      -0.08416396       0.51034116       1.33157016      -0.15997245      -0.02130939       0.31485296      -8.73529997
Si      12.53360901       5.09957148       3.53807829      -2.19348072       1.14588460       0.06713833       0.01094066      -0.56434195       0.41446794      -8.71932002
Si      14.43390407       6.13254501       6.59689428      -0.01123586       1.87015349      -0.23286135       0.10090520       0.07297684       0.26854417      -8.76898824
Si      12.45549726       7.30188413       0.46172775      -0.78114673       0.17427792       0.98258958       0.41724499      -0.49269782      -0.99907737      -8.70717097
Si      14.57074527       8.27218929       3.39273883      -1.03619688      -1.58388660       0.14773376      -0.17451726       0.51005001       0.61307678      -8.69712056
Si      16.43264689       9.40939866       6.60055521       0.66370472      -0.31682198       0.84540827      -0.65198543       0.67861035       0.18389450      -8.76270061
P        0.97071856       0.44119471       0.47313631       0.20597652       0.04276841      -1.67709787      -0.74227025       0.54871457      -0.72977389      -9.77185550
54
Lattice="11.5478352 0.0 0.0 5.773917198490155 10.000722372470358 0.0 5.773916394327279 3.333571176804646 9.428767828939895" Properties=species:S:1:pos:R:3:momenta:R:3:forces:R:3:energies:R:1 spacegroup="_JSON {\"number\": 1, \"setting\": 1}" unit_cell=conventional occupancy="_JSON {\"0\": {\"Si\": 1.0}, \"1\": {\"Si\": 1.0}, \"2\": {\"Si\": 1.0}, \"3\": {\"Si\": 1.0}, \"4\": {\"Si\": 1.0}, \"5\": {\"Si\": 1.0}, \"6\": {\"Si\": 1.0}, \"7\": {\"Si\": 1.0}, \"8\": {\"Si\": 1.0}, \"9\": {\"Si\": 1.0}, \"10\": {\"Si\": 1.0}, \"11\": {\"Si\": 1.0}, \"12\": {\"Si\": 1.0}, \"13\": {\"Si\": 1.0}, \"14\": {\"Si\": 1.0}, \"15\": {\"Si\": 1.0}, \"16\": {\"Si\": 1.0}, \"17\": {\"Si\": 1.0}, \"18\": {\"Si\": 1.0}, \"19\": {\"Si\": 1.0}, \"20\": {\"Si\": 1.0}, \"21\": {\"Si\": 1.0}, \"22\": {\"Si\": 1.0}, \"23\": {\"Si\": 1.0}, \"24\": {\"Si\": 1.0}, \"25\": {\"Si\": 1.0}, \"26\": {\"Si\": 1.0}, \"27\": {\"Si\": 1.0}, \"28\": {\"Si\": 1.0}, \"29\": {\"Si\": 1.0}, \"30\": {\"Si\": 1.0}, \"31\": {\"Si\": 1.0}, \"32\": {\"Si\": 1.0}, \"33\": {\"Si\": 1.0}, \"34\": {\"Si\": 1.0}, \"35\": {\"Si\": 1.0}, \"36\": {\"Si\": 1.0}, \"37\": {\"Si\": 1.0}, \"38\": {\"Si\": 1.0}, \"39\": {\"Si\": 1.0}, \"40\": {\"Si\": 1.0}, \"41\": {\"Si\": 1.0}, \"42\": {\"Si\": 1.0}, \"43\": {\"Si\": 1.0}, \"44\": {\"Si\": 1.0}, \"45\": {\"Si\": 1.0}, \"46\": {\"Si\": 1.0}, \"47\": {\"Si\": 1.0}, \"48\": {\"Si\": 1.0}, \"49\": {\"Si\": 1.0}, \"50\": {\"Si\": 1.0}, \"51\": {\"Si\": 1.0}, \"52\": {\"Si\": 1.0}, \"53\": {\"P\": 1.0}}" energy=-470.9837142221762 stress="-0.0013917218242220804 -0.0019062033581751508 -0.0014527552113221258 -0.0019062033581751508 -0.0011102630762251904 0.00038147602477130833 -0.0014527552113221258 0.00038147602477130833 -0.001188884123216807" free_energy=-470.9837142221762 pbc="T T T"
Si       6.80431120       3.88503010       2.74726717       0.28077653       0.08103597      -0.05593088       0.39790850      -0.22850903       0.02900090      -8.72886813
Si       8.65968860       4.98101976       5.90070229       0.29150977      -0.12089814      -0.72424940      -0.17314069       0.31381982       0.62795827      -8.73265386
Si      10.51936111       6.17598292       9.08773510       0.63446389       0.41064160      -0.98917471       0.07545885      -0.72531787       0.38116216      -8.71009174
Si       8.80626906       7.18599649       2.78253175       0.77404197      -0.45712493       0.11318146      -0.79480851      -0.49876694       0.40924521      -8.66614931
Si      10.49760523       8.35244976       5.96685964       0.14562296      -0.38074088      -0.83317850       1.12525552      -0.08945505      -0.77041714      -8.76025211
Si      12.53736548       9.40968382       9.03134336       0.02736110      -0.87961671       0.74140427      -0.44308230       0.17822999      -0.45841955      -8.72910350
Si      10.64458107      10.59676901       2.91624508      -0.45399381      -0.56236164       0.82393466       0.10819991      -0.48235015      -0.50066713      -8.73283245
Si      12.57907232      11.61918439       5.88832199       0.48919613       0.57954281       0.47748853      -1.22916258       0.07572551       0.10528063      -8.73246466
Si      14.39386502      12.72496140       9.10727120       0.60947956       0.63684876      -0.84180310       0.56839521      -0.09293172      -0.20699976      -8.56819407
Si      10.69214870       3.84320219       2.71478052      -1.08564456      -0.34815172       0.72365843      -0.31981165       1.35226151      -0.23326140      -8.73422011
Si      12.50399390       5.05356442       5.94135476      -0.58348762       0.78140136      -0.21074863      -0.79439273       0.55117279      -0.16344349      -8.69378720
Si      14.40145974       6.14773325       8.92067597       0.85661954      -0.77423803      -0.24098772       0.42582526      -0.10984001       0.63904191      -8.71520598
Si      12.55863013       7.29542155       2.74799749      -0.02637627       0.53910227       0.14007165      -0.69085704      -0.17051377       0.31191243      -8.79182623
Si      14.45854256       8.32102324       5.82886550      -0.88718744       0.09612637       0.80807218      -0.04174484       1.05762239      -0.42604331      -8.70286590
Si      16.36514207       9.49276603       9.00161712      -0.61218311       1.26419128       1.04953533       0.19628527      -0.46149511       0.15761380      -8.73474722
Si      14.55806695      10.66967194       2.79789610      -2.04548713       0.63994417       0.17661970      -0.47098352      -1.71007787      -0.75663565      -8.64668160
Si      16.32224758      11.64713093       5.89456410       0.05888772      -1.05555940      -0.99945539       0.18097797       0.50049887       0.37042626      -8.70366691
Si      18.29367698      12.87971194       9.09175370      -0.83266961      -0.36144642       0.30052615      -0.58380678      -0.55131706       0.50758852      -8.74516898
Si      14.37304525       3.84167298       2.69564499       0.68227215      -0.54144388       0.84367751       0.11677138       0.93533201       0.20187156      -8.61116852
Si      16.34772444       5.02499037       5.81414854       0.37236248       0.74496073      -0.14935009      -0.84069693      -1.13312715       0.34872344      -8.68067925
Si      18.23117140       6.04620954       9.02632834      -0.54343012       0.20789038       0.62027120      -0.82246918      -0.68480614      -0.69851683      -8.54522709
Si      16.44267321       7.10044691       2.62672601      -0.69703164       0.67349679      -0.66281751      -0.10770098       0.93133038       0.38043682      -8.75502997
Si      18.31176648       8.30693022       5.83873199      -0.46498983      -1.48044601       0.08836784       0.28279199      -0.11749953       0.47942122      -8.73517540
Si      20.13375733       9.45326611       9.01226458      -0.59359064       0.72755308      -0.25354735      -0.10855514       0.15219822      -0.27305850      -8.62032362
Si      18.28346537      10.52486356       2.79275858      -0.60020841      -0.33872753      -0.16112226       0.06590913       0.03482970      -0.54379235      -8.52228543
Si      20.08977242      11.74791227       5.84044120       0.00848410      -1.49445182       0.58913604       0.04966212      -0.30295060       0.84554795      -8.71401563
Si      22.04994324      12.74864657       9.04772803       1.60807342      -1.01933014       0.95418195       0.59313282       0.63876450      -0.28284712      -8.59373708
Si       2.90185539       1.65020053       3.53005338       2.67075302      -0.30370803       1.40154887      -0.31830011       0.36850255      -0.16535063      -8.78329346
Si       4.76205801       2.67177551       6.70119631       0.71447403       0.90086773       0.43008054       0.50703121       1.11690647      -0.88430833      -8.61474752
Si       2.73211490       3.80807655       0.30331006       0.09453777       0.23030467      -0.15456872       1.24963749       1.16889275       1.02624639      -8.73076452
Si       4.88192416       4.97537916       3.47752415       1.87202714       0.47281313      -0.51426472      -0.81211389      -0.79689048      -0.18138951      -8.74427824
Si       6.63697045       6.05105775       6.63452521      -0.43359901      -0.86239452      -1.77921621       1.24234054       0.42336466       0.18948632      -8.71139503
Si       4.82343937       7.25299170       0.31214334       0.58758485      -0.30474901      -0.17183137      -0.10998951      -1.34849531       0.23886878      -8.72329445
Si       6.76155612       8.28680522       3.51241272       0.52906077       1.30831120      -0.40062717       0.21474014      -0.50059962      -0.47539657      -8.72458900
Si       8.69235100       9.50130991       6.58382241       0.65529552      -1.59363846      -0.46256552      -1.65655163       0.50197469       1.00053004      -8.68978564
Si       4.77452401       0.58611807       0.56254438      -2.01953939      -0.34881176      -0.50875444      -0.04836715       0.27666982      -0.75713606      -8.67135920
Si       6.85903295       1.66886980       3.54744523      -0.02499367      -0.17909507      -0.69466419      -0.67834502       0.39564164       0.23916259      -8.74803313
Si       8.59486989       2.78227750       6.69029315       1.18503420      -0.01249219       0.42335606       0.81528329      -0.06964233       0.67629610      -8.73409158
Si       6.73452744       3.87671433       0.38184833       1.08438265      -0.56558850       0.99426427      -0.18765652       0.06651043       0.21215921      -8.76144266
Si       8.80100884       4.85978384       3.60329235      -1.33669509      -0.98354925       0.80792968      -0.68208912       1.08542751      -0.86963964      -8.68355512
Si      10.50316579       6.21991329       6.78002258       0.19441149       1.51983982      -1.01555156       0.54486427      -1.37378118      -0.52452891      -8.69099805
Si       8.65331340       7.12189121       0.45197464       0.44281534       0.58831105      -0.81072488       0.06190999       0.68795215      -0.28328227      -8.76553459
Si      10.64536234       8.34285269       3.62306137       0.53663315      -0.69315084      -0.30700323       0.10601427       0.28762474      -0.10027856      -8.71303555
Si      12.46408309       9.40427715       6.64225896      -0.74128997       0.58930799       0.28931483       0.86804501      -0.02344716       0.32045973      -8.69588660
Si       8.67461511       0.61952755       0.41508605      -0.10660493       0.01655936      -0.80465401       0.03497802       0.48368163       0.17754189      -8.73548750
Si      10.62659353       1.78377964       3.53193334       0.14127011       0.09136109       0.85194264       0.75640167      -1.39412787       0.65368609      -8.71959816
Si      12.40489445       2.85932477       6.77671110      -0.08115162       0.32563584      -1.17831799       0.33419191      -0.36064084      -0.80436133      -8.74583378
Si      10.57276458       3.89388766       0.38280288      -0.42511211       0.51289681       1.36135073      -0.24480673      -0.00018576      -0.31274595      -8.68548277
Si      12.43588335       5.12605409       3.55452815      -1.25259508      -0.26349626       0.48413225       1.11993725      -1.05537652       0.10434648      -8.66160661
Si      14.43906980       6.21435821       6.59406478       0.21429930       0.86433227       0.11020231       0.12453313      -1.38370428       0.19961612      -8.75814480
Si      12.43496485       7.29765537       0.46566558       0.06137728      -0.21979306      -0.86870462       0.65648397      -0.03677174      -1.11714746      -8.72354399
Si      14.52294973       8.22510973       3.42702627      -0.56878587       0.03304204       1.17692072       0.65015417       1.46123611       0.65406024      -8.61740541
Si      16.43758539       9.41469660       6.64768114      -0.50431273       0.39076709       0.86775349      -0.75619704       0.17304732      -0.14272425      -8.75210617
P        0.95317340       0.46437869       0.38205984      -0.90214828       0.91791855      -1.85510912      -0.55749066       0.48340289       0.44470066      -9.79199874
54
Lattice="11.5478352 0.0 0.0 5.773917198490155 10.000722372470358 0.0 5.773916394327279 3.333571176804646 9.428767828939895" Properties=species:S:1:pos:R:3:momenta:R:3:forces:R:3:energies:R:1 spacegroup="_JSON {\"number\": 1, \"setting\": 1}" unit_cell=conventional occupancy="_JSON {\"0\": {\"Si\": 1.0}, \"1\": {\"Si\": 1.0}, \"2\": {\"Si\": 1.0}, \"3\": {\"Si\": 1.0}, \"4\": {\"Si\": 1.0}, \"5\": {\"Si\": 1.0}, \"6\": {\"Si\": 1.0}, \"7\": {\"Si\": 1.0}, \"8\": {\"Si\": 1.0}, \"9\": {\"Si\": 1.0}, \"10\": {\"Si\": 1.0}, \"11\": {\"Si\": 1.0}, \"12\": {\"Si\": 1.0}, \"13\": {\"Si\": 1.0}, \"14\": {\"Si\": 1.0}, \"15\": {\"Si\": 1.0}, \"16\": {\"Si\": 1.0}, \"17\": {\"Si\": 1.0}, \"18\": {\"Si\": 1.0}, \"19\": {\"Si\": 1.0}, \"20\": {\"Si\": 1.0}, \"21\": {\"Si\": 1.0}, \"22\": {\"Si\": 1.0}, \"23\": {\"Si\": 1.0}, \"24\": {\"Si\": 1.0}, \"25\": {\"Si\": 1.0}, \"26\": {\"Si\": 1.0}, \"27\": {\"Si\": 1.0}, \"28\": {\"Si\": 1.0}, \"29\": {\"Si\": 1.0}, \"30\": {\"Si\": 1.0}, \"31\": {\"Si\": 1.0}, \"32\": {\"Si\": 1.0}, \"33\": {\"Si\": 1.0}, \"34\": {\"Si\": 1.0}, \"35\": {\"Si\": 1.0}, \"36\": {\"Si\": 1.0}, \"37\": {\"Si\": 1.0}, \"38\": {\"Si\": 1.0}, \"39\": {\"Si\": 1.0}, \"40\": {\"Si\": 1.0}, \"41\": {\"Si\": 1.0}, \"42\": {\"Si\": 1.0}, \"43\": {\"Si\": 1.0}, \"44\": {\"Si\": 1.0}, \"45\": {\"Si\": 1.0}, \"46\": {\"Si\": 1.0}, \"47\": {\"Si\": 1.0}, \"48\": {\"Si\": 1.0}, \"49\": {\"Si\": 1.0}, \"50\": {\"Si\": 1.0}, \"51\": {\"Si\": 1.0}, \"52\": {\"Si\": 1.0}, \"53\": {\"P\": 1.0}}" energy=-471.41041544615587 stress="-0.0007932431438725586 0.0015069009804105768 0.00123892205990705 0.0015069009804105768 -0.002195431140994448 0.0006458546400599489 0.00123892205990705 0.0006458546400599489 -8.328802388831309e-05" free_energy=-471.41041544615587 pbc="T T T"
Si       6.83039758       3.87568896       2.74613574       0.55915716      -0.48988682       0.01142684      -0.21439552      -0.42416129       0.02199161      -8.76289036
Si       8.66984841       4.98519308       5.89374120       0.15371344       0.20484317       0.48548130       0.05528224       0.01629514       0.71358023      -8.72956853
Si      10.55253879       6.17178958       9.05290243       0.58285138      -0.49232232      -0.32741555      -0.11552977      -0.40723732       0.42595262      -8.70592874
Si       8.81187344       7.14593293       2.79810397      -0.59236199      -0.94791192       0.34014182      -0.90636346      -0.01065117      -0.14087691      -8.63976964
Si      10.54687397       8.33925881       5.89674561       1.54752308       0.06898929      -1.64276131       0.41303084       0.61203114       0.00982882      -8.75602647
Si      12.52754405       9.37194750       9.05127138      -0.25436052      -0.54785391       0.03133827       0.12936005       0.21981706      -0.40088944      -8.73372417
Si      10.63359557      10.54794362       2.92916583       0.12007043      -1.23353628      -0.51373373       0.40961742      -0.20008371      -1.18926530      -8.71453794
Si      12.56251824      11.65509967       5.91351919      -0.93263717       0.83960894       0.43451268      -0.49109341       0.25249386      -0.09268376      -8.73107546
Si      14.43421223      12.75395187       9.05959778       0.64369278       0.46774561      -0.86604537      -0.53634425      -0.09318389       0.22407291      -8.59195646
Si      10.62439580       3.87029993       2.74883949      -1.43476831       1.09468708       0.69451597      -0.05450615       0.26101709       0.20756249      -8.76893620
Si      12.45108756       5.11088004       5.92617942      -1.20895787       1.21220335      -0.32837996       0.10775114      -0.20679288      -0.01704278      -8.74706325
Si      14.45875829       6.11021072       8.93334109       1.20841498      -0.50983133       0.69882699      -0.04433556       0.44762040       0.52720248      -8.74379983
Si      12.53887466       7.30703083       2.75896269      -0.46932794      -0.26344667       0.11794356       0.29767821      -0.81262376      -0.30441582      -8.75287539
Si      14.41387655       8.36727101       5.85805086      -0.72615552       1.50829271       0.42210148       0.30808882       0.44334495       0.02110736      -8.75133031
Si      16.34543496       9.53242580       9.05448065      -0.06915663       0.11743350       0.80103871       0.45202767      -0.94955306      -0.47216769      -8.73727020
Si      14.45684793      10.63917212       2.77763677      -1.41976242      -1.65522773      -0.87594416       1.02963626      -1.09003014      -0.45898972      -8.67150172
Si      16.33510341      11.61559397       5.86584931       0.48373378      -0.11491015       0.06678193       0.38186114       0.61365192       0.97515701      -8.74167924
Si      18.22956800      12.84634211       9.11378831      -1.51457029      -0.73118574       0.25569461      -0.19771278       0.15203595      -0.59112882      -8.71443936
Si      14.41390108       3.84960334       2.74508815       0.87884101       0.78697292       0.99065959       0.11964289       0.70101149      -0.00441355      -8.62920228
Si      16.33073911       5.01809195       5.81197683      -0.93118107      -0.94253569      -0.06939142      -0.48489512      -0.84876674      -0.18642808      -8.72916110
Si      18.17917685       6.04108466       9.02581506      -1.17284692      -0.12974303      -0.66054983       0.18521079       0.36229418      -0.78596321      -8.54357481
Si      16.40803802       7.16777727       2.61411681      -0.52013379       1.73278728       0.31336060       0.29303510       0.30666225       0.86951386      -8.74722616
Si      18.29440921       8.23687675       5.85684556      -0.30400483      -0.93888478       0.46464943      -0.13479337       0.84927166      -0.05556929      -8.72504959
Si      20.10636777       9.49002410       8.98778481      -0.28389951       0.52180487      -0.65471347       0.53774962      -0.44159714      -0.16200531      -8.67866008
Si      18.26846645      10.52140148       2.76410667       0.25609741       0.37856865      -0.89130267       0.95506352       0.69660109      -0.37311674      -8.45545295
Si      20.09897195      11.66634411       5.90354881       0.45605575      -1.41933678       1.72076061       0.48913294       0.46395631       0.46526077      -8.72053887
Si      22.14430170      12.72562019       9.07977904       1.70028975       0.12889483       0.14412019      -0.54370816       0.58623154      -0.75781224      -8.61165866
Si       3.00546211       1.64842895       3.59346549       0.91378989       0.23417529       0.97040961      -1.71970035       0.32773691      -0.36057771      -8.72756338
Si       4.81075896       2.75398090       6.69367786       0.95306983       2.01376411      -0.57575054      -0.23660208       0.23189454      -0.32278683      -8.65810211
Si       2.77896960       3.85871025       0.33364414       1.45093299       1.49379467       1.21156839       0.33691237       0.36822887       0.63532230      -8.73777762
Si       4.93805181       4.97648469       3.44749185       0.11548588      -0.24453644      -0.54680916      -1.38096129      -0.07651160       0.14838041      -8.71678600
Si       6.66472411       6.02276140       6.56490058       1.35681585      -0.27741512      -0.63240362       0.69360462       0.19266200       1.14233690      -8.72056382
Si       4.84474533       7.18752864       0.31176290       0.11284185      -1.97958245       0.12104619      -0.53582033      -0.51538354       0.10798886      -8.74633094
Si       6.79305754       8.32540446       3.47720568       0.58997602       0.02598362      -0.82098782      -0.11224360      -1.01101522      -0.01127683      -8.71267816
Si       8.66209084       9.43571695       6.59806734      -1.61939016      -1.01295753       0.92304481      -0.92289937       0.11578424       0.66268771      -8.73814234
Si       4.68019292       0.58337759       0.51619849      -1.30217515       0.30997171      -1.04369985       1.01511805       0.52332212       0.08079942      -8.67426786
Si       6.82292890       1.67718569       3.52986605      -1.38882812       0.45678737       0.15600377      -0.78367531       0.21990968       0.73894237      -8.73823698
Si       8.68250782       2.77853352       6.72766638       1.94746291      -0.13735623       0.73804123      -0.00116906      -0.08766900      -0.35088885      -8.73491559
Si       6.78336001       3.84629657       0.43228579       0.76768161      -0.64542581       0.71732334      -0.22801284      -0.12966711      -0.60779533      -8.73730533
Si       8.71517686       4.85313398       3.60808523      -1.70177919       0.76357912      -0.57675638       0.23688475       1.19517871      -0.66109374      -8.71335632
Si      10.53050123       6.23857986       6.71350492       0.73285852      -0.81391825      -1.35216924       0.07853465      -1.34898896       0.13472611      -8.72580717
Si       8.66899557       7.17940311       0.40890330      -0.01973135       1.53955665      -0.63115729      -0.59707662       0.41251651       0.49117779      -8.74216426
Si      10.67240484       8.31891533       3.60265811       0.35469179      -0.23587919      -0.50663905      -0.42764026       0.21401176      -0.24139664      -8.74244720
Si      12.45693669       9.43296266       6.66999620       0.38833806       0.49966420       0.73589346       0.54149273      -0.03540932       0.19069532      -8.71572970
Si       8.67247621       0.62696620       0.38357927       0.04125062       0.00334703      -0.34521078       0.09895730      -0.53736559       0.37414290      -8.72532988
Si      10.64894502       1.73373599       3.58492230       0.40970699      -1.84751506       0.77795359      -0.41601860      -0.81986781      -0.83644493      -8.73691479
Si      12.41185881       2.86099445       6.69589611       0.31672357      -0.24104992      -1.63096044       0.21629711      -0.27505154       0.25869729      -8.70617625
Si      10.54303485       3.92032579       0.43625408      -0.64147967       0.47627054       0.58415140       0.02270275      -0.07216152      -0.65800281      -8.68428041
Si      12.41745974       5.07964443       3.57830702       0.57973994      -1.29705937       0.30858701       1.21147601      -0.23831683      -0.33679309      -8.68273918
Si      14.45150082       6.20523354       6.60530093       0.16541216      -1.06572664       0.26155157      -0.24518880      -0.81527235      -0.01216813      -8.74893329
Si      12.46127905       7.28865041       0.39354091       0.85130423      -0.07316055      -1.51136715       0.28982724       0.15839252       0.31851117      -8.77872356
Si      14.51398437       8.28141738       3.50644325       0.06379392       1.98430070       1.63722395       0.03004570       0.92665561      -0.17979140      -8.68797599
Si      16.38849340       9.43333840       6.68654252      -1.20754514       0.17746703       0.60319337      -0.12169150      -0.37761624      -0.18364802      -8.72363676
P        0.90167609       0.51911104       0.31699509      -0.98726405       1.24670148      -0.73519746       0.51635559      -0.04565180       1.00979426      -9.81863278
54
Lattice="11.5478352 0.0 0.0 5.773917198490155 10.000722372470358 0.0 5.773916394327279 3.333571176804646 9.428767828939895" Properties=species:S:1:pos:R:3:momenta:R:3:forces:R:3:energies:R:1 spacegroup="_JSON {\"number\": 1, \"setting\": 1}" unit_cell=conventional occupancy="_JSON {\"0\": {\"Si\": 1.0}, \"1\": {\"Si\": 1.0}, \"2\": {\"Si\": 1.0}, \"3\": {\"Si\": 1.0}, \"4\": {\"Si\": 1.0}, \"5\": {\"Si\": 1.0}, \"6\": {\"Si\": 1.0}, \"7\": {\"Si\": 1.0}, \"8\": {\"Si\": 1.0}, \"9\": {\"Si\": 1.0}, \"10\": {\"Si\": 1.0}, \"11\": {\"Si\": 1.0}, \"12\": {\"Si\": 1.0}, \"13\": {\"Si\": 1.0}, \"14\": {\"Si\": 1.0}, \"15\": {\"Si\": 1.0}, \"16\": {\"Si\": 1.0}, \"17\": {\"Si\": 1.0}, \"18\": {\"Si\": 1.0}, \"19\": {\"Si\": 1.0}, \"20\": {\"Si\": 1.0}, \"21\": {\"Si\": 1.0}, \"22\": {\"Si\": 1.0}, \"23\": {\"Si\": 1.0}, \"24\": {\"Si\": 1.0}, \"25\": {\"Si\": 1.0}, \"26\": {\"Si\": 1.0}, \"27\": {\"Si\": 1.0}, \"28\": {\"Si\": 1.0}, \"29\": {\"Si\": 1.0}, \"30\": {\"Si\": 1.0}, \"31\": {\"Si\": 1.0}, \"32\": {\"Si\": 1.0}, \"33\": {\"Si\": 1.0}, \"34\": {\"Si\": 1.0}, \"35\": {\"Si\": 1.0}, \"36\": {\"Si\": 1.0}, \"37\": {\"Si\": 1.0}, \"38\": {\"Si\": 1.0}, \"39\": {\"Si\": 1.0}, \"40\": {\"Si\": 1.0}, \"41\": {\"Si\": 1.0}, \"42\": {\"Si\": 1.0}, \"43\": {\"Si\": 1.0}, \"44\": {\"Si\": 1.0}, \"45\": {\"Si\": 1.0}, \"46\": {\"Si\": 1.0}, \"47\": {\"Si\": 1.0}, \"48\": {\"Si\": 1.0}, \"49\": {\"Si\": 1.0}, \"50\": {\"Si\": 1.0}, \"51\": {\"Si\": 1.0}, \"52\": {\"Si\": 1.0}, \"53\": {\"P\": 1.0}}" energy=-471.2734628163222 stress="-0.0006518593804583239 0.0014376200924292547 0.001406157845345294 0.0014376200924292547 -0.001913324656244883 0.0001111258915657102 0.001406157845345294 0.0001111258915657102 0.0003626325113723147" free_energy=-471.2734628163222 pbc="T T T"
Si       6.83855865       3.83838181       2.74569644      -0.45340902      -0.79135822      -0.06234163      -0.98727344       0.12675179      -0.10457729      -8.76214783
Si       8.68493109       4.98926524       5.93394548       0.48554785      -0.17320107       0.77020987       0.28378536      -0.44853056      -0.35591658      -8.72522824
Si      10.57825552       6.13833085       9.04822355       0.38723832      -0.60420014       0.06141226      -0.15748138       0.29763734       0.07825471      -8.71902455
Si       8.75219609       7.10774193       2.80355022      -1.51167808      -0.25656960      -0.25802537      -0.22530368       0.96131622      -0.62855794      -8.67830383
Si      10.62681191       8.36354624       5.82957405       1.18839896       0.72543742      -0.60422552      -0.80762991       0.11755027       1.19607168      -8.69228895
Si      12.52558033       9.34956935       9.04364815       0.25493606      -0.33333077      -0.17980701       0.41304896       0.11489806       0.15677653      -8.74039890
Si      10.64445615      10.48918566       2.85776951       0.04471871      -0.72535753      -2.09108933      -0.53247821       0.86425384      -0.71023832      -8.72706790
Si      12.50920998      11.70783074       5.93368084      -0.82702186       1.10391496       0.35607594       0.57441392      -0.00737274      -0.00762512      -8.70054335
Si      14.43957818      12.77900829       9.02799002      -0.51170392       0.59240953      -0.25417809      -0.81351739       0.31252537       0.54211062      -8.56646408
Si      10.55465159       3.91941523       2.79446375      -1.04774320       0.48317821       1.00172519       0.62009252      -0.89307308       0.04838906      -8.72234478
Si      12.40883587       5.14964702       5.90646218      -0.08206670      -0.04456170      -0.47781658       1.31112772      -1.38264075      -0.21213823      -8.73292743
Si      14.51304158       6.10084055       8.98398685       0.71785989       0.07950837       1.08264286      -0.59591627       0.15394700      -0.05905206      -8.76095969
Si      12.53876280       7.26211860       2.75103817       0.62539030      -1.36962019      -0.41694285       0.90929466      -0.49137578      -0.29159055      -8.68176719
Si      14.39140734       8.44429383       5.88754205      -0.08516784       1.06865079       0.76646698       0.46867992      -0.95611512       0.26680950      -8.74909074
Si      16.35526816       9.50720460       9.07649547       0.33152066      -0.90371660       0.04697876       0.02187957      -0.26082788      -0.43611946      -8.74456606
Si      14.41863888      10.53326711       2.72488636      -0.17981188      -1.86373637      -0.93467983       0.48887466       0.93300768       0.30769070      -8.71951008
Si      16.37653561      11.62541253       5.90241353       1.09153368       0.29795641       1.12448836       0.35100231      -0.13439679       0.18148701      -8.77655087
Si      18.15135525      12.82277700       9.09514711      -1.27200708      -0.04113093      -1.07662802       0.56727439       0.62792109      -1.00953321      -8.65608008
Si      14.46238530       3.90761987       2.79487062       0.88443707       1.18042245       0.84954815      -0.21783958      -0.26707435      -0.23451207      -8.74951273
Si      16.28180092       4.95396310       5.79703403      -0.61250191      -1.09612193      -0.56159374       0.75100177       0.73310803      -0.41090273      -8.73454146
Si      18.13803872       6.05984271       8.97064133      -0.18522171       0.98843065      -1.19192094       1.00941023       0.91738384       0.21206856      -8.48804295
Si      16.39119900       7.25898847       2.66228199      -0.18281524       1.52066230       1.41435336       0.05133381      -0.56864457       0.43989300      -8.72101578
Si      18.26592554       8.22420565       5.87174043      -0.90227359       0.43432926      -0.01332268      -0.59116698       0.75295637      -0.50492811      -8.70281180
Si      20.11649543       9.49564924       8.95457273       0.68934836      -0.36129757      -0.43123536       0.59538207      -0.64165519       0.53303769      -8.75354450
Si      18.32003266      10.56283012       2.70842057       1.64084315       1.03497898      -1.09680130       0.65807502       0.05591588       0.15876905      -8.51287430
Si      20.14262332      11.61660170       6.00093750       1.17992535      -0.39256456       1.76960381       0.37090355       0.77524984      -0.40466718      -8.69393147
Si      22.20150467      12.74215910       9.05779615       0.33159705       0.27043688      -0.93051665      -1.10020455      -0.30351549      -0.53315492      -8.55516985
Si       2.99352282       1.66860252       3.63004126      -1.13153962       0.43006118       0.40635164      -0.79070601      -0.06497003      -0.41513253      -8.70168386
Si       4.84365586       2.85213963       6.66336534       0.17681418       1.38046896      -0.34279400      -0.71206111      -1.11277557       0.59240512      -8.71003002
Si       2.85480369       3.93896397       0.41113531       1.22376696       1.33103096       1.51926494      -0.51716428      -0.56057374      -0.24368386      -8.65159575
Si       4.89820512       4.97054902       3.42785904      -1.38993119       0.18792105      -0.14041645      -0.40804921       0.59414287       0.38464794      -8.70058303
Si       6.73879246       6.00945366       6.57456646       1.02413210      -0.28929434       0.90676194      -1.00962291      -0.03903652       0.74946542      -8.73208734
Si       4.82873514       7.08533190       0.32155084      -0.68017234      -1.51385367       0.26602059      -0.34735899       1.05059239       0.15653528      -8.72423028
Si       6.81757590       8.29694187       3.43985646       0.30733083      -0.84583595      -0.48965220      -0.26197374       0.02747449       0.43546889      -8.71762143
Si       8.56549681       9.38051944       6.65915686      -1.60377968      -1.13682589       1.12585786       0.87300891      -0.06380543      -0.43227637      -8.73441645
Si       4.65631075       0.61611088       0.47172638       0.40918733       0.80848665      -0.56548833       1.06584949       0.01412236       0.40849068      -8.72025579
Si       6.73628160       1.69600321       3.56245238      -1.56639599      -0.01025641       0.95892651       0.54783626      -0.80856025       0.23842913      -8.73134188
Si       8.77009196       2.76931716       6.74168707       1.11454891      -0.17795535      -0.34887565      -1.07333297       0.04601559      -0.90133838      -8.69599711
Si       6.81536585       3.80754907       0.44047495       0.44968510      -0.80069554      -0.46258622      -0.23823120      -0.00718124      -0.81759513      -8.72243121
Si       8.64237399       4.93319544       3.56910719      -0.98537109       2.06762439      -0.58200500       0.57429489       0.29527130       0.59672646      -8.74556614
Si      10.56204717       6.16676027       6.65594200       0.28872374      -1.42516625      -0.68324689      -0.58979837       0.56773909       0.74623408      -8.73223828
Si       8.64630867       7.26402169       0.39823733      -0.75253851       1.40648100       0.24374936      -0.24514345      -0.66743519       0.56069942      -8.69947822
Si      10.66948735       8.30730098       3.56187880      -0.50524039      -0.36155049      -1.11698189      -0.56851285      -0.37330062      -0.48735976      -8.75929601
Si      12.48937273       9.46210763       6.71118144       0.67173429       0.70236243       0.72935408      -0.14715830       0.31086051      -0.21705762      -8.75414992
Si       8.67626446       0.59797003       0.37681029       0.05083961      -1.18547841      -0.00788660      -0.10634818      -0.82400312      -0.00109815      -8.69042622
Si      10.64417230       1.62183464       3.58415462      -0.71465171      -2.10805563      -0.84945472      -0.87708066       0.40698966      -1.00175406      -8.68949331
Si      12.43748133       2.84429006       6.63113509       0.69056769      -0.26049635      -0.65602414       0.33191094       0.24716050       0.96298003      -8.66805137
Si      10.51607944       3.94155736       0.44526189      -0.26293986       0.30998009      -0.11902037       0.49863358      -0.16443843      -0.17984939      -8.72271545
Si      12.48620702       5.01242031       3.57895840       1.80853148      -1.09361145      -0.30131626       0.28596803       0.43757534      -0.40136389      -8.73179458
Si      14.44579635       6.13694521       6.61837964      -0.44031232      -1.19041252       0.26100924      -0.44891875       0.54106000       0.07337484      -8.69809212
Si      12.50883172       7.28892968       0.33894918       0.80612653       0.03036173      -0.40344048      -0.31058318      -0.04455884       0.96229744      -8.76896119
Si      14.50848468       8.40284267       3.57532477      -0.41546229       2.19989495       0.85212871      -0.52367299      -0.82606845      -0.69297070      -8.73210543
Si      16.32950503       9.42821799       6.71301810      -0.85832668      -0.32272523       0.44406032       0.59431109      -0.18259184      -0.03544674      -8.72035165
P        0.88198927       0.57441707       0.31746656       0.28479951       1.04399106       0.69332337       0.98713492      -0.18890517       0.74132749      -9.85175940
54
Lattice="11.5478352 0.0 0.0 5.773917198490155 10.000722372470358 0.0 5.773916394327279 3.333571176804646 9.428767828939895" Properties=species:S:1:pos:R:3:momenta:R:3:forces:R:3:energies:R:1 spacegroup="_JSON {\"number\": 1, \"setting\": 1}" unit_cell=conventional occupancy="_JSON {\"0\": {\"Si\": 1.0}, \"1\": {\"Si\": 1.0}, \"2\": {\"Si\": 1.0}, \"3\": {\"Si\": 1.0}, \"4\": {\"Si\": 1.0}, \"5\": {\"Si\": 1.0}, \"6\": {\"Si\": 1.0}, \"7\": {\"Si\": 1.0}, \"8\": {\"Si\": 1.0}, \"9\": {\"Si\": 1.0}, \"10\": {\"Si\": 1.0}, \"11\": {\"Si\": 1.0}, \"12\": {\"Si\": 1.0}, \"13\": {\"Si\": 1.0}, \"14\": {\"Si\": 1.0}, \"15\": {\"Si\": 1.0}, \"16\": {\"Si\": 1.0}, \"17\": {\"Si\": 1.0}, \"18\": {\"Si\": 1.0}, \"19\": {\"Si\": 1.0}, \"20\": {\"Si\": 1.0}, \"21\": {\"Si\": 1.0}, \"22\": {\"Si\": 1.0}, \"23\": {\"Si\": 1.0}, \"24\": {\"Si\": 1.0}, \"25\": {\"Si\": 1.0}, \"26\": {\"Si\": 1.0}, \"27\": {\"Si\": 1.0}, \"28\": {\"Si\": 1.0}, \"29\": {\"Si\": 1.0}, \"30\": {\"Si\": 1.0}, \"31\": {\"Si\": 1.0}, \"32\": {\"Si\": 1.0}, \"33\": {\"Si\": 1.0}, \"34\": {\"Si\": 1.0}, \"35\": {\"Si\": 1.0}, \"36\": {\"Si\": 1.0}, \"37\": {\"Si\": 1.0}, \"38\": {\"Si\": 1.0}, \"39\": {\"Si\": 1.0}, \"40\": {\"Si\": 1.0}, \"41\": {\"Si\": 1.0}, \"42\": {\"Si\": 1.0}, \"43\": {\"Si\": 1.0}, \"44\": {\"Si\": 1.0}, \"45\": {\"Si\": 1.0}, \"46\": {\"Si\": 1.0}, \"47\": {\"Si\": 1.0}, \"48\": {\"Si\": 1.0}, \"49\": {\"Si\": 1.0}, \"50\": {\"Si\": 1.0}, \"51\": {\"Si\": 1.0}, \"52\": {\"Si\": 1.0}, \"53\": {\"P\": 1.0}}" energy=-470.9461641043443 stress="-0.00035364687666514856 -0.0011498223600936903 -0.0008690298155393474 -0.0011498223600936903 8.32236562072778e-05 0.0007974262278678308 -0.0008690298155393474 0.0007974262278678308 -0.001036325215741141" free_energy=-470.9461641043443 pbc="T T T"
Si       6.77965873       3.80981323       2.73888589      -1.65782790      -0.17799222      -0.17066486      -0.46206816       0.58286385      -0.00119097      -8.73759799
Si       8.71529348       4.96535679       5.95240728       0.49999255      -0.61690702      -0.16027640      -0.36743583       0.02744554      -0.71784273      -8.74157649
Si      10.59166892       6.12566403       9.04997536       0.10081192       0.22543303      -0.06864268      -0.24534605       0.68847514      -0.20988898      -8.71962889
Si       8.67508469       7.13692212       2.76434827      -1.22163607       1.35191203      -1.19064788       0.57301217       0.85935965      -0.41929139      -8.73897796
Si      10.65148482       8.39764614       5.84035309      -0.31545787       0.43022548       0.83552538      -1.05543907      -0.44832412       0.50358852      -8.66067530
Si      12.54977988       9.33787797       9.04649305       0.52882879      -0.07123920       0.36894697      -0.12426659       0.26862292       0.46046923      -8.74036543
Si      10.62068400      10.48713919       2.73746484      -0.98287421       0.59735856      -2.09662094      -0.65732572       0.66996636       0.84937090      -8.72244369
Si      12.49342280      11.75951972       5.95318204       0.26036100       0.74959994       0.39284920       0.70032043      -0.46126687       0.00523789      -8.70715933
Si      14.38854206      12.82627283       9.03354852      -1.24311540       1.21761121       0.38652284      -0.05727915       0.32353253       0.22633511      -8.57357799
Si      10.52795921       3.90890678       2.84286820       0.06097437      -0.83543907       0.72833968       0.73274396      -0.69886253      -0.39899909      -8.66198542
Si      12.45233388       5.09433858       5.87341063       1.52647322      -1.91542338      -0.72757626       0.49693631      -0.79257631      -0.00531245      -8.76185927
Si      14.52644740       6.09945090       9.03195414      -0.17345132      -0.34611641       0.63601697      -0.45448135      -0.66441744      -0.48667559      -8.74711042
Si      12.59913869       7.18266108       2.72327038       1.45628669      -1.41577657      -0.52433490       0.04708888       0.45893458       0.16473043      -8.69894787
Si      14.40015525       8.45611309       5.93322467       0.28976241      -0.67890996       0.86235472      -0.02972437      -1.17855279      -0.16040341      -8.72693571
Si      16.36852689       9.46247678       9.06805999       0.10358387      -0.57350724      -0.23109630      -0.25713995       0.62413060       0.10840664      -8.71426526
Si      14.41697444      10.48989982       2.68926165      -0.09545283       0.39614403      -0.41637300      -0.35419832       1.60486765       0.35667590      -8.71572215
Si      16.44175479      11.62713250       5.95180591       1.24219925      -0.34084901       0.47203924      -0.24404154      -0.54231964      -0.93105398      -8.72835261
Si      18.11454095      12.83989061       9.00649882       0.00153109       0.53863236      -2.07261663       1.07309575       0.02696275      -0.08589544      -8.66972844
Si      14.49376906       3.94591361       2.82624560       0.21426463       0.05194173       0.26439650      -0.56825567      -1.13146031      -0.54211738      -8.75647769
Si      16.28014526       4.93842515       5.75690793       0.50406791       0.63316878      -0.76763325       0.57887447       1.21875037       0.38199769      -8.69248621
Si      18.16895236       6.14261484       8.93300505       1.34997989       2.02459900       0.06613624       0.94648835       0.35519075       1.39053174      -8.48384143
Si      16.37644725       7.31191784       2.74287984      -0.49802277       0.44795106       1.44589742      -0.39583900      -0.74934435      -0.39348027      -8.69453029
Si      18.19783448       8.26413926       5.85251485      -1.55895738       0.84718756      -0.65142824      -0.04864170      -0.18520026      -0.23212725      -8.69705153
Si      20.16657845       9.45592807       8.95858421       1.00653184      -1.03820059       0.62520626      -0.22726072      -0.18525993       0.67651917      -8.78327428
Si      18.41443546      10.60904480       2.66410503       1.55698245       0.53773230      -0.46444648      -0.90080890      -0.68232282       0.65347033      -8.54421624
Si      20.21219364      11.61927888       6.07121666       1.30696339       0.31516586       0.78876960      -0.28021898       0.07106917      -0.88058381      -8.65954549
Si      22.18353375      12.74183430       9.00012827      -0.82309663      -0.29397972      -0.99347171      -0.34916376      -0.35855898       0.53650524      -8.52112292
Si       2.92294559       1.68802589       3.63690781      -1.18062032       0.33353744      -0.08836910       0.69436579       0.01298635      -0.18920789      -8.65501687
Si       4.82744952       2.87510639       6.67039938      -0.69811547      -0.48383045       0.54251104      -0.31929066      -1.01021154       0.31570935      -8.75797097
Si       2.89712952       3.97960569       0.47350486       0.38556226       0.09227308       0.73224774      -0.53308681      -1.04637885      -0.73345010      -8.60802146
Si       4.82880744       5.00719821       3.43559855      -0.91560405       1.23055183       0.40456115       0.89225661       0.65190492       0.25009514      -8.70511791
Si       6.74875776       5.99658980       6.63606034      -0.61822529      -0.12260952       1.10597984      -0.91324939       0.26280793      -0.53132840      -8.70490804
Si       4.79148820       7.05466263       0.34442612      -0.48626014       0.43251844       0.65239974       0.62427464       1.38655710       0.33100515      -8.66923233
Si       6.82155865       8.27096356       3.43392660      -0.21012521       0.15946116       0.29812224      -0.47221321       1.20078615       0.55801541      -8.69067141
Si       8.52609208       9.32441352       6.69202149       0.21732554      -0.86815482       0.01300838       1.31145721       0.44831293      -0.86448886      -8.69626142
Si       4.70816950       0.65004507       0.45089443       1.32836487       0.34275071      -0.42219056       0.12881854      -0.52929672      -0.34464933      -8.76499944
Si       6.68299811       1.66128042       3.61238425      -0.38523922      -1.26655686       0.74521604       0.86110813      -0.61817649      -0.54173662      -8.69771686
Si       8.78312885       2.76174240       6.69502410      -0.60438959      -0.13489128      -1.23941422      -0.99933783      -0.04377561      -0.15762002      -8.71341918
Si       6.82812366       3.76940062       0.39184205      -0.00615395      -0.55569853      -1.19930014      -0.39773251       0.37548368      -0.06144875      -8.74635661
Si       8.60847048       5.03234663       3.56671888      -0.38988835       1.33384040       0.48801246       0.25700020      -1.14625148       0.57493967      -8.73287090
Si      10.56039041       6.12618602       6.64996658      -0.12924433      -0.01713610       0.41088353       0.24207883       0.98433463       0.56530225      -8.72242996
Si       8.60492825       7.30365031       0.42594999      -0.68545082       0.02665894       0.62927675       0.30624172      -0.95669637      -0.17040707      -8.68156813
Si      10.62804422       8.27248510       3.48865541      -0.90017816      -0.91093507      -1.53485963       0.11407804      -0.15647810       0.05498961      -8.74391473
Si      12.51463843       9.51294267       6.73788407       0.24592106       1.21795234       0.25016813      -0.33061094       0.22640645      -0.36128193      -8.76220767
Si       8.67170011       0.51255923       0.36933046      -0.28301720      -1.84607402      -0.39052038      -0.33052688       0.05369197      -0.43100899      -8.68106834
Si      10.58200100       1.53570914       3.51355287      -1.37678919      -1.01993114      -1.56097084       0.21451576       1.01866163       0.10361687      -8.64289683
Si      12.48936423       2.84268908       6.63343245       1.31298838       0.18817769       0.65614970       0.41359786       0.18738549       0.59597456      -8.73601254
Si      10.52463684       3.94963498       0.44085206       0.60218265      -0.04725101       0.09703046       0.53506688      -0.33607904       0.38815004      -8.74353096
Si      12.57647330       4.97354611       3.55092452       1.32748675      -0.39484129      -0.68782875      -0.90622279       0.40694773      -0.08800668      -8.73098153
Si      14.41166747       6.10189206       6.63731047      -0.68700692      -0.08185516       0.48977802       0.22126489       0.79146023       0.18317261      -8.67142802
Si      12.53710983       7.28671392       0.34928622       0.26210647      -0.13965993       0.62008667      -0.35294298      -0.14244320       0.26530876      -8.74460899
Si      14.46764997       8.46514417       3.59929145      -1.07872097      -0.11389498       0.19353458      -0.27691808      -1.89546859      -0.20362050      -8.70536484
Si      16.31236435       9.41060165       6.73607885       0.24749749      -0.22944351       0.43479143       0.73968029       0.27783980      -0.03906914      -8.76391906
P        0.92361059       0.61817487       0.36479429       1.26589083       0.81471912       1.02252422       0.20670120      -0.10601650      -0.31793117      -9.87421281
54
Lattice="11.5478352 0.0 0.0 5.773917198490155 10.000722372470358 0.0 5.773916394327279 3.333571176804646 9.428767828939895" Properties=species:S:1:pos:R:3:momenta:R:3:forces:R:3:energies:R:1 spacegroup="_JSON {\"number\": 1, \"setting\": 1}" unit_cell=conventional occupancy="_JSON {\"0\": {\"Si\": 1.0}, \"1\": {\"Si\": 1.0}, \"2\": {\"Si\": 1.0}, \"3\": {\"Si\": 1.0}, \"4\": {\"Si\": 1.0}, \"5\": {\"Si\": 1.0}, \"6\": {\"Si\": 1.0}, \"7\": {\"Si\": 1.0}, \"8\": {\"Si\": 1.0}, \"9\": {\"Si\": 1.0}, \"10\": {\"Si\": 1.0}, \"11\": {\"Si\": 1.0}, \"12\": {\"Si\": 1.0}, \"13\": {\"Si\": 1.0}, \"14\": {\"Si\": 1.0}, \"15\": {\"Si\": 1.0}, \"16\": {\"Si\": 1.0}, \"17\": {\"Si\": 1.0}, \"18\": {\"Si\": 1.0}, \"19\": {\"Si\": 1.0}, \"20\": {\"Si\": 1.0}, \"21\": {\"Si\": 1.0}, \"22\": {\"Si\": 1.0}, \"23\": {\"Si\": 1.0}, \"24\": {\"Si\": 1.0}, \"25\": {\"Si\": 1.0}, \"26\": {\"Si\": 1.0}, \"27\": {\"Si\": 1.0}, \"28\": {\"Si\": 1.0}, \"29\": {\"Si\": 1.0}, \"30\": {\"Si\": 1.0}, \"31\": {\"Si\": 1.0}, \"32\": {\"Si\": 1.0}, \"33\": {\"Si\": 1.0}, \"34\": {\"Si\": 1.0}, \"35\": {\"Si\": 1.0}, \"36\": {\"Si\": 1.0}, \"37\": {\"Si\": 1.0}, \"38\": {\"Si\": 1.0}, \"39\": {\"Si\": 1.0}, \"40\": {\"Si\": 1.0}, \"41\": {\"Si\": 1.0}, \"42\": {\"Si\": 1.0}, \"43\": {\"Si\": 1.0}, \"44\": {\"Si\": 1.0}, \"45\": {\"Si\": 1.0}, \"46\": {\"Si\": 1.0}, \"47\": {\"Si\": 1.0}, \"48\": {\"Si\": 1.0}, \"49\": {\"Si\": 1.0}, \"50\": {\"Si\": 1.0}, \"51\": {\"Si\": 1.0}, \"52\": {\"Si\": 1.0}, \"53\": {\"P\": 1.0}}" energy=-470.9461958853439 stress="0.0003724929039694472 -0.0021520117033004844 -0.001272533743575774 -0.0021520117033004844 0.0025849401173563646 -0.0002022233316391328 -0.001272533743575774 -0.0002022233316391328 -0.002620887034886791" free_energy=-470.9461958853439 pbc="T T T"
Si       6.68669129       3.82027115       2.73224992      -1.63474887       0.48393305      -0.04211508       0.52875422       0.22236376       0.15204479      -8.67094447
Si       8.72120258       4.94538374       5.92263813      -0.33308811       0.05503740      -0.79195290      -0.59563551       0.78945446      -0.00338714      -8.76927760
Si      10.58676080       6.15919785       9.03781985      -0.28553301       0.89748476      -0.38355850      -0.22430411       0.08013688      -0.16845734      -8.74026153
Si       8.63445097       7.22327219       2.70012315      -0.37292462       1.57316576      -0.93692852       0.39661182      -0.54963661       0.80192169      -8.78615663
Si      10.60322739       8.40123743       5.88813963      -1.25616321      -0.29559930       0.68989771       0.00816498      -0.45850010      -0.66338062      -8.69568241
Si      12.56529668       9.34644800       9.07935233      -0.06233766       0.42530616       0.75380323      -0.60990392       0.37138116      -0.04436921      -8.73511732
Si      10.55098678      10.53257765       2.67555053      -1.48393377       0.89717237      -0.09881090       0.10058619      -0.26389584       1.45556363      -8.71462442
Si      12.52447028      11.77836100       5.97001630       0.68361057      -0.06687548       0.13327168      -0.23113304      -0.59793515      -0.44417524      -8.75342252
Si      14.33386986      12.89200791       9.05460214      -0.59148331       1.03523726       0.24851464       0.90880649      -0.65153568      -0.42861454      -8.53013883
Si      10.55320297       3.84864603       2.86348615       0.75166075      -1.22344568       0.03564326       0.14098570       0.24195324      -0.48222434      -8.67244510
Si      12.53494080       4.98376129       5.83993981       1.35924105      -1.86895028      -0.46406936      -0.53991013       0.88841356       0.32542480      -8.72823776
Si      14.50822767       6.05340158       9.04654324      -0.36342190      -1.36947751      -0.04750906       0.14969237      -0.49751010      -0.35520837      -8.72922670
Si      12.66244447       7.13346533       2.70567379       0.66109156      -0.37264705      -0.11197906      -1.11382986       0.78915961       0.29307889      -8.73353050
Si      14.40836957       8.38558352       5.96971059      -0.05516415      -1.72143465       0.49645397      -0.33634413      -0.03737897      -0.29376239      -8.74200169
Si      16.36428295       9.45867469       9.06753957      -0.24596160       0.40215783       0.32829192      -0.17904824       0.51663178       0.55115367      -8.71031891
Si      14.39075756      10.55054852       2.68082728      -0.97546208       1.39847854       0.07173381      -0.59264073      -0.37845502       0.25121485      -8.75642536
Si      16.48997018      11.59490402       5.93751315       0.47507914      -0.70285855      -1.00952820      -0.71222929       0.17073636      -0.89599485      -8.64627303
Si      18.15458260      12.85907796       8.91531308       1.42815967       0.01078216      -0.98882729       0.67612831      -0.68878765       1.49682255      -8.67509018
Si      14.48928344       3.90794491       2.81953604      -0.22671860      -1.32043577      -0.47550868       0.02541673      -0.42260712      -0.36550629      -8.74317201
Si      16.31932769       5.00585158       5.74770825       0.77104472       1.63603574       0.66620152      -0.28477379       0.04291849       1.31353098      -8.69729373
Si      18.26969795       6.25193215       8.98970023       2.29242277       1.89735148       1.92192456       0.12995188      -0.62212480       0.69850019      -8.55107543
Si      16.33665841       7.31359470       2.79716194      -0.92778886      -0.19613832       0.52434309      -0.04239564      -0.01059965      -0.77794692      -8.71482589
Si      18.13038885       8.29445666       5.81770860      -0.68703841       0.21439819      -0.49990629       1.19943444      -0.55175144       0.45543852      -8.68103274
Si      20.20434492       9.40278093       9.00863273       0.37736540      -0.81181722       1.08497879      -0.44520225       0.50152071      -0.08817278      -8.76287380
Si      18.44598075      10.60858339       2.66631396      -0.54278757      -0.51718619       0.54225901      -1.60974362      -0.50662721       0.61964836      -8.54446527
Si      20.26165815      11.62751536       6.07614876       0.44804007      -0.18470193      -0.63298507      -0.76839130      -0.63473495      -0.99248155      -8.65043696
Si      22.13702760      12.71585785       8.97956692      -0.77475560      -0.60227762       0.34087408       0.34571914       0.02732891       1.02491593      -8.47592156
Si       2.89723909       1.70744816       3.62983038       0.27077703       0.38123251      -0.10126949       0.94752075      -0.10199059       0.12079947      -8.66770948
Si       4.79063697       2.82873463       6.69724059      -0.45280393      -0.93418295       0.24314910       0.64918688       0.34075224      -0.58541128      -8.74554308
Si       2.90184285       3.94462741       0.48486594      -0.07012783      -1.34308358      -0.22694600       0.02119843      -0.69165313      -0.43817894      -8.70691354
Si       4.81413869       5.08675011       3.46030790       0.22669678       1.52539607       0.43095722       0.40677623      -0.42528693      -0.14143254      -8.74870814
Si       6.69457167       6.00374854       6.66610340      -1.13996257       0.47227115       0.02382462       0.30696290       0.56442915      -0.58872923      -8.67556515
Si       4.79528015       7.12347478       0.39120378       0.64255217       1.96505293       1.09909722       0.66694613       0.47971511       0.20422361      -8.69442299
Si       6.78998360       8.32708092       3.46687402      -1.00165217       1.87799997       0.82804184      -0.49068246       0.78165888       0.04733530      -8.70303013
Si       8.57698797       9.30006954       6.66661639       1.41692735      -0.00277847      -0.78117089       0.10643456       0.66883738      -0.08105354      -8.72013541
Si       4.77367667       0.64961351       0.40528805       1.01873558      -0.27865658      -1.40963087      -0.46928850      -0.22031103      -0.67395178      -8.74825130
Si       6.68908868       1.58464582       3.62480024       0.42471003      -1.34940536      -0.32340259       0.09208516       0.57862723      -0.72938605      -8.69796766
Si       8.72729220       2.75162649       6.63580744      -1.18826235      -0.23425570      -0.80041128       0.31251514       0.03314881       0.69111014      -8.71218557
Si       6.81182045       3.75910289       0.33782765      -0.59157404       0.22752343      -0.65617205      -0.29191673       0.61556220       0.73311317      -8.75411918
Si       8.59595935       5.05679061       3.60036049      -0.11242037      -0.33934245       0.47210847       0.14825800      -0.91847607      -0.67238764      -8.69704780
Si      10.57271737       6.15199619       6.68387790       0.69026829       0.73200312       0.67666336       0.60325675      -0.06591771      -0.24317194      -8.70803487
Si       8.58461697       7.27767876       0.43926345      -0.03134822      -0.78779236      -0.34486823       0.52751303      -0.06220406      -1.00728394      -8.68548669
Si      10.59396721       8.22909536       3.41933059      -0.25400792      -0.53253088      -0.93023466       0.67219651       0.65754242       0.75089849      -8.62377996
Si      12.51648723       9.57603672       6.74004699      -0.14576377       0.94743623      -0.09038118      -0.21801107      -0.70748687      -0.06132619      -8.72973405
Si       8.64335860       0.42934652       0.33445352      -0.77443421      -1.11706327      -0.82418640      -0.22373184       0.87195868       0.02403522      -8.70280455
Si      10.53579550       1.52343974       3.44773867      -0.10815072       0.53204996      -0.74809128       1.25540243       0.90992022       0.87847340      -8.63616777
Si      12.56949884       2.84903381       6.67466283       1.60112113      -0.19006494       0.56355304      -0.14119746      -0.74511588      -0.75742583      -8.76858293
Si      10.57007303       3.93306507       0.46195063       0.96734682      -0.57750061       0.68448611      -0.09728400      -0.30096849       0.29592635      -8.74834883
Si      12.60418771       4.96225242       3.51506620      -0.32692932      -0.17433737      -0.61814811      -1.10937531      -0.13111430       0.15166377      -8.72496105
Si      14.39208323       6.12151479       6.66876022       0.04422516       0.64161122       0.66617907       0.62084906       0.04280486       0.01686478      -8.71238592
Si      12.53991736       7.27459024       0.37960459      -0.09789469      -0.30134913       0.32285601      -0.12539285      -0.05983925      -0.55724177      -8.69219155
Si      14.40683537       8.40133074       3.60387769      -1.09077773      -1.89478723       0.01393071       0.30809883      -0.25947632      -0.04785797      -8.73503758
Si      16.34514947       9.41056509       6.75485292       0.78286430       0.21245864       0.22787082      -0.10942794       0.21547431      -0.23824584      -8.79026730
P        0.97993602       0.65654606       0.39625427       0.87148082       0.86940048       0.24768307      -0.69365936       0.15949050      -0.52693651      -9.80654105
54
Lattice="11.5478352 0.0 0.0 5.773917198490155 10.000722372470358 0.0 5.773916394327279 3.333571176804646 9.428767828939895" Properties=species:S:1:pos:R:3:momenta:R:3:forces:R:3:energies:R:1 spacegroup="_JSON {\"number\": 1, \"setting\": 1}" unit_cell=conventional occupancy="_JSON {\"0\": {\"Si\": 1.0}, \"1\": {\"Si\": 1.0}, \"2\": {\"Si\": 1.0}, \"3\": {\"Si\": 1.0}, \"4\": {\"Si\": 1.0}, \"5\": {\"Si\": 1.0}, \"6\": {\"Si\": 1.0}, \"7\": {\"Si\": 1.0}, \"8\": {\"Si\": 1.0}, \"9\": {\"Si\": 1.0}, \"10\": {\"Si\": 1.0}, \"11\": {\"Si\": 1.0}, \"12\": {\"Si\": 1.0}, \"13\": {\"Si\": 1.0}, \"14\": {\"Si\": 1.0}, \"15\": {\"Si\": 1.0}, \"16\": {\"Si\": 1.0}, \"17\": {\"Si\": 1.0}, \"18\": {\"Si\": 1.0}, \"19\": {\"Si\": 1.0}, \"20\": {\"Si\": 1.0}, \"21\": {\"Si\": 1.0}, \"22\": {\"Si\": 1.0}, \"23\": {\"Si\": 1.0}, \"24\": {\"Si\": 1.0}, \"25\": {\"Si\": 1.0}, \"26\": {\"Si\": 1.0}, \"27\": {\"Si\": 1.0}, \"28\": {\"Si\": 1.0}, \"29\": {\"Si\": 1.0}, \"30\": {\"Si\": 1.0}, \"31\": {\"Si\": 1.0}, \"32\": {\"Si\": 1.0}, \"33\": {\"Si\": 1.0}, \"34\": {\"Si\": 1.0}, \"35\": {\"Si\": 1.0}, \"36\": {\"Si\": 1.0}, \"37\": {\"Si\": 1.0}, \"38\": {\"Si\": 1.0}, \"39\": {\"Si\": 1.0}, \"40\": {\"Si\": 1.0}, \"41\": {\"Si\": 1.0}, \"42\": {\"Si\": 1.0}, \"43\": {\"Si\": 1.0}, \"44\": {\"Si\": 1.0}, \"45\": {\"Si\": 1.0}, \"46\": {\"Si\": 1.0}, \"47\": {\"Si\": 1.0}, \"48\": {\"Si\": 1.0}, \"49\": {\"Si\": 1.0}, \"50\": {\"Si\": 1.0}, \"51\": {\"Si\": 1.0}, \"52\": {\"Si\": 1.0}, \"53\": {\"P\": 1.0}}" energy=-470.66632536626435 stress="-0.002288140454144456 -0.0005024579471055868 -0.00016785409379889288 -0.0005024579471055868 -0.0010217666820578897 0.00037743091876240225 -0.00016785409379889288 0.00037743091876240225 0.0005257179312343998" free_energy=-470.66632536626435 pbc="T T T"
Si       6.63069921       3.84776875       2.73573567      -0.35696899       0.44832539       0.15952672       1.07377241      -0.23087307       0.09382113      -8.65971628
Si       8.68535481       4.97908500       5.89109932      -0.91296473       1.16472266      -0.27008208      -0.11389930       0.53059854       0.52733541      -8.74709134
Si      10.56787385       6.19857382       9.01264694      -0.29746573       0.40630917      -0.55399369       0.32059849      -0.68914205      -0.08416089      -8.74841163
Si       8.62192638       7.27648393       2.68742359      -0.23662767       0.37030037       0.44044363      -0.11221027      -0.88939054       0.76014620      -8.74815347
Si      10.55642390       8.37076092       5.89006420      -0.22059258      -0.79708444      -0.71399738       1.17315024      -0.17319434      -1.02079440      -8.70371912
Si      12.53794144       9.38260987       9.10940075      -0.93742697       0.92567015       0.26107084      -0.42595426       0.25517937      -0.55073330      -8.73928522
Si      10.49009073      10.56081721       2.71074132      -0.58248566       0.03847131       1.05997696       1.08055601      -0.80870338      -0.01744705      -8.70596273
Si      12.54196300      11.75295010       5.95331898      -0.10874449      -0.85601262      -0.84971133      -0.57286989      -0.40856649      -0.73272155      -8.77235782
Si      14.34159995      12.91247173       9.04569826       0.86040091      -0.35311039      -0.63988100       0.79747518      -1.02356847      -0.61973473      -8.52626035
Si      10.58972057       3.80491600       2.84888413       0.47943295      -0.26260082      -0.53496635      -0.49581694       0.93388861      -0.25066220      -8.72334684
Si      12.58383859       4.93216289       5.82975277       0.50559753       0.01683607       0.10107615      -0.54444148       1.31597473       0.42095102      -8.68519461
Si      14.49622691       5.97463783       9.03592450      -0.11029276      -1.33989688      -0.23797086       0.09631685       0.65443527       0.11475277      -8.70114162
Si      12.64487591       7.13860858       2.70710803      -1.42820977       0.42640143       0.07943293      -1.45502009       0.23956192      -0.03623339      -8.74926437
Si      14.39411831       8.31208709       5.98461854      -0.43169124      -0.76216736       0.08155659      -0.11376231       1.18302466      -0.24464591      -8.71503948
Si      16.34732191       9.49032416       9.10306721      -0.32914686       0.59509738       0.89635996       0.10574271      -0.30509760       0.04023691      -8.73538458
Si      14.33088888      10.59149011       2.69028868      -0.95053879      -0.07817230       0.22060790       0.75470346      -1.32320150      -0.00198682      -8.67677281
Si      16.48756107      11.57384936       5.85887386      -0.53323992       0.03518621      -1.75674090      -0.57441502       0.69069498       0.03234290      -8.63979703
Si      18.24252823      12.82795830       8.92286844       1.62794468      -1.26061772       1.11110325      -0.48506200      -0.91751224       0.84867836      -8.71274386
Si      14.48244109       3.84101292       2.78587542      -0.00056174      -0.88708883      -0.69038603       0.16955540       0.90225197       0.10709970      -8.71209326
Si      16.33876850       5.07957570       5.82642909      -0.15893094       0.93425292       2.09433277      -0.74844153      -0.89632503       0.38716585      -8.71008158
Si      18.37410968       6.31405079       9.09386923       1.23397503       0.23088023       1.58708122      -1.59186305      -1.52504359      -1.08635735      -8.50781274
Si      16.29446062       7.31322368       2.79637634      -0.52981204       0.31667159      -0.46588172       0.54211209       0.49307345      -0.41072529      -8.73141731
Si      18.14633511       8.28834611       5.81566283       1.30225981      -0.30630144       0.51234040       1.21416119       0.01252136       0.79258755      -8.70370845
Si      20.21292152       9.38432034       9.05574604       0.08121446       0.15498004       0.61656881       0.06718743       0.67964542      -0.46354998      -8.66805539
Si      18.36670927      10.57757975       2.71272228      -2.15359753      -0.31313544       1.06264340      -0.32900828       0.84396121      -0.03283543      -8.56436459
Si      20.26095270      11.59439832       6.00743626      -0.29011420      -0.97513188      -1.88124963      -0.05328151      -0.23035267      -0.55713638      -8.71841403
Si      22.11343728      12.69533712       9.02754606      -0.07445035       0.04209091       1.23042949       0.54339058       0.88308614       0.02715955      -8.45859524
Si       2.93356395       1.71513239       3.62923542       0.77539469      -0.24248642       0.05094142      -0.36017609      -0.67489658       0.00031280      -8.71719106
Si       4.79599084       2.79923788       6.68854139       0.63804793      -0.14825191      -0.48363087       0.57478335       0.51728476      -0.24280414      -8.70727096
Si       2.91272384       3.86343589       0.46600365       0.75532051      -1.38429072      -0.29177903       1.02257551       0.72906281       0.32422742      -8.72603274
Si       4.82984841       5.13680083       3.48108858       0.17125431       0.19464178       0.47343395      -0.38233968      -1.13833702       0.27439720      -8.71915433
Si       6.66277830       6.05377825       6.65837992       0.18858331       1.45133887      -0.04702054       1.28794416       0.59403436       0.45686980      -8.65735379
Si       4.84543744       7.22703480       0.45337650       1.06505527       1.63086776       1.18679212      -0.13619235      -0.88348664      -0.13984905      -8.72510705
Si       6.72297357       8.43514476       3.50474958      -1.44301645       1.77642149       0.51763103      -0.05359276      -1.03147281      -0.32554078      -8.71526860
Si       8.63752917       9.32425279       6.63419404       0.61995836       0.84784867      -0.26043951      -0.91871795       0.34355074       0.67206272      -8.70956181
Si       4.80722016       0.63215538       0.31802826       0.25777454      -0.29525818      -1.61447604      -0.46675808       0.13281599       0.48862566      -8.70213270
Si       6.70011435       1.54932152       3.58670467      -0.26907970       0.21252834      -0.96632908      -0.90945130       1.38021287      -0.10728646      -8.70173581
Si       8.69006061       2.74726730       6.62324816      -0.07696893       0.19115799       0.30138702       0.89551157       0.49340422       0.59595973      -8.68586532
Si       6.77548739       3.79256301       0.33497053      -0.66895551       0.96828752       0.56042467       0.18942933       0.29993538       0.77458195      -8.73576983
Si       8.59519799       5.01236501       3.58814482       0.07563322      -1.17447038      -1.04361857       0.11571193      -0.19387107      -1.06167707      -8.66845353
Si      10.62581965       6.17554535       6.70097688       1.17787185      -0.02308054      -0.17206777      -0.01036443      -0.80013307      -0.81327085      -8.67686285
Si       8.60176162       7.24516034       0.38711394       0.60997842      -0.25881499      -1.42312205       0.21790354       0.69314871      -0.15496789      -8.72618460
Si      10.60525814       8.23148561       3.40431512       0.58744934       0.66324935       0.41450349       0.28076611       0.80249448       0.95811382      -8.62132613
Si      12.49993362       9.58702968       6.73636953      -0.50288018      -0.69036541      -0.01023411      -0.27807586      -1.31475934       0.08885751      -8.67792298
Si       8.60255597       0.40786980       0.30437695      -0.56816239       0.31881255      -0.07951126       0.59688855       0.93632064       0.95989973      -8.72875305
Si      10.57041700       1.57495198       3.44220114       1.13325369       1.17816348       0.47623983       0.11019718      -0.06488284       0.63549336      -8.72850079
Si      12.63808203       2.80394610       6.66785090       0.80509959      -1.54313887      -0.82064618      -0.95114781      -0.78231524      -0.75051783      -8.74718972
Si      10.61044461       3.89506116       0.50308648       0.46556176      -0.78293868       0.73164857      -0.51773675       0.04569074      -0.30497692      -8.70494949
Si      12.55387087       4.94383465       3.48900688      -1.35158543      -0.54750613      -0.36550859      -0.16474927      -0.19685445       0.19687890      -8.73879714
Si      14.41487292       6.14367083       6.70226362       0.71510928      -0.01188986       0.57385267       0.18517190      -0.76740118      -0.13204077      -8.75797896
Si      12.53273613       7.25741386       0.37489780      -0.12749742      -0.34246457      -0.43017108       0.06453549      -0.02195907      -0.27450511      -8.71484053
Si      14.36708129       8.31320822       3.60617074      -0.36162179      -1.12367042       0.12945562       0.53475346       1.07342837       0.15171263      -8.69702124
Si      16.37310564       9.42495602       6.75693820       0.16581472       0.23369018      -0.15083711      -0.56712662      -0.17900197      -0.24974612      -8.75993073
P        0.99385846       0.70276460       0.39509008      -0.28435540       0.98674338      -0.17660865      -0.68241923      -0.18893941      -0.06336292      -9.75098386
54
Lattice="11.5478352 0.0 0.0 5.773917198490155 10.000722372470358 0.0 5.773916394327279 3.333571176804646 9.428767828939895" Properties=species:S:1:pos:R:3:momenta:R:3:forces:R:3:energies:R:1 spacegroup="_JSON {\"number\": 1, \"setting\": 1}" unit_cell=conventional occupancy="_JSON {\"0\": {\"Si\": 1.0}, \"1\": {\"Si\": 1.0}, \"2\": {\"Si\": 1.0}, \"3\": {\"Si\": 1.0}, \"4\": {\"Si\": 1.0}, \"5\": {\"Si\": 1.0}, \"6\": {\"Si\": 1.0}, \"7\": {\"Si\": 1.0}, \"8\": {\"Si\": 1.0}, \"9\": {\"Si\": 1.0}, \"10\": {\"Si\": 1.0}, \"11\": {\"Si\": 1.0}, \"12\": {\"Si\": 1.0}, \"13\": {\"Si\": 1.0}, \"14\": {\"Si\": 1.0}, \"15\": {\"Si\": 1.0}, \"16\": {\"Si\": 1.0}, \"17\": {\"Si\": 1.0}, \"18\": {\"Si\": 1.0}, \"19\": {\"Si\": 1.0}, \"20\": {\"Si\": 1.0}, \"21\": {\"Si\": 1.0}, \"22\": {\"Si\": 1.0}, \"23\": {\"Si\": 1.0}, \"24\": {\"Si\": 1.0}, \"25\": {\"Si\": 1.0}, \"26\": {\"Si\": 1.0}, \"27\": {\"Si\": 1.0}, \"28\": {\"Si\": 1.0}, \"29\": {\"Si\": 1.0}, \"30\": {\"Si\": 1.0}, \"31\": {\"Si\": 1.0}, \"32\": {\"Si\": 1.0}, \"33\": {\"Si\": 1.0}, \"34\": {\"Si\": 1.0}, \"35\": {\"Si\": 1.0}, \"36\": {\"Si\": 1.0}, \"37\": {\"Si\": 1.0}, \"38\": {\"Si\": 1.0}, \"39\": {\"Si\": 1.0}, \"40\": {\"Si\": 1.0}, \"41\": {\"Si\": 1.0}, \"42\": {\"Si\": 1.0}, \"43\": {\"Si\": 1.0}, \"44\": {\"Si\": 1.0}, \"45\": {\"Si\": 1.0}, \"46\": {\"Si\": 1.0}, \"47\": {\"Si\": 1.0}, \"48\": {\"Si\": 1.0}, \"49\": {\"Si\": 1.0}, \"50\": {\"Si\": 1.0}, \"51\": {\"Si\": 1.0}, \"52\": {\"Si\": 1.0}, \"53\": {\"P\": 1.0}}" energy=-471.244012628243 stress="-0.0016879401995194205 0.002561830903719551 0.0022035942141308707 0.002561830903719551 -0.00235325172212714 0.0008498929618002263 0.0022035942141308707 0.0008498929618002263 0.00034324373624805" free_energy=-471.244012628243 pbc="T T T"
Si       6.64947158       3.86146330       2.74664706       0.91467623       0.10117958       0.23905640       0.44104258      -0.11424338       0.02277651      -8.76185127
Si       8.64184757       5.05044145       5.89135786      -0.56055167       1.32743833       0.11149998       0.60582212      -0.36424871      -0.11767701      -8.71233159
Si      10.57517771       6.18982689       8.97911280       0.75423068      -0.75130576      -0.74618573       0.98603402      -0.71989161      -0.15420108      -8.75545355
Si       8.60530276       7.26695512       2.72846552      -0.36428219      -0.59349102       0.89823291       0.00416694      -0.33364575      -0.12424224      -8.66095589
Si      10.58539508       8.32760598       5.82342372       1.11655275      -0.74838850      -1.52261163       0.36954832       0.20279662       0.17796602      -8.74899246
Si      12.48188149       9.43726845       9.10141665      -0.98139890       1.05834607      -0.53495660       0.42195517      -0.13924828      -0.42736206      -8.75768491
Si      10.50352975      10.53338173       2.74926225       1.02590151      -0.96240326       0.15095502       0.79588194      -0.31322311      -1.03179816      -8.69185383
Si      12.52390478      11.69642897       5.88698087      -0.36647586      -1.21156416      -1.48789808       0.23618446      -0.06062766       0.01293767      -8.77458948
Si      14.40609014      12.86103192       8.99420449       1.36871163      -1.42197786      -1.16183946      -0.09559628      -0.28357091       0.01232785      -8.55720977
Si      10.59051201       3.82438583       2.81516043      -0.51199300       0.86903745      -0.67343824      -0.71858074       0.40505114       0.04799832      -8.76315135
Si      12.59261671       4.96913258       5.85001930      -0.09911522       1.02379857       0.60960890      -0.25295965      -0.12394356       0.16625780      -8.71202930
Si      14.49021610       5.94431870       9.03318292      -0.19761665       0.42350287       0.22392207      -0.21556166       1.56265790       0.46861798      -8.66695130
Si      12.52678928       7.16419102       2.70854837      -2.70798898       0.44832824      -0.02337280      -0.02933634      -0.16551538      -0.03779189      -8.75140693
Si      14.37193768       8.31652687       5.98264457      -0.31213644       0.78642725      -0.08582657       0.28273551       0.61927081       0.02396159      -8.73467048
Si      16.33821190       9.50062241       9.13997371       0.03846849      -0.33988158       0.29238009       0.31082719      -0.82898367      -0.80367783      -8.71419505
Si      14.31850112      10.54246006       2.70509598       0.50081956      -1.55543340       0.45577186       0.85172163      -0.38829491       0.41719703      -8.64893650
Si      16.44199084      11.59983718       5.78432615      -1.10942037       0.85546505      -0.76026503      -0.20175354       0.29719315       1.28431500      -8.70017351
Si      18.29956126      12.73320019       8.99054358       0.45503852      -2.10183593       1.05388429      -0.83191898       0.07809445      -0.76749129      -8.73145709
Si      14.48687478       3.83216724       2.76094500       0.12281475       0.50316284      -0.12144087      -0.01678114       0.72385158       0.63336027      -8.72528427
Si      16.31459470       5.09149897       5.93658935      -0.40026940      -0.46819101       1.83452522       0.63199622      -0.84394474      -0.68175416      -8.72910589
Si      18.37521604       6.27115524       9.12832730      -1.00329117      -1.65655374      -0.27424384      -0.88276435      -0.70700596      -1.09682632      -8.57310021
Si      16.28893414       7.34111360       2.76878836       0.28458508       0.52550292      -0.31638289       0.39243517      -0.35811058       0.62580500      -8.75123300
Si      18.24844753       8.28650085       5.86855125       2.26524064       0.49038261       1.35146020      -0.07420202       0.97705132       0.19439666      -8.74771688
Si      20.22555812       9.41437354       9.07084319       0.49004430       0.88019826      -0.00251869       0.41387236       0.24169441      -0.30668450      -8.61881813
Si      18.26194136      10.60149025       2.75746821      -1.45749752       1.20257314       0.49043845       1.15247427       0.73810156      -0.61943628      -8.52309966
Si      20.25506078      11.54620157       5.89895879       0.22532581      -0.63113897      -1.97559606       0.56202935       0.66370228       0.53742396      -8.74499407
Si      22.13002399      12.73761626       9.08095014       0.68402026       1.58437632       0.62289093       0.44280075       0.91754328      -0.68789410      -8.48998453
Si       2.94848993       1.67742228       3.62303759      -0.33698165      -1.11442789      -0.51724156      -0.86050210      -0.36411981      -0.88600288      -8.71412767
Si       4.84145739       2.80516336       6.66175788       0.89547223       0.23604776      -0.39271756      -0.19906551      -0.02719359       0.32468478      -8.68755429
Si       2.98543732       3.82958040       0.46332183       1.69583982       0.18711725       0.09528205      -0.17845541       1.09616301      -0.02621212      -8.73099815
Si       4.82164645       5.10972550       3.52118321      -0.47257667      -1.03154976       1.10236817      -0.33071820      -0.38156487       0.45910836      -8.68823888
Si       6.71568843       6.14210605       6.67995799       1.56541912       1.63735609       0.93213827       0.27556656      -0.47477440       0.69877833      -8.72291116
Si       4.88703269       7.27410246       0.50292321       0.35649460       0.19849919       0.52969559      -0.77751701      -0.74123926      -0.79926085      -8.72147493
Si       6.65190113       8.47321659       3.52330511      -1.10711505      -0.46142423       0.27958177       0.58046782      -1.52900983       0.01369539      -8.70613924
Si       8.64331250       9.37129130       6.64697973      -0.11568295       0.73907664       0.70612858       0.17217613      -0.43267435       0.51084194      -8.73377234
Si       4.80895287       0.62009553       0.26322205      -0.04891176      -0.24332572      -0.30864319       0.08834719      -0.17424705       1.13530778      -8.65133340
Si       6.65435110       1.61007877       3.53511781      -1.25828637       1.90956882      -0.97817201      -0.07276246       0.60041766       0.00270124      -8.76841822
Si       8.71068753       2.77626631       6.64984830       0.61430929       0.87008488       0.43375962      -0.06388318       0.32270252      -0.48772575      -8.70584683
Si       6.75087234       3.84928615       0.38723824      -0.22675739       1.08834967       1.24847880       0.35981556      -0.11504909       0.04583583      -8.69708799
Si       8.60363564       4.95262140       3.50508469       0.24390538      -0.90567950      -1.79527452       0.10197725       0.58670314       0.21250550      -8.70874929
Si      10.67887982       6.14487632       6.66039212       0.67957673      -1.04808757      -1.32221556      -0.65974658      -0.41151038      -0.59537884      -8.71784218
Si       8.63297002       7.25986939       0.32360560       0.40455388       0.77192643      -0.70075372      -0.44596366       0.48712911       1.00131268      -8.74111263
Si      10.63413130       8.29055318       3.45792043       0.25349135       1.40550640       1.46364329      -0.72415299       0.07542848       0.28817721      -8.75233747
Si      12.46240675       9.50639677       6.73605845      -0.90954567      -2.16127268      -0.08560533      -0.19309856      -0.43611821      -0.22986847      -8.72104669
Si       8.60230012       0.45254544       0.34140659       0.58115578       1.16742285       1.47009477       0.67567696       0.08902040       0.85763702      -8.77168144
Si      10.61160027       1.62914352       3.48228841       0.02692415       0.86103009       0.84304694      -1.47464348      -0.19026738      -0.18401788      -8.71718117
Si      12.63821417       2.70590408       6.60887592      -0.83142079      -1.89721392      -1.17053132      -1.04649747       0.37046343       0.25464636      -8.71608895
Si      10.61337190       3.85927474       0.52104851      -0.36883761      -0.51819804      -0.19705801      -0.56609999       0.29381912      -0.87803423      -8.67365679
Si      12.48954172       4.91585782       3.47901055      -0.87184282      -0.32492754       0.02874831       0.72423189       0.54555054       0.36371245      -8.71810396
Si      14.44997244       6.11865473       6.72657276       0.42345283      -0.73309054       0.34328820      -0.58382770       0.02933074      -0.16552748      -8.78215331
Si      12.52892774       7.23557851       0.35236996      -0.02543208      -0.57978764      -0.21658039       0.03555781      -0.37268771       0.54659271      -8.77506036
Si      14.36125243       8.29542561       3.61569068      -0.04191252       0.34835739       0.14060527      -0.15725520       0.69019264      -0.19426331      -8.72558493
Si      16.36294357       9.42866365       6.74011589      -0.45878174      -0.08711766      -0.46620638      -0.19651935      -0.15579252      -0.14580349      -8.71273428
P        0.96338146       0.73280267       0.38719343      -0.84090290       0.04820489      -0.11390993      -0.06518162      -1.06318267       0.10805295      -9.73554516
54
Lattice="11.5478352 0.0 0.0 5.773917198490155 10.000722372470358 0.0 5.773916394327279 3.333571176804646 9.428767828939895" Properties=species:S:1:pos:R:3:momenta:R:3:forces:R:3:energies:R:1 spacegroup="_JSON {\"number\": 1, \"setting\": 1}" unit_cell=conventional occupancy="_JSON {\"0\": {\"Si\": 1.0}, \"1\": {\"Si\": 1.0}, \"2\": {\"Si\": 1.0}, \"3\": {\"Si\": 1.0}, \"4\": {\"Si\": 1.0}, \"5\": {\"Si\": 1.0}, \"6\": {\"Si\": 1.0}, \"7\": {\"Si\": 1.0}, \"8\": {\"Si\": 1.0}, \"9\": {\"Si\": 1.0}, \"10\": {\"Si\": 1.0}, \"11\": {\"Si\": 1.0}, \"12\": {\"Si\": 1.0}, \"13\": {\"Si\": 1.0}, \"14\": {\"Si\": 1.0}, \"15\": {\"Si\": 1.0}, \"16\": {\"Si\": 1.0}, \"17\": {\"Si\": 1.0}, \"18\": {\"Si\": 1.0}, \"19\": {\"Si\": 1.0}, \"20\": {\"Si\": 1.0}, \"21\": {\"Si\": 1.0}, \"22\": {\"Si\": 1.0}, \"23\": {\"Si\": 1.0}, \"24\": {\"Si\": 1.0}, \"25\": {\"Si\": 1.0}, \"26\": {\"Si\": 1.0}, \"27\": {\"Si\": 1.0}, \"28\": {\"Si\": 1.0}, \"29\": {\"Si\": 1.0}, \"30\": {\"Si\": 1.0}, \"31\": {\"Si\": 1.0}, \"32\": {\"Si\": 1.0}, \"33\": {\"Si\": 1.0}, \"34\": {\"Si\": 1.0}, \"35\": {\"Si\": 1.0}, \"36\": {\"Si\": 1.0}, \"37\": {\"Si\": 1.0}, \"38\": {\"Si\": 1.0}, \"39\": {\"Si\": 1.0}, \"40\": {\"Si\": 1.0}, \"41\": {\"Si\": 1.0}, \"42\": {\"Si\": 1.0}, \"43\": {\"Si\": 1.0}, \"44\": {\"Si\": 1.0}, \"45\": {\"Si\": 1.0}, \"46\": {\"Si\": 1.0}, \"47\": {\"Si\": 1.0}, \"48\": {\"Si\": 1.0}, \"49\": {\"Si\": 1.0}, \"50\": {\"Si\": 1.0}, \"51\": {\"Si\": 1.0}, \"52\": {\"Si\": 1.0}, \"53\": {\"P\": 1.0}}" energy=-471.2269155686769 stress="-0.0009129917192590028 0.000489269151563252 0.0005573201818831827 0.000489269151563252 -0.0008785375715219125 0.0004728617356608229 0.0005573201818831827 0.0004728617356608229 -0.00253433450666804" free_energy=-471.2269155686769 pbc="T T T"
Si       6.69936551       3.87088276       2.75943722       0.70312502       0.44301353       0.23095442      -0.65826752       0.59468543      -0.04504849      -8.77951220
Si       8.64026462       5.09734280       5.88398564       0.50723149       0.33915799      -0.52061875       0.61049265      -0.82771145      -0.61476633      -8.68758035
Si      10.64925764       6.13066373       8.93629809       1.89832234      -1.31140216      -0.80190411       0.31906494       0.02459334       0.16928794      -8.75126406
Si       8.58859870       7.23198910       2.76429869      -0.23469803      -0.56714546       0.37776248       0.15418618       0.34441761      -0.47881026      -8.63636923
Si      10.64117870       8.29490381       5.77159485       0.68532512      -0.55791914      -0.09260779      -0.90271344      -0.01980050       1.54098796      -8.69478886
Si      12.45411495       9.48217604       9.06242215       0.00621180       0.56988743      -0.82834655       0.73531947      -0.45629246       0.05745485      -8.74774291
Si      10.57283902      10.48617356       2.71571466       1.31624898      -0.54403870      -1.38714071      -0.36730500       0.80623928      -0.84176534      -8.71829018
Si      12.51816055      11.63420753       5.82005555       0.17084519      -1.07995618      -0.88670188       0.33353649       0.25604164       0.69869427      -8.68155555
Si      14.46837341      12.78907949       8.94211525       0.91963962      -1.05009653      -0.69031085      -0.44406066       0.76625466       0.52897633      -8.51160951
Si      10.54344819       3.87465542       2.78176861      -1.05709796       0.86065376      -0.62525654       0.15531247      -0.32227475      -0.04868977      -8.76645097
Si      12.58216169       4.99915468       5.88119679      -0.22072379      -0.18081825       0.43989679       0.04936826      -1.28887126      -0.36451433      -8.70263394
Si      14.46746858       6.02298504       9.06429513      -0.74252758       2.37009160       0.94811990      -0.49631920       0.74625005       0.39757422      -8.72495822
Si      12.40273802       7.17936313       2.70862813      -1.70796816       0.11792062       0.09583245       1.19022084      -0.20641213       0.23789409      -8.69621203
Si      14.36912491       8.36540907       5.97957237       0.22007982       0.76934877      -0.05897849       0.33582163      -0.58402679      -0.08123952      -8.74271499
Si      16.34818998       9.45380401       9.12057975       0.23115682      -1.31758698      -1.04256310      -0.10919425      -0.32613624      -0.83668712      -8.71109972
Si      14.36551989      10.46697213       2.74989245       1.03824510      -0.91671375       1.27393322      -0.14737087       1.18042925       0.48871124      -8.67655569
Si      16.37822529      11.64763725       5.79837517      -1.28835254       0.79481379       1.24326746      -0.06304282      -0.37682101       1.06000086      -8.75324254
Si      18.29997782      12.64513009       9.01010246      -0.25580799      -0.95379026      -0.33284774      -0.11646131       1.21781030      -0.85774785      -8.67468978
Si      14.48966537       3.87484796       2.77884629      -0.07622989       0.88862986       0.72322638      -0.24689543      -0.19455816       0.31146969      -8.75412931
Si      16.33155808       5.04354173       6.00137014       1.16028197      -1.12724213       0.60041321       1.06866669       0.07335044      -0.80577115      -8.72483850
Si      18.31080667       6.17467538       9.08575604      -1.08404177      -1.71189969      -1.02208590       0.56506671       0.50221971       0.19797397      -8.59651455
Si      16.30853900       7.34257668       2.78167985       0.24141131      -0.66397784       0.80560735      -0.45384617      -1.10146347       0.61855568      -8.74972870
Si      18.34596491       8.34923891       5.93695208       1.12420275       1.75836206       1.08538259      -1.33015710       0.42764997      -0.46507018      -8.72790496
Si      20.26640258       9.46344131       9.06406960       0.99736285       0.86580891      -0.15094506       0.13127374      -0.24956448       0.10074261      -8.69609313
Si      18.23095236      10.67298579       2.76060771       0.12656701       1.12393000      -0.31177373       0.55470606      -0.80960972      -0.39539604      -8.54514183
Si      20.28483594      11.54312635       5.82705396       0.77898988       0.53747752      -0.63664332       0.05513884       0.75119624       1.01630349      -8.73264045
Si      22.17822080      12.84272643       9.08779489       1.00628311       2.09656328      -0.31504111      -0.15038749      -0.35816622      -0.50798562      -8.56355155
Si       2.90722332       1.61297501       3.55313655      -0.96937503      -1.16038136      -2.17237902       0.18696639       0.36265635      -0.94880122      -8.73096165
Si       4.87708242       2.80954543       6.65660232       0.43680390      -0.18955305       0.22096644      -0.30423248      -0.49233285       0.41896582      -8.68643948
Si       3.05064596       3.87238309       0.45779484       0.58925829       1.21558516      -0.44605140      -0.97683855       0.19321255      -0.56111347      -8.70537273
Si       4.79231802       5.05194757       3.59442103      -0.46339084      -0.97947347       1.61273557       0.36967351       0.37085305       0.15055142      -8.68054880
Si       6.79142599       6.20024107       6.74870759       1.05457420       0.47790672       1.45463025      -0.76347932      -0.87039002      -0.23407379      -8.73446707
Si       4.87367106       7.27089345       0.49624682      -0.83270115      -0.02825974      -0.76502281      -0.62294039       0.39419922      -0.70864710      -8.73788202
Si       6.62548762       8.40823510       3.54190941       0.25994908      -1.60123374       0.48285808       1.17212143       0.06983115       0.22045290      -8.70144180
Si       8.66245465       9.39453885       6.69748682       1.14249118       0.24499402       1.08086404       1.30759709      -0.07340102      -0.04125088      -8.71276709
Si       4.81562877       0.59321658       0.28865168       0.38424119      -0.89473946       1.15616922       0.40609954      -0.59648109       0.63194838      -8.70002100
Si       6.60392493       1.71188244       3.48416108      -0.35995291       1.53319610      -0.91841429       1.10836020      -1.09700006       0.17966757      -8.71345345
Si       8.72897883       2.82920611       6.64354488      -0.10607547       1.03378482      -0.78242599      -0.81075638      -0.13125562      -0.89214260      -8.70233319
Si       6.75215810       3.90048125       0.44325486       0.24322262       0.85440519       0.68362990       0.22068439      -0.14833647      -0.73906970      -8.69368666
Si       8.61882759       4.93604240       3.43537188       0.28461577       0.40288242      -0.59153251      -0.09718697       1.07413245       1.26397962      -8.70772179
Si      10.68450275       6.08442556       6.57683085      -0.49838074      -1.05864649      -1.65858258      -0.76066601       0.35135345       0.21183743      -8.74157849
Si       8.63686655       7.30542460       0.32879175      -0.19735646       0.65840512       0.88819752      -0.22660775      -0.69208881       0.95050453      -8.72960507
Si      10.61273757       8.35516675       3.53015999      -1.13154461       0.83619585       0.97049877      -0.96390870      -0.77575452      -0.93580722      -8.74557972
Si      12.41359322       9.39357786       6.72005353      -0.77242937      -1.79627370      -0.53124192       0.51284154       0.90692401      -0.24929721      -8.73469459
Si       8.64866099       0.50815483       0.43752509       0.98293512       0.84793311       1.87174098      -0.11600390      -0.32033275      -0.39623767      -8.76250262
Si      10.55256405       1.66999908       3.51219024      -2.17326021       0.71620306       0.22241703      -1.04766303      -0.10791869      -0.46093437      -8.72387970
Si      12.56604526       2.63137176       6.56490638      -1.61780373      -0.77259376      -0.38710806       0.13374279       1.04325777       0.72067436      -8.67601758
Si      10.57553172       3.84448918       0.47715223      -0.96221201      -0.03425371      -1.39919542      -0.11577674       0.33419326      -0.56683133      -8.71998431
Si      12.47291266       4.92535403       3.49610399       0.18708820       0.72234321       0.62739152       0.52688320       0.67438518       0.37237907      -8.70786859
Si      14.44710987       6.09376168       6.73910838      -0.47982831      -0.05215902       0.15247666      -0.37324776       0.66112741      -0.09289565      -8.76134147
Si      12.52737874       7.18535934       0.36639722      -0.05959904      -1.37481979       0.75308301      -0.06454847      -0.50144750       0.53779573      -8.78695289
Si      14.34686264       8.32588241       3.61323677      -0.57015558       0.50682476      -0.22918111      -0.40771931      -0.50526237      -0.17453096      -8.72245710
Si      16.33811591       9.42315199       6.71308939      -0.36039521      -0.01159440      -0.49389378       0.29762693       0.27510207       0.12459793      -8.68870899
P        0.92793206       0.69426498       0.38612556      -0.47480133      -1.64974989       0.07673926       0.63682506      -0.96865545       0.13714325      -9.77083400
54
Lattice="11.5478352 0.0 0.0 5.773917198490155 10.000722372470358 0.0 5.773916394327279 3.333571176804646 9.428767828939895" Properties=species:S:1:pos:R:3:momenta:R:3:forces:R:3:energies:R:1 spacegroup="_JSON {\"number\": 1, \"setting\": 1}" unit_cell=conventional occupancy="_JSON {\"0\": {\"Si\": 1.0}, \"1\": {\"Si\": 1.0}, \"2\": {\"Si\": 1.0}, \"3\": {\"Si\": 1.0}, \"4\": {\"Si\": 1.0}, \"5\": {\"Si\": 1.0}, \"6\": {\"Si\": 1.0}, \"7\": {\"Si\": 1.0}, \"8\": {\"Si\": 1.0}, \"9\": {\"Si\": 1.0}, \"10\": {\"Si\": 1.0}, \"11\": {\"Si\": 1.0}, \"12\": {\"Si\": 1.0}, \"13\": {\"Si\": 1.0}, \"14\": {\"Si\": 1.0}, \"15\": {\"Si\": 1.0}, \"16\": {\"Si\": 1.0}, \"17\": {\"Si\": 1.0}, \"18\": {\"Si\": 1.0}, \"19\": {\"Si\": 1.0}, \"20\": {\"Si\": 1.0}, \"21\": {\"Si\": 1.0}, \"22\": {\"Si\": 1.0}, \"23\": {\"Si\": 1.0}, \"24\": {\"Si\": 1.0}, \"25\": {\"Si\": 1.0}, \"26\": {\"Si\": 1.0}, \"27\": {\"Si\": 1.0}, \"28\": {\"Si\": 1.0}, \"29\": {\"Si\": 1.0}, \"30\": {\"Si\": 1.0}, \"31\": {\"Si\": 1.0}, \"32\": {\"Si\": 1.0}, \"33\": {\"Si\": 1.0}, \"34\": {\"Si\": 1.0}, \"35\": {\"Si\": 1.0}, \"36\": {\"Si\": 1.0}, \"37\": {\"Si\": 1.0}, \"38\": {\"Si\": 1.0}, \"39\": {\"Si\": 1.0}, \"40\": {\"Si\": 1.0}, \"41\": {\"Si\": 1.0}, \"42\": {\"Si\": 1.0}, \"43\": {\"Si\": 1.0}, \"44\": {\"Si\": 1.0}, \"45\": {\"Si\": 1.0}, \"46\": {\"Si\": 1.0}, \"47\": {\"Si\": 1.0}, \"48\": {\"Si\": 1.0}, \"49\": {\"Si\": 1.0}, \"50\": {\"Si\": 1.0}, \"51\": {\"Si\": 1.0}, \"52\": {\"Si\": 1.0}, \"53\": {\"P\": 1.0}}" energy=-471.1398447103686 stress="-0.0020037127573338345 -0.0036569004781515295 -0.0024714540871819935 -0.0036569004781515295 0.0011410734327706028 -0.0004264305209711666 -0.0024714540871819935 -0.0004264305209711666 -0.0014852330615816043" free_energy=-471.1398447103686 pbc="T T T"
Si       6.70652260       3.92075605       2.76948497      -0.43276123       1.42895729       0.15560607      -0.66302835       0.46737594      -0.03313764      -8.74418777
Si       8.67769275       5.08715292       5.83446680       0.63123841      -0.60379461      -1.27591962      -0.49533775      -0.34398323      -0.24307009      -8.72343217
Si      10.74625280       6.06950911       8.90605478       1.50705882      -0.92805507      -0.26440047      -0.82676805       0.39199598       0.50400244      -8.65561241
Si       8.58296368       7.22031413       2.76727391       0.02522539       0.17701962      -0.20414027       0.16751287       0.55158331      -0.24289996      -8.73788069
Si      10.63468278       8.26177314       5.82054910      -0.96663293      -0.71273137       1.68256074      -0.99480147      -0.04113867       0.48393928      -8.72745727
Si      12.47603871       9.49645103       9.02625357       0.65406683       0.04794707      -0.47109723       0.05562200      -0.16539644       0.36444851      -8.73156415
Si      10.62072297      10.49072148       2.62603880       0.42910692       0.65350618      -1.62861907      -0.68400537       0.56757623       0.73127538      -8.74018970
Si      12.53448980      11.59033887       5.80092412       0.32612344      -0.54408366       0.12235647      -0.15649270       0.44173792       0.55913131      -8.64652800
Si      14.49812205      12.76837660       8.92623659       0.18493360       0.26003713       0.06591575      -0.55513198       0.75617475       0.45822539      -8.49668999
Si      10.50591654       3.90660969       2.74404389      -0.21491815       0.39797035      -0.84297179       0.76603784      -0.16523927      -0.15527548      -8.72885903
Si      12.57227201       4.94231367       5.88939413      -0.17941584      -1.80590783      -0.09315237      -0.02630383      -0.57240858      -0.23519352      -8.74097433
Si      14.40906518       6.15429619       9.12148795      -1.42486647       2.18832058       1.03382792      -0.23966162      -0.99894985      -0.37290543      -8.73941035
Si      12.35952704       7.18158085       2.72740531      -0.00919561       0.05858636       0.68711564       0.91088709       0.14715107       0.48326405      -8.72525109
Si      14.38953825       8.37561989       5.96886617       0.47415128      -0.46263848      -0.42534728       0.01637999      -0.90276259      -0.37080633      -8.74293134
Si      16.35202801       9.38410263       9.04190170      -0.12725067      -1.09310740      -1.73803737      -0.27711657       0.63679642       0.02815769      -8.70961234
Si      14.40241249      10.46948986       2.82639219       0.13996343       0.93856314       1.41560932      -1.03459094       0.87067722      -0.39529187      -8.72796984
Si      16.30956451      11.67007789       5.88624243      -1.26684587       0.02337866       1.73383102       0.18943378      -0.50478128      -0.38393761      -8.74391807
Si      18.28985822      12.63620634       8.97135119       0.01157159       0.41346772      -0.86440960       0.44805526       0.45705509       0.23351439      -8.64627040
Si      14.47545837       3.90752033       2.81737121      -0.44411409       0.28759131       0.52185714      -0.15831194      -0.46421045      -0.55644840      -8.73747534
Si      16.42105027       4.99903720       6.01064689       1.95888449      -0.40115988      -0.04214964      -0.07248943       0.71897283      -0.00700072      -8.73100369
Si      18.28084258       6.10818234       9.05672052      -0.00867617      -0.79685490       0.16760570       0.77358200       0.61510833       1.14733052      -8.52813076
Si      16.30034514       7.26817013       2.83781010      -0.52483824      -2.00814542       1.13429039      -0.34471614      -0.44940491      -0.16436460      -8.73419665
Si      18.35556547       8.44367653       5.97606585      -0.57006965       1.58931247       0.44847202      -0.59629216      -0.56487075      -0.30914020      -8.71222727
Si      20.31399857       9.49538278       9.06253929       0.61000742       0.29222972       0.10831360      -0.66233236      -0.47876828       0.16274096      -8.77774554
Si      18.23537251      10.68898214       2.73338422      -0.35747488      -0.67319308      -0.63128552      -0.95193205      -1.41866590      -0.00426040      -8.50179797
Si      20.31857962      11.59334137       5.82361476       0.34812333       1.20925959       0.28987693      -0.55906495       0.09695963       0.18380891      -8.68976575
Si      22.21258719      12.92332053       9.05626529       0.08514934       0.73106545      -0.78259033      -0.96546471      -1.29477180      -0.08094047      -8.58027572
Si       2.88005737       1.57640888       3.42045511       0.17802006      -0.05378143      -2.49931801       1.09158269       1.04152419       0.53622673      -8.70484952
Si       4.89229338       2.78082392       6.68069673       0.22546984      -0.83676121       0.59526871       0.01243578      -0.21910364       0.01225113      -8.71957097
Si       3.04950825       3.93064691       0.41582725      -0.48717559       0.76502028      -1.03398597      -0.40988724      -0.75141092      -0.09717231      -8.61647781
Si       4.78676852       5.01694002       3.67773901       0.26757795      -0.36513720       1.39521650       0.42137379       0.32969572      -0.50616879      -8.74353383
Si       6.81816594       6.19744627       6.79715089       0.04059217      -0.44875919       0.07990266      -0.47519004      -0.33486542      -1.40494841      -8.70614558
Si       4.81960148       7.29195485       0.44126598      -0.92034031       0.89839092      -1.05624479       0.56209391       0.65161607       0.36145436      -8.70360469
Si       6.67885015       8.34115732       3.57501562       1.53726874      -0.75650516       0.73154886       0.23932895       0.86445062       0.03821763      -8.69091459
Si       8.76766092       9.41152091       6.74516710       2.58757132       0.50481641       0.60183458       0.20241972       0.34424159      -0.55319785      -8.73808158
Si       4.85087240       0.52699710       0.35501195       0.92334505      -1.48651083       0.93784033       0.26379484      -0.04281702      -1.06476982      -8.76366514
Si       6.63005571       1.74074590       3.44698993       1.32295414      -0.46454176      -0.43500762       0.96425274      -1.20645597       0.42490488      -8.67550859
Si       8.68895541       2.87238856       6.57822109      -1.43124540       0.49228867      -1.44190247      -0.84301181      -0.59986844       0.13763467      -8.72244713
Si       6.76714768       3.94299836       0.44946559       0.16259312       0.84404824      -0.39339776      -0.43572278       0.15402399      -0.52374041      -8.74466538
Si       8.62711830       4.99494260       3.45324983       0.00306238       1.68204339       1.16667862      -0.20114605       0.43726490       0.82338357      -8.74340723
Si      10.64028253       6.04436457       6.50862098      -0.89950982      -0.49242818      -0.73780993       0.34608558       0.25882941       1.00883553      -8.72694489
Si       8.62464057       7.30487737       0.40050728      -0.14092071      -0.73772395       1.54917584       0.27505091      -0.91806677      -0.21995081      -8.71224874
Si      10.52288916       8.36796261       3.54130831      -2.08991331      -0.29311531      -0.49143630      -0.14777650      -0.55719045      -0.73011024      -8.72370103
Si      12.40452344       9.34353088       6.68752919       0.60124257      -0.01467147      -0.61311268       1.15842698       1.26499634       0.11075561      -8.71880407
Si       8.68946403       0.54526381       0.50822972       0.46671817       0.67666154       0.64723399      -0.53892228       0.09928536      -1.08339811      -8.65986161
Si      10.42294663       1.70299865       3.51441141      -2.22812344       0.56493236       0.06484247       1.05671326      -0.01000800       0.31481245      -8.71126513
Si      12.50117055       2.63115625       6.57204888      -0.63465463       0.69713700       0.60663963       0.98245036       0.75544149       0.50692732      -8.71881219
Si      10.53111720       3.85387682       0.39273039      -0.52407097       0.33528998      -1.59084149       0.67631239       0.10083854       0.32213165      -8.74698472
Si      12.49424454       4.98066347       3.53943720       0.46135700       1.16864598       0.92092460      -0.11694673      -0.17778233      -0.03639635      -8.71760858
Si      14.41925757       6.11124919       6.74501288      -0.37734319       0.55777424       0.10571389       0.41477533       0.03152977       0.03609420      -8.70679901
Si      12.52156031       7.10344829       0.41491758      -0.16213269      -1.51996763       0.83368596      -0.06618821       0.37337595      -0.47168967      -8.75418822
Si      14.30539890       8.32358008       3.59922253      -0.88701533      -0.66755888      -0.22632377       0.08166023      -0.77430473       0.12546322      -8.71002456
Si      16.33191138       9.43678110       6.69350747       0.09318057       0.56215716      -0.25397723       0.17135206       0.38694186       0.11322805      -8.74141950
P        0.93766129       0.59395220       0.39408068       1.05294785      -2.27928491       0.23373321       1.25101367       0.14400513       0.03405564      -9.81695277
54
Lattice="11.5478352 0.0 0.0 5.773917198490155 10.000722372470358 0.0 5.773916394327279 3.333571176804646 9.428767828939895" Properties=species:S:1:pos:R:3:momenta:R:3:forces:R:3:energies:R:1 spacegroup="_JSON {\"number\": 1, \"setting\": 1}" unit_cell=conventional occupancy="_JSON {\"0\": {\"Si\": 1.0}, \"1\": {\"Si\": 1.0}, \"2\": {\"Si\": 1.0}, \"3\": {\"Si\": 1.0}, \"4\": {\"Si\": 1.0}, \"5\": {\"Si\": 1.0}, \"6\": {\"Si\": 1.0}, \"7\": {\"Si\": 1.0}, \"8\": {\"Si\": 1.0}, \"9\": {\"Si\": 1.0}, \"10\": {\"Si\": 1.0}, \"11\": {\"Si\": 1.0}, \"12\": {\"Si\": 1.0}, \"13\": {\"Si\": 1.0}, \"14\": {\"Si\": 1.0}, \"15\": {\"Si\": 1.0}, \"16\": {\"Si\": 1.0}, \"17\": {\"Si\": 1.0}, \"18\": {\"Si\": 1.0}, \"19\": {\"Si\": 1.0}, \"20\": {\"Si\": 1.0}, \"21\": {\"Si\": 1.0}, \"22\": {\"Si\": 1.0}, \"23\": {\"Si\": 1.0}, \"24\": {\"Si\": 1.0}, \"25\": {\"Si\": 1.0}, \"26\": {\"Si\": 1.0}, \"27\": {\"Si\": 1.0}, \"28\": {\"Si\": 1.0}, \"29\": {\"Si\": 1.0}, \"30\": {\"Si\": 1.0}, \"31\": {\"Si\": 1.0}, \"32\": {\"Si\": 1.0}, \"33\": {\"Si\": 1.0}, \"34\": {\"Si\": 1.0}, \"35\": {\"Si\": 1.0}, \"36\": {\"Si\": 1.0}, \"37\": {\"Si\": 1.0}, \"38\": {\"Si\": 1.0}, \"39\": {\"Si\": 1.0}, \"40\": {\"Si\": 1.0}, \"41\": {\"Si\": 1.0}, \"42\": {\"Si\": 1.0}, \"43\": {\"Si\": 1.0}, \"44\": {\"Si\": 1.0}, \"45\": {\"Si\": 1.0}, \"46\": {\"Si\": 1.0}, \"47\": {\"Si\": 1.0}, \"48\": {\"Si\": 1.0}, \"49\": {\"Si\": 1.0}, \"50\": {\"Si\": 1.0}, \"51\": {\"Si\": 1.0}, \"52\": {\"Si\": 1.0}, \"53\": {\"P\": 1.0}}" energy=-470.48845528939654 stress="-0.0011073634189475111 -0.0005747791403003947 -0.00020926152777318995 -0.0005747791403003947 -0.000512775774963233 -0.0005744832696827598 -0.00020926152777318995 -0.0005744832696827598 -0.0007894357398101183" free_energy=-470.48845528939654 pbc="T T T"
Si       6.66932137       4.00030143       2.77665040      -0.72365178       1.31595841       0.10684972       0.35573138      -0.64716983      -0.07647312      -8.69749637
Si       8.68409675       5.05067430       5.77223086      -0.43332097      -0.64064988      -0.76532765      -0.67763785       0.22297735       1.03748533      -8.72974993
Si      10.78442417       6.03551309       8.91178406      -0.17844850      -0.38184637       0.46563172      -1.31682886       0.34068284       0.43893505      -8.59472531
Si       8.58742220       7.24628582       2.75169533       0.04438042       0.68588519      -0.32121967      -0.22458146       0.06270943       0.01824997      -8.77807934
Si      10.56552131       8.22854383       5.90552407      -1.20262040      -0.44962387       1.16941974       0.78929632       0.35518034      -1.02771135      -8.72009910
Si      12.50389046       9.49990650       9.01445195       0.27178697       0.23128895      -0.03276197      -0.47811530       0.40999899       0.15247820      -8.72065958
Si      10.62149906      10.53602483       2.58614444      -0.26359932       0.86323962       0.26488762      -0.14876602      -0.26020013       1.31332320      -8.74156844
Si      12.53979060      11.57846965       5.82185682      -0.21909024       0.06625387       0.51424564      -0.52967864       0.33552411      -0.07872759      -8.70241031
Si      14.48687486      12.79923151       8.94449785      -0.56245729       0.64816906       0.54807864      -0.33135867      -0.29615415       0.12110960      -8.50970184
Si      10.51960611       3.92840525       2.69793999       0.61030823       0.55933617      -0.80366605       0.28090414       0.31576016       0.27287895      -8.68646444
Si      12.56190413       4.84812843       5.88076833      -0.19021438      -1.32315036      -0.14476753       0.07117260       1.21311059       0.11981738      -8.73499740
Si      14.33810407       6.21771346       9.15238314      -1.01483442       0.09841526       0.02159371       0.75737242      -1.48930189      -0.84108069      -8.71048045
Si      12.38136501       7.19290657       2.77796309       0.56940600       0.37935829       1.09742298      -0.15352105       0.16470099      -0.07330666      -8.76715392
Si      14.41400370       8.32261716       5.93258547       0.45862892      -1.38690886      -0.91276104       0.00878107      -0.23413587      -0.18941616      -8.75748032
Si      16.33697312       9.35886800       8.96542688      -0.38934117       0.21482481      -0.93621685      -0.05194153       0.95277658       0.95696191      -8.70663897
Si      14.36943699      10.52902234       2.87395287      -1.21163018       0.87840967       0.20541127      -0.26003722      -0.87279345      -1.14103413      -8.74629924
Si      16.25670740      11.66116389       5.95212638      -0.63242908      -0.12982017       0.64409888       0.62998948       0.39490818      -0.91587178      -8.69002220
Si      18.31300477      12.66322888       8.94751121       0.95337404       0.40508755       0.13541593       0.76387288      -0.38175561       0.92836441      -8.64201097
Si      14.45107930       3.90989760       2.81745875      -0.38527251      -0.06292329      -0.58689012       0.22515832       0.05644860      -0.82467199      -8.70638210
Si      16.50658322       5.00132618       6.01668053       1.02393631       0.34518420       0.37472324      -1.16796477       0.16778578       0.38676510      -8.69971965
Si      18.30821367       6.08590501       9.10084184       0.99022386      -0.15236731       1.22485232       0.51614425       0.21490041       0.04060989      -8.51824206
Si      16.26951180       7.16359040       2.88383389      -0.45629452      -1.60917256       0.49616837       0.41143439       0.98869640      -0.65151429      -8.63258294
Si      18.32332935       8.49985534       5.99144265      -0.29938117       0.48170756       0.19352645       0.79293836      -0.83700736      -0.08375783      -8.65049915
Si      20.31707902       9.49368891       9.07168234      -0.47065753      -0.29763408       0.18498705      -0.57513377      -0.24911811      -0.04801062      -8.78795795
Si      18.18516812      10.60542359       2.70727224      -1.30773874      -2.28415459      -0.22843038      -0.02367875      -0.51590935       0.51036100      -8.50888699
Si      20.31486596      11.65328482       5.83656247      -0.44717050       0.96660686       0.04810805      -0.39578156      -0.33096366      -0.43489629      -8.62413818
Si      22.18441900      12.91562717       9.02010503      -0.97143061      -0.85697587      -0.43797512      -0.25741359      -0.64480404       0.52127906      -8.61135365
Si       2.91950225       1.61162091       3.32166227       0.96035990       1.26762168      -1.08415946      -0.29939455       0.53831985       1.27077944      -8.67677079
Si       4.90594580       2.73795277       6.70484268       0.28040821      -0.61294614       0.18680099      -0.04879844       0.49714218      -0.51857544      -8.72986241
Si       3.01642524       3.93600859       0.36696723      -0.61981289      -0.61319218      -0.66306324       0.20311962      -0.94538280       0.54708284      -8.60535553
Si       4.80737647       5.00371887       3.72502380       0.29819296      -0.27675580       0.33624233      -0.42680853      -0.19946638      -0.77252035      -8.78684461
Si       6.81066993       6.16947649       6.75395552      -0.14338969      -0.44101098      -1.45346020       0.24584641       0.36385078      -0.35962398      -8.69641830
Si       4.80125351       7.35506962       0.41025161       0.27335956       1.24518683       0.02674461       0.76822308      -0.37745691       0.96250968      -8.65323843
Si       6.74763916       8.33366249       3.61118504       0.70808402       0.39333486       0.58527586      -1.22062468       0.54862382      -0.20465691      -8.68647921
Si       8.88227247       9.45515821       6.75678743       1.23377263       1.22890073      -0.07549672      -1.90554761       0.59460530      -0.24523325      -8.70729521
Si       4.90533250       0.45785334       0.34867904       1.04917274      -0.95288607      -1.24898382      -0.15167291       0.72942529      -1.30124498      -8.76644707
Si       6.72164571       1.68836887       3.44123292       1.76034000      -1.10551106       0.23861766      -0.65173940       0.46086343       0.51979507      -8.68433195
Si       8.58911086       2.87206610       6.52154727      -2.15939868      -0.51692878      -0.48557455       0.01227640      -0.63181660       1.05456994      -8.71038948
Si       6.74831969       3.99596789       0.41933206      -1.02588180       1.16951498      -0.54912622      -0.96721089       0.10856975       0.26915174      -8.75880043
Si       8.62231952       5.08528139       3.52509561      -0.12793080       1.48723077       1.10019089       0.02271597      -0.63204335      -1.00126348      -8.72713632
Si      10.61701642       6.02062634       6.51382069       0.11574657      -0.55749726       0.97400858       0.74643763      -0.28852110       1.14239512      -8.69793107
Si       8.63118567       7.24044845       0.45580784       0.42501310      -1.49349887       0.27039630       0.40604761      -0.03557656      -1.32670863      -8.66617700
Si      10.42526879       8.34232910       3.50186970      -1.26527526      -0.44707948      -0.71573740       1.27387880       0.36595621       0.42889074      -8.64812263
Si      12.47366727       9.38069396       6.66039910       1.80990719       1.14694196      -0.41400208       0.29503874       0.15697510       0.15097506      -8.73387007
Si       8.69060948       0.58787546       0.50295712      -0.45043584       0.96761132      -0.74366199      -0.63394449       0.16976849      -0.67137956      -8.62969684
Si      10.36537855       1.73572905       3.53654091       0.24082626       0.69444777       0.81777664       1.84323646       0.01438078       0.45360782      -8.65948274
Si      12.50192012       2.68206398       6.61651140       0.52670571       0.90972520       0.96067036       0.46274382      -0.53554671       0.01117864      -8.75827269
Si      10.53191949       3.86920363       0.32874963       0.52406890       0.13024496      -0.75086902       0.56361991      -0.35166612       0.70670214      -8.74214764
Si      12.50999184       5.02338699       3.57976283       0.09019511       0.26933364       0.48817819      -0.31311544      -0.91192961      -0.53885589      -8.71508298
Si      14.41726472       6.12973776       6.75317681       0.29341925      -0.07660913       0.21634961       0.39251246      -0.83529126       0.07467241      -8.63228793
Si      12.51055589       7.04699525       0.43344143      -0.25432881      -0.48687783      -0.17675530      -0.05166463       0.94812324      -0.66156953      -8.67700208
Si      14.27186578       8.27091089       3.59198034      -0.19703201      -1.06203184      -0.07154856       0.83355259       0.29853976       0.04048975      -8.72075856
Si      16.33555989       9.47544745       6.67968584      -0.09974959       0.75351138      -0.37267433      -0.37947148      -0.23258225      -0.26534317      -8.77506999
P        1.02264038       0.49853695       0.40304529       2.19120183      -1.58527891       0.07845592      -0.02961302       0.74528838      -0.19797177      -9.86738253
54
Lattice="11.5478352 0.0 0.0 5.773917198490155 10.000722372470358 0.0 5.773916394327279 3.333571176804646 9.428767828939895" Properties=species:S:1:pos:R:3:momenta:R:3:forces:R:3:energies:R:1 spacegroup="_JSON {\"number\": 1, \"setting\": 1}" unit_cell=conventional occupancy="_JSON {\"0\": {\"Si\": 1.0}, \"1\": {\"Si\": 1.0}, \"2\": {\"Si\": 1.0}, \"3\": {\"Si\": 1.0}, \"4\": {\"Si\": 1.0}, \"5\": {\"Si\": 1.0}, \"6\": {\"Si\": 1.0}, \"7\": {\"Si\": 1.0}, \"8\": {\"Si\": 1.0}, \"9\": {\"Si\": 1.0}, \"10\": {\"Si\": 1.0}, \"11\": {\"Si\": 1.0}, \"12\": {\"Si\": 1.0}, \"13\": {\"Si\": 1.0}, \"14\": {\"Si\": 1.0}, \"15\": {\"Si\": 1.0}, \"16\": {\"Si\": 1.0}, \"17\": {\"Si\": 1.0}, \"18\": {\"Si\": 1.0}, \"19\": {\"Si\": 1.0}, \"20\": {\"Si\": 1.0}, \"21\": {\"Si\": 1.0}, \"22\": {\"Si\": 1.0}, \"23\": {\"Si\": 1.0}, \"24\": {\"Si\": 1.0}, \"25\": {\"Si\": 1.0}, \"26\": {\"Si\": 1.0}, \"27\": {\"Si\": 1.0}, \"28\": {\"Si\": 1.0}, \"29\": {\"Si\": 1.0}, \"30\": {\"Si\": 1.0}, \"31\": {\"Si\": 1.0}, \"32\": {\"Si\": 1.0}, \"33\": {\"Si\": 1.0}, \"34\": {\"Si\": 1.0}, \"35\": {\"Si\": 1.0}, \"36\": {\"Si\": 1.0}, \"37\": {\"Si\": 1.0}, \"38\": {\"Si\": 1.0}, \"39\": {\"Si\": 1.0}, \"40\": {\"Si\": 1.0}, \"41\": {\"Si\": 1.0}, \"42\": {\"Si\": 1.0}, \"43\": {\"Si\": 1.0}, \"44\": {\"Si\": 1.0}, \"45\": {\"Si\": 1.0}, \"46\": {\"Si\": 1.0}, \"47\": {\"Si\": 1.0}, \"48\": {\"Si\": 1.0}, \"49\": {\"Si\": 1.0}, \"50\": {\"Si\": 1.0}, \"51\": {\"Si\": 1.0}, \"52\": {\"Si\": 1.0}, \"53\": {\"P\": 1.0}}" energy=-470.5514036332603 stress="-0.00023189431561556568 0.0029200953708681423 0.0018625971935712583 0.0029200953708681423 -0.0021368170967265713 0.000602259716123875 0.0018625971935712583 0.000602259716123875 0.001687572782094556" free_energy=-470.5514036332603 pbc="T T T"
Si       6.65563086       4.03510045       2.77746447       0.32276330      -0.10797093      -0.09856045       0.81208165      -1.10695363      -0.15652874      -8.67391158
Si       8.64494039       5.02613047       5.78110552      -0.83464739      -0.32669526       1.10754695       0.20502174       0.10709757       1.03627118      -8.74905101
Si      10.72729270       6.02796987       8.95139526      -1.87177204       0.08574708       1.01164474      -0.79613953       0.30049970       0.30168202      -8.67867266
Si       8.57612206       7.28016132       2.73399789      -0.50374231       0.57424042      -0.39563853      -0.31723795      -0.06273131      -0.12985742      -8.76088715
Si      10.54544353       8.22102140       5.92358167       0.52507482       0.21782550      -0.42320405       1.14763112       0.56718588      -0.80086836      -8.66379356
Si      12.49939240       9.53172926       9.01331159      -0.40830238       0.99124543      -0.10359146      -0.33829104       0.42675056      -0.20485657      -8.74464924
Si      10.61033255      10.56543410       2.63311743      -0.05098051       0.20251540       1.16122391       0.26961351      -0.46679399      -0.08736864      -8.74170621
Si      12.50677216      11.59053267       5.83785556      -1.02246361       0.29727149      -0.02069228      -0.44522895      -0.03788476      -0.51817599      -8.74358527
Si      14.45544719      12.80887324       8.97014160      -0.39934954      -0.48843305       0.28334909       0.56563380      -1.09083988      -0.43038093      -8.51929430
Si      10.55572284       3.96906912       2.67171090       0.64134295       0.90636311      -0.11623564      -0.22102542      -0.01977117       0.57827472      -8.69867577
Si      12.55773467       4.83480046       5.87980298       0.08803988       0.82340035       0.14423466       0.28895115       1.23493933       0.26212877      -8.73369712
Si      14.31497280       6.18034275       9.12509279       0.06381007      -1.13606808      -0.93857784       0.51102395       0.01491487      -0.36129866      -8.74725234
Si      12.39667238       7.21348151       2.82273628      -0.06266676       0.28436884       0.44119410      -0.44175371      -0.29678146      -0.72725315      -8.73612518
Si      14.43969817       8.25047435       5.88423641       0.53833090      -1.20521601      -0.77678049       0.07338443       0.38471967       0.40781848      -8.75801848
Si      16.31855200       9.39951455       8.95314988      -0.21738178       1.12581469       0.36599781       0.33190677       0.12942429       0.55335214      -8.75705888
Si      14.32611221      10.53376180       2.84014476       0.03143952      -0.68596978      -1.41636961       1.49061218      -0.80148092      -0.80448857      -8.69491443
Si      16.24845555      11.67866273       5.95404493       0.29926568       0.88017331      -0.44803314       0.55657140       0.70377602      -0.42764779      -8.69447399
Si      18.39055389      12.66552007       8.98661224       1.88195830      -0.34630695       1.20765810       0.26181760      -0.48530465       0.34848174      -8.70741171
Si      14.44099148       3.91553432       2.75797892      -0.00382394       0.36717822      -1.57133072       0.20710783       0.39094429      -0.37820792      -8.71684229
Si      16.50809798       5.01747626       6.04606512      -1.00029054       0.15226435       0.60660877      -1.26507347      -0.28860740      -0.14982495      -8.70984182
Si      18.37277882       6.07933224       9.14968577       1.29386316      -0.22430637       0.35797276      -0.18625463      -0.27432179      -1.05645882      -8.47470337
Si      16.26691673       7.12693299       2.88358282       0.42962845       0.28788924      -0.47704007       0.69214315       1.27060022      -0.52548515      -8.62005966
Si      18.34033245       8.49650068       5.99948822       0.87553653      -0.49564451       0.12738058       0.51441427      -0.38777336      -0.03083097      -8.65869582
Si      20.28003767       9.47240393       9.07881271      -0.74922230      -0.45666801       0.08729582       0.17128934      -0.02135782      -0.04863353      -8.75070281
Si      18.13149773      10.48613953       2.71532097      -0.48751034      -1.83382606       0.49257588       0.96566271       1.17219384       0.34917883      -8.45458417
Si      20.28220736      11.69242419       5.81922956      -0.68281741       0.57662498      -0.73237882       0.05377788      -0.13686851      -0.51861668      -8.65561928
Si      22.13469883      12.86000700       9.01859815      -0.75409113      -1.00509714       0.35329559       0.41576105       0.36105894       0.42367954      -8.55773379
Si       2.94042128       1.68504956       3.31639020      -0.40027855       1.24725773       0.88106172      -1.22100442      -0.57572223       1.23604402      -8.62633450
Si       4.91251899       2.72929027       6.69443744      -0.16697462       0.32224568      -0.52405686      -0.57565553       0.64658153      -0.28374768      -8.71536752
Si       2.99670298       3.87532714       0.35559140      -0.06473561      -1.48046381       0.22712488       0.45579801      -0.07837102       0.53370055      -8.70136609
Si       4.79942867       4.97940192       3.71801985      -0.66083478      -0.62680627      -0.49201549      -0.64470994      -0.10380488      -0.34865306      -8.75809834
Si       6.81845548       6.16698553       6.68302923       0.46752243       0.41648733      -0.92417486       0.33018633       0.62179729       0.92172821      -8.68252969
Si       4.83523889       7.38953855       0.44815134       0.80187059      -0.18101294       1.35082828      -0.09281040      -1.32569101       0.67807580      -8.66790016
Si       6.73347458       8.36329064       3.63356621      -1.22054839       0.45847719       0.27382110      -1.10945007      -0.53643613      -0.18117232      -8.71585964
Si       8.86812692       9.53727488       6.74725313      -1.67616820       1.68957717      -0.26348995      -1.52750126      -0.22964432      -0.13782787      -8.73593654
Si       4.94790044       0.44033196       0.25713265       0.46241631       0.30399052      -1.74520653      -0.57170484       0.78502180       0.61433346      -8.73668912
Si       6.76550082       1.66578870       3.47513206      -0.36031741       0.44501756       1.02058025      -1.63928481       1.20562556       0.34716781      -8.65830251
Si       8.49111515       2.82823966       6.54062390      -1.30207341      -0.97407288       1.22667239       1.07211161       0.06019758       1.09064309      -8.68226481
Si       6.66590681       4.05103888       0.40378870      -1.86408981       0.70303339      -0.04416500       0.00187715      -0.74931274       0.27438528      -8.74559857
Si       8.61869395       5.13319914       3.53200484       0.03165483       0.27268151      -0.87096284       0.18842369      -0.89604095      -1.12585118      -8.71441172
Si      10.64273757       5.98149523       6.60087571       0.64047103      -0.82620709       2.12434742      -0.12525414       0.13217523       0.26634691      -8.72312032
Si       8.66524204       7.17236445       0.42143325       0.74963907      -0.87946483      -1.40721884      -0.08923112       0.84217753      -0.64753424      -8.67221841
Si      10.41649880       8.33985056       3.49027324       0.95346568       0.40431834       0.38047176       1.34040596       0.56181861       0.83906059      -8.66920941
Si      12.56659949       9.43154761       6.64498867       1.48945283       0.53839138      -0.17112543      -0.67204030      -0.83199859       0.15107369      -8.68491985
Si       8.64727094       0.63881970       0.44794329      -1.05013786       0.80321283      -1.14870441      -0.02631334      -0.49544379       0.13999147      -8.70603194
Si      10.43524945       1.76508422       3.58549910       2.08732692       0.28136182       0.77562714       0.54246833      -0.52579157      -0.60613651      -8.68505842
Si      12.53897191       2.69982579       6.66496842       0.74122879      -0.27986148       0.84795029      -0.11400982      -0.71228676      -0.15244949      -8.74106255
Si      10.57387409       3.86158427       0.31518032       0.93553044      -0.39412989       0.18262313       0.01313244      -0.24987033       0.50630117      -8.72878338
Si      12.50393563       5.00413684       3.58093564      -0.27429773      -0.88432197      -0.47861025      -0.12384772      -0.44123576      -0.66189388      -8.73861513
Si      14.44381794       6.09030414       6.76503339       0.62640303      -1.39858561       0.16653368       0.02036593      -0.70938783      -0.19477523      -8.67261408
Si      12.49607667       7.05992336       0.40788932      -0.27024598       0.97289086      -0.57860613       0.05889777       0.90194694       0.19194455      -8.67834445
Si      14.29717750       8.23631461       3.58587122       1.14595243      -0.13635691      -0.25816276       0.75347928       0.76976061      -0.33656877      -8.73165117
Si      16.31602044       9.49703611       6.64864056      -0.57371365      -0.05838208      -0.78923591      -0.10150287      -0.71408372      -0.17877964      -8.76196934
P        1.10410846       0.45400072       0.40279281       0.80948999      -0.19999781       0.00854757      -1.66622677       1.06138445       0.16050873      -9.81518406
54
Lattice="11.5478352 0.0 0.0 5.773917198490155 10.000722372470358 0.0 5.773916394327279 3.333571176804646 9.428767828939895" Properties=species:S:1:pos:R:3:momenta:R:3:forces:R:3:energies:R:1 spacegroup="_JSON {\"number\": 1, \"setting\": 1}" unit_cell=conventional occupancy="_JSON {\"0\": {\"Si\": 1.0}, \"1\": {\"Si\": 1.0}, \"2\": {\"Si\": 1.0}, \"3\": {\"Si\": 1.0}, \"4\": {\"Si\": 1.0}, \"5\": {\"Si\": 1.0}, \"6\": {\"Si\": 1.0}, \"7\": {\"Si\": 1.0}, \"8\": {\"Si\": 1.0}, \"9\": {\"Si\": 1.0}, \"10\": {\"Si\": 1.0}, \"11\": {\"Si\": 1.0}, \"12\": {\"Si\": 1.0}, \"13\": {\"Si\": 1.0}, \"14\": {\"Si\": 1.0}, \"15\": {\"Si\": 1.0}, \"16\": {\"Si\": 1.0}, \"17\": {\"Si\": 1.0}, \"18\": {\"Si\": 1.0}, \"19\": {\"Si\": 1.0}, \"20\": {\"Si\": 1.0}, \"21\": {\"Si\": 1.0}, \"22\": {\"Si\": 1.0}, \"23\": {\"Si\": 1.0}, \"24\": {\"Si\": 1.0}, \"25\": {\"Si\": 1.0}, \"26\": {\"Si\": 1.0}, \"27\": {\"Si\": 1.0}, \"28\": {\"Si\": 1.0}, \"29\": {\"Si\": 1.0}, \"30\": {\"Si\": 1.0}, \"31\": {\"Si\": 1.0}, \"32\": {\"Si\": 1.0}, \"33\": {\"Si\": 1.0}, \"34\": {\"Si\": 1.0}, \"35\": {\"Si\": 1.0}, \"36\": {\"Si\": 1.0}, \"37\": {\"Si\": 1.0}, \"38\": {\"Si\": 1.0}, \"39\": {\"Si\": 1.0}, \"40\": {\"Si\": 1.0}, \"41\": {\"Si\": 1.0}, \"42\": {\"Si\": 1.0}, \"43\": {\"Si\": 1.0}, \"44\": {\"Si\": 1.0}, \"45\": {\"Si\": 1.0}, \"46\": {\"Si\": 1.0}, \"47\": {\"Si\": 1.0}, \"48\": {\"Si\": 1.0}, \"49\": {\"Si\": 1.0}, \"50\": {\"Si\": 1.0}, \"51\": {\"Si\": 1.0}, \"52\": {\"Si\": 1.0}, \"53\": {\"P\": 1.0}}" energy=-470.9915632038676 stress="0.0012877007911783667 0.0012390070170541182 0.0011698880858383347 0.0012390070170541182 0.0009284386855835015 -4.064001553877849e-05 0.0011698880858383347 -4.064001553877849e-05 0.0009453995742977824" free_energy=-470.9915632038676 pbc="T T T"
Si       6.69474630       3.99153665       2.76814819       0.92927109      -1.39359870      -0.21633417      -0.10592287      -0.47105371      -0.00990289      -8.74821242
Si       8.61977901       5.00864047       5.86070738       0.03765178      -0.40941737       1.56695309       0.82269610      -0.15282588      -0.35652350      -8.73242701
Si      10.61339843       6.04261777       9.01374334      -2.12327028       0.41855216       1.28330892       0.57047866       0.07645121      -0.03329968      -8.74078662
Si       8.54629249       7.31183693       2.70843720      -0.44604340       0.68192501      -0.54177291       0.40046976       0.11124432       0.01599863      -8.70779212
Si      10.60534473       8.25488152       5.88719469       1.48437406       1.03158815      -0.61355605       0.06459870       0.39500601       0.56382265      -8.63764566
Si      12.47109651       9.58947101       8.99950126      -0.54131047       0.95149221      -0.40243421       0.16263195      -0.57184916      -0.12882141      -8.73603415
Si      10.61262217      10.56507448       2.68105875      -0.00519420      -0.05466622       0.54136223      -0.27379932       0.14998814      -0.58975590      -8.69517609
Si      12.44392324      11.60212704       5.82204720      -1.17862116       0.12805667      -0.40296281       0.30689326      -0.10614844       0.17206217      -8.76326337
Si      14.45904539      12.74518957       8.97045599       0.49182213      -1.73228312      -0.14454250       0.41107289      -0.27239962       0.05816147      -8.58711353
Si      10.57628606       4.00474734       2.68545199       0.07285581       0.22609375       0.54990931      -0.48239790      -0.89836447       0.22603485      -8.74318445
Si      12.57320731       4.90594606       5.89709785       0.44714610       1.47740056       0.47139890       0.05855581      -0.35933446       0.08699897      -8.74118453
Si      14.33041761       6.14021308       9.07007947       0.39643063      -0.12476991      -0.99570209       0.00298953       1.05348082       0.28543566      -8.69485476
Si      12.38686171       7.21422721       2.81657741      -0.06950448      -0.27219715      -0.65572457       0.48023207      -0.35600102      -0.64074711      -8.70893002
Si      14.46989333       8.20232115       5.86358139       0.57453255      -0.65461445       0.01353395      -0.07873469       0.30122571       0.49202153      -8.74363749
Si      16.32623570       9.44984380       8.97939218       0.60523910       0.55594038       0.37468136       0.67581440      -0.78295733      -0.44455038      -8.73828819
Si      14.37496522      10.48849226       2.75160519       1.53769661      -0.60508496      -1.60305652       0.39631853       0.86585863       0.57128624      -8.66459858
Si      16.28138876      11.74150060       5.92435318       0.85772988       1.25624066      -0.50754972       0.16515324      -0.29753681       0.24964212      -8.71690833
Si      18.48231903      12.63605748       9.05023568       1.25643398      -0.58328880       0.95234552      -1.12377546       0.27632227      -0.68588183      -8.71490886
Si      14.44435311       3.94415778       2.67319161       0.02972905       0.55068218      -1.37603077      -0.19261045      -0.27508243       0.73817968      -8.73990520
Si      16.42402449       5.01670615       6.06383559      -1.78518574      -0.11447442      -0.09164543       0.36646285      -0.03857126      -0.78676512      -8.72553049
Si      18.42405481       6.05561685       9.12521266       0.50276162      -0.64907652      -1.25489848      -0.79960444      -0.15000685      -0.90076186      -8.49883365
Si      16.31301153       7.17716773       2.84770614       1.19696966       1.27930437      -0.67345758       0.15857355      -0.09048289       0.31580139      -8.73519968
Si      18.39095509       8.46332701       6.00327653       0.72673417      -0.64147084      -0.03982668      -0.76411487       0.10563974      -0.25198805      -8.70769748
Si      20.25144215       9.44798354       9.08289467      -0.30571737      -0.46095116       0.09309242       0.31158825       0.03887798       0.04444278      -8.67810747
Si      18.14582266      10.44955935       2.74991537       1.03891292       0.58377508       0.75174220       0.97938018       1.69477397       0.05552783      -8.47897956
Si      20.25064328      11.72114831       5.76675463      -0.50233843       0.56303637      -1.08162645       0.12767848       0.03068326       0.22915397      -8.72957959
Si      22.11179370      12.82422437       9.04892206      -0.13603381      -0.36848172       0.72137488       0.35242348       0.33436570       0.09917118      -8.50727507
Si       2.87888536       1.72015638       3.39877854      -1.73086292       0.01396089       1.94477195      -0.37998000      -0.86867979      -0.01368718      -8.66310040
Si       4.87770164       2.76564053       6.66483830      -1.17739612       0.90886425      -0.43291498      -0.62945615       0.03730245       0.38095342      -8.70669592
Si       3.00518918       3.80885117       0.38135751       0.18992463      -0.79257689       0.59357263      -0.33051070       0.94051101      -0.09972211      -8.72802004
Si       4.75017674       4.95081872       3.68129267      -0.95646579      -0.29237611      -0.87091243       0.36284660       0.54978028      -0.18683188      -8.69617965
Si       6.84397951       6.20499400       6.67453567       0.26591303       0.82017482       0.60821928      -0.57427737      -0.20814378       0.94022955      -8.70572396
Si       4.86437655       7.33482304       0.53212052       0.15572333      -1.68215083       1.52092880      -0.69078253      -0.47035905      -0.61643608      -8.70943087
Si       6.64092764       8.35680616       3.64272541      -1.95986731      -0.77027845       0.10138261       0.27632598      -0.75074214      -0.08076346      -8.74576933
Si       8.74584273       9.60302014       6.72583423      -2.46166378       0.61758275      -0.57456528       0.53038685      -0.99315938      -0.21288225      -8.73491453
Si       4.95163806       0.47627292       0.20354307      -0.25889543       0.82364301      -0.09620908      -0.34355036      -0.15491654       1.41429836      -8.62835774
Si       6.70492426       1.72035778       3.52802114      -1.46162315       1.26849413       0.69546412       0.21737113      -0.20504619      -0.79308396      -8.73608452
Si       8.46632138       2.78466817       6.63649538       0.31292383      -0.63431195       2.13308912       0.90633466       0.27567121      -0.07813399      -8.70865941
Si       6.58158102       4.05554635       0.40660720      -1.11294822      -0.52495029       0.04183234       0.94046041      -0.73062698      -0.14976439      -8.66875159
Si       8.62861947       5.11714581       3.46349374       0.34531068      -0.75201115      -1.32599515       0.17491172      -0.36896426       0.48220330      -8.74581960
Si      10.66127053       5.95499726       6.70811756      -0.07987279       0.03058423       1.68835504      -0.68765549       0.95857714      -0.80866183      -8.70417357
Si       8.69083254       7.16415715       0.34036022       0.05194342       0.58956262      -1.35104521      -0.73876582       0.89760238       0.64790493      -8.71465381
Si      10.50083136       8.37478833       3.53561445       1.88947782       0.75315760       1.15254577      -0.09802147      -0.11159668       0.07312168      -8.77362812
Si      12.61227657       9.42698832       6.63928264       0.16554423      -0.64755645      -0.10575211      -0.99703505      -0.57952943      -0.07485779      -8.69020079
Si       8.60453454       0.65451489       0.40084033      -0.31841534      -0.26828854      -0.53491782       0.97891092      -0.72026119       0.57037429      -8.75226796
Si      10.55039939       1.75923134       3.59130321       2.02108321      -0.46091472      -0.69909279      -0.58201908      -0.35399320      -1.14832207      -8.66487306
Si      12.57009750       2.67186582       6.70251251       0.39672022      -0.48740152       0.56615130      -0.30806079       0.43963205      -0.21926084      -8.71575874
Si      10.61948505       3.83647139       0.34003384       0.73924319      -0.45670203       0.67633730      -0.24388952       0.16647932       0.14976836      -8.68516136
Si      12.49002763       4.95447731       3.53638465      -0.14453468      -0.73545413      -1.04972540       0.30454376       0.62020913       0.00191419      -8.73567564
Si      14.47087582       6.00341242       6.76256883       0.26391449      -1.58444885      -0.29914302      -0.52816476       0.57875993      -0.33345350      -8.74716197
Si      12.48663754       7.13644112       0.39519724      -0.04236385       1.68745812       0.25246457       0.23912648      -0.11461367       0.80031795      -8.73163252
Si      14.37435345       8.25455561       3.55537207       1.53016455       0.70736144      -0.92726451      -0.27838259       0.28662608      -0.41026519      -8.74906097
Si      16.29147977       9.47164890       6.60619915      -0.17015230      -0.74514527      -0.69927550       0.64147054      -0.07969749       0.32517591      -8.71651160
P        1.08341294       0.47676739       0.41014621      -1.54589674       0.97401110       0.27311660      -1.15518908       0.34787537       0.06512117      -9.81724119
54
Lattice="11.5478352 0.0 0.0 5.773917198490155 10.000722372470358 0.0 5.773916394327279 3.333571176804646 9.428767828939895" Properties=species:S:1:pos:R:3:momenta:R:3:forces:R:3:energies:R:1 spacegroup="_JSON {\"number\": 1, \"setting\": 1}" unit_cell=conventional occupancy="_JSON {\"0\": {\"Si\": 1.0}, \"1\": {\"Si\": 1.0}, \"2\": {\"Si\": 1.0}, \"3\": {\"Si\": 1.0}, \"4\": {\"Si\": 1.0}, \"5\": {\"Si\": 1.0}, \"6\": {\"Si\": 1.0}, \"7\": {\"Si\": 1.0}, \"8\": {\"Si\": 1.0}, \"9\": {\"Si\": 1.0}, \"10\": {\"Si\": 1.0}, \"11\": {\"Si\": 1.0}, \"12\": {\"Si\": 1.0}, \"13\": {\"Si\": 1.0}, \"14\": {\"Si\": 1.0}, \"15\": {\"Si\": 1.0}, \"16\": {\"Si\": 1.0}, \"17\": {\"Si\": 1.0}, \"18\": {\"Si\": 1.0}, \"19\": {\"Si\": 1.0}, \"20\": {\"Si\": 1.0}, \"21\": {\"Si\": 1.0}, \"22\": {\"Si\": 1.0}, \"23\": {\"Si\": 1.0}, \"24\": {\"Si\": 1.0}, \"25\": {\"Si\": 1.0}, \"26\": {\"Si\": 1.0}, \"27\": {\"Si\": 1.0}, \"28\": {\"Si\": 1.0}, \"29\": {\"Si\": 1.0}, \"30\": {\"Si\": 1.0}, \"31\": {\"Si\": 1.0}, \"32\": {\"Si\": 1.0}, \"33\": {\"Si\": 1.0}, \"34\": {\"Si\": 1.0}, \"35\": {\"Si\": 1.0}, \"36\": {\"Si\": 1.0}, \"37\": {\"Si\": 1.0}, \"38\": {\"Si\": 1.0}, \"39\": {\"Si\": 1.0}, \"40\": {\"Si\": 1.0}, \"41\": {\"Si\": 1.0}, \"42\": {\"Si\": 1.0}, \"43\": {\"Si\": 1.0}, \"44\": {\"Si\": 1.0}, \"45\": {\"Si\": 1.0}, \"46\": {\"Si\": 1.0}, \"47\": {\"Si\": 1.0}, \"48\": {\"Si\": 1.0}, \"49\": {\"Si\": 1.0}, \"50\": {\"Si\": 1.0}, \"51\": {\"Si\": 1.0}, \"52\": {\"Si\": 1.0}, \"53\": {\"P\": 1.0}}" energy=-470.1832708969414 stress="-0.0007382854317398432 -0.0025370978714724887 -0.0013373301851650277 -0.0025370978714724887 0.0015289261717027227 -0.0012751709237004564 -0.0013373301851650277 -0.0012751709237004564 -0.0036786655088359146" free_energy=-470.1832708969414 pbc="T T T"
Si       6.72941113       3.91491837       2.75573064       0.25946895      -1.22106456      -0.28711553      -0.62649717       0.72267390      -0.11708130      -8.75708411
Si       8.64950870       4.98342157       5.92089744       0.94657656      -0.47414762       0.62291909       0.24523031       0.14356033      -0.78249390      -8.69265256
Si      10.53953891       6.06156500       9.07196150      -0.48422886       0.20230571       0.79231881       1.35105138      -0.30044493      -0.57884836      -8.73668842
Si       8.54364707       7.34796215       2.68580720       0.41561012       0.58768746      -0.20994293       0.68363888      -0.30440858       0.44879774      -8.63706499
Si      10.66994790       8.31588110       5.88751961       0.66169297       1.10870213       0.72518613      -1.18271790      -0.32840411       0.93285783      -8.64114382
Si      12.45244174       9.60652797       8.97663487      -0.13408520      -0.45819900      -0.40276313       0.30596569      -1.18405773       0.13320617      -8.68236926
Si      10.59605014      10.57247363       2.68908203      -0.69504516       0.36735239      -0.14487465      -0.53640161       0.26899016      -0.22662197      -8.68909557
Si      12.40123811      11.60742105       5.81810823      -0.35300601       0.12815540       0.38850009       0.68287473       0.10318372       0.69037317      -8.72462988
Si      14.49303404      12.66589447       8.97620122       0.66900673      -0.85037532       0.52475738      -0.13067135       1.43235465       0.66802065      -8.51268041
Si      10.56496154       3.97677564       2.71648707      -0.38102183      -1.30372916       0.52269350      -0.00264090      -0.91938626      -0.20765449      -8.77506258
Si      12.58834349       4.95746466       5.91957393      -0.09639346       0.33934427       0.27743300      -0.80667265      -0.93405357      -0.33075822      -8.68439452
Si      14.34953771       6.16847529       9.03483903       0.32921211       1.00196829      -0.26081692      -0.00904124       0.28268561       0.61820121      -8.67180655
Si      12.40878144       7.19139321       2.76540974       0.96618124      -0.46170475      -1.08554543       0.71949401       0.18040096       0.19325614      -8.72565604
Si      14.49332143       8.17808399       5.87561420       0.24906145      -0.26083741       0.27764037      -0.34444819       0.34191571      -0.15565316      -8.70817898
Si      16.37878549       9.44855303       8.98012436       1.23495079      -0.53611327      -0.30113411       0.05154074      -0.52155456      -0.27419587      -8.69851563
Si      14.45871056      10.49957644       2.70009906       1.44095249       1.09893941      -0.22774896      -0.47256926       1.14150529       1.08941824      -8.62633208
Si      16.32768683      11.78419070       5.90689631       0.81609869       0.18232604      -0.21841089      -0.19337680      -1.03757900       0.02757907      -8.67400872
Si      18.49596326      12.62817958       9.06751172      -0.80835103       0.48093734      -0.31914033      -1.40074434       1.02585538      -0.76500492      -8.68418057
Si      14.43416490       3.95299810       2.64192738      -0.46438817      -0.35091135       0.35022042      -0.36103950      -0.80396469       1.36287501      -8.71366343
Si      16.36267022       5.01218723       6.02423151      -0.31355391      -0.00431656      -1.43624375       1.28629141       0.17435178      -0.83396621      -8.67936824
Si      18.41808426       6.02327860       9.03885840      -0.73336302      -0.43841940      -1.68392623      -0.81404080       0.40648141       0.49286788      -8.55640997
Si      16.36613909       7.22231106       2.83056281       0.51433138       0.14929329       0.03597489      -1.02686503      -1.20754135       0.37202004      -8.73483229
Si      18.38807503       8.43308308       5.98785438      -0.95378721      -0.55426916      -0.58452877      -1.18903478      -0.04646052      -0.37631976      -8.73241995
Si      20.24317778       9.42761137       9.08886810      -0.11229926      -0.25968282       0.09851780      -0.09089734       0.25672653      -0.10280941      -8.65277408
Si      18.23029360      10.52684802       2.78941839       1.93925034       1.88650701       0.67537139      -0.00374172      -0.15538272      -0.27288238      -8.56791386
Si      20.22693406      11.74871884       5.73521511      -0.45176399       0.39754975       0.17178032      -0.06740733      -0.31880498       1.32970818      -8.73093451
Si      22.11463759      12.81102614       9.08776378       0.17126086      -0.27111667       0.69436422       0.06578181      -0.20113141      -0.16525597      -8.52044205
Si       2.79103697       1.69634567       3.47970336      -1.23596815      -0.68632715       0.80878339       1.13870812       0.06038362      -1.26293875      -8.66923463
Si       4.79967444       2.80506840       6.66080116      -1.59214869       0.43763889       0.31979533       0.17684939      -0.56219562       0.54198970      -8.70397371
Si       2.98641146       3.80797584       0.40077311      -1.13776226       0.75785036       0.02688282      -1.18960329       0.91358740      -0.55897459      -8.69312797
Si       4.72592534       4.95979330       3.62986613       0.20190211       0.62808111      -1.05754557       1.01778682       0.51231110      -0.06252457      -8.64761717
Si       6.83276573       6.22713348       6.72987427      -0.68263322      -0.19081934       1.15913931      -0.54371662      -1.03474322      -0.41513818      -8.70128586
Si       4.84557502       7.24283151       0.57098728      -0.82162737      -1.58107104      -0.28104630      -0.48365128       0.49447494      -1.53010898      -8.69592518
Si       6.57220413       8.30601545       3.64514828      -0.21993951      -0.75617480      -0.00958415       1.95064913       0.79990487      -0.09912033      -8.67268717
Si       8.65763742       9.60128295       6.69037654      -0.60200745      -0.57037356      -0.70452672       1.68099186      -0.57287179       0.06766626      -8.65552489
Si       4.92793542       0.50397719       0.25173600      -0.59843346       0.10774334       1.83688652      -0.15472029      -0.63776099       1.01733501      -8.61461860
Si       6.65184062       1.76276530       3.52917999      -0.35016713       0.07671376      -0.62886267       1.06774382      -1.26551494      -0.70645032      -8.69676898
Si       8.50894358       2.75973383       6.72564585       1.15232508      -0.35970081       0.92490278       0.27831737       0.10744954      -1.38402417      -8.71483770
Si       6.56511553       4.00696229       0.40043302       0.55282652      -1.17377929      -0.29644445       1.19458943      -0.12459003      -0.22567006      -8.64630657
Si       8.64945518       5.07349913       3.42436201       0.35130993      -0.73385363      -0.00591113      -0.20030680       0.32377247       1.11590079      -8.70142257
Si      10.63407647       5.99657998       6.75967632      -0.83100922       1.54799329       0.22311721      -0.20051450       0.92288731      -1.01736321      -8.68526575
Si       8.66901832       7.21338134       0.30193783      -0.73121086       0.88298727      -0.02317117      -0.16268578      -0.65637882       1.00689682      -8.74435744
Si      10.58524292       8.40399362       3.58660101       1.18230315       0.26983947       0.57834094      -0.68885872      -0.47006443      -0.74903269      -8.74462859
Si      12.58835986       9.38156061       6.62977745      -0.88388318      -0.85188253      -0.24172309      -0.22764040       0.33531765      -0.01317125      -8.73236953
Si       8.62958271       0.62276192       0.39165389       1.24545926      -0.71563567       0.08612024       0.85331414       0.15072720       0.19480891      -8.77321481
Si      10.62464968       1.72846842       3.51967948       0.66635458      -0.57223576      -1.75414556      -1.12401206       0.18294642      -0.06559397      -8.70132334
Si      12.57876687       2.67229051       6.72331343      -0.07319660       0.61721803       0.20557852      -0.34139988       0.88678603      -0.30481351      -8.70941460
Si      10.64768645       3.82248141       0.37633979       0.31443812      -0.02498609       0.60419894      -0.33018096       0.36925485      -0.25903364      -8.66694048
Si      12.49573761       4.94603935       3.49114695       0.32982672       0.45280412      -0.50863389       0.17138888       0.76614172       0.65632329      -8.71554009
Si      14.46143506       5.95779086       6.73828296      -0.59694598       0.06638621      -0.52910914      -0.40619869       1.42296168       0.03320008      -8.75267105
Si      12.49431449       7.20417142       0.43624979       0.33715888       0.63232837       1.15046123       0.24884958      -1.11002046       0.14204135      -8.75647407
Si      14.43462042       8.29559697       3.49838630       0.63534610       0.73975013      -1.06652015      -0.79659024      -0.17250086       0.28265393      -8.70253856
Si      16.31176110       9.43951802       6.58677513       0.95428618      -0.31502754       0.02173938       0.66548306       0.56361774       0.56676748      -8.69127973
P        0.98578499       0.52430523       0.42184521      -2.19897113       0.82835143       0.16579156       0.27234683      -0.42339437      -0.14126075      -9.78361876
54
Lattice="11.5478352 0.0 0.0 5.773917198490155 10.000722372470358 0.0 5.773916394327279 3.333571176804646 9.428767828939895" Properties=species:S:1:pos:R:3:momenta:R:3:forces:R:3:energies:R:1 spacegroup="_JSON {\"number\": 1, \"setting\": 1}" unit_cell=conventional occupancy="_JSON {\"0\": {\"Si\": 1.0}, \"1\": {\"Si\": 1.0}, \"2\": {\"Si\": 1.0}, \"3\": {\"Si\": 1.0}, \"4\": {\"Si\": 1.0}, \"5\": {\"Si\": 1.0}, \"6\": {\"Si\": 1.0}, \"7\": {\"Si\": 1.0}, \"8\": {\"Si\": 1.0}, \"9\": {\"Si\": 1.0}, \"10\": {\"Si\": 1.0}, \"11\": {\"Si\": 1.0}, \"12\": {\"Si\": 1.0}, \"13\": {\"Si\": 1.0}, \"14\": {\"Si\": 1.0}, \"15\": {\"Si\": 1.0}, \"16\": {\"Si\": 1.0}, \"17\": {\"Si\": 1.0}, \"18\": {\"Si\": 1.0}, \"19\": {\"Si\": 1.0}, \"20\": {\"Si\": 1.0}, \"21\": {\"Si\": 1.0}, \"22\": {\"Si\": 1.0}, \"23\": {\"Si\": 1.0}, \"24\": {\"Si\": 1.0}, \"25\": {\"Si\": 1.0}, \"26\": {\"Si\": 1.0}, \"27\": {\"Si\": 1.0}, \"28\": {\"Si\": 1.0}, \"29\": {\"Si\": 1.0}, \"30\": {\"Si\": 1.0}, \"31\": {\"Si\": 1.0}, \"32\": {\"Si\": 1.0}, \"33\": {\"Si\": 1.0}, \"34\": {\"Si\": 1.0}, \"35\": {\"Si\": 1.0}, \"36\": {\"Si\": 1.0}, \"37\": {\"Si\": 1.0}, \"38\": {\"Si\": 1.0}, \"39\": {\"Si\": 1.0}, \"40\": {\"Si\": 1.0}, \"41\": {\"Si\": 1.0}, \"42\": {\"Si\": 1.0}, \"43\": {\"Si\": 1.0}, \"44\": {\"Si\": 1.0}, \"45\": {\"Si\": 1.0}, \"46\": {\"Si\": 1.0}, \"47\": {\"Si\": 1.0}, \"48\": {\"Si\": 1.0}, \"49\": {\"Si\": 1.0}, \"50\": {\"Si\": 1.0}, \"51\": {\"Si\": 1.0}, \"52\": {\"Si\": 1.0}, \"53\": {\"P\": 1.0}}" energy=-471.2056307652207 stress="-0.00115045910900269 -0.0030103419985097416 -0.0018794351216108408 -0.0030103419985097416 0.00033979778673135354 -0.0005247892245623569 -0.0018794351216108408 -0.0005247892245623569 -0.002407322041373916" free_energy=-471.2056307652207 pbc="T T T"
Si       6.72232389       3.88650743       2.73566225      -0.41134407       0.17765097      -0.45682448      -0.15665599       0.86243083      -0.03493678      -8.76261772
Si       8.69783452       4.96879231       5.92470760       0.70730093      -0.00989800      -0.42358784      -0.48951054       0.42708861      -0.55751239      -8.70268847
Si      10.55564422       6.06287840       9.09091153       0.81419334      -0.07268741      -0.04347610       0.26562397      -0.00314299      -0.48291697      -8.75360663
Si       8.59225753       7.36075663       2.69627526       1.42960249      -0.21814433       0.66005663       0.64080684      -0.76744218       0.63615437      -8.68113053
Si      10.64977296       8.35522508       5.94834055      -1.46918796       0.33289898       1.26181111      -1.27004287      -0.54034229      -0.35320229      -8.74846022
Si      12.45534861       9.53819055       8.96328105       0.20384635      -2.05620850      -0.06128377       0.14818884      -0.81178991       0.30868821      -8.70683561
Si      10.54337843      10.59628384       2.68319105      -1.15712837       0.39914364       0.14600523       0.09153164      -0.28202990       0.65210681      -8.73887349
Si      12.40684394      11.61943311       5.85970571       0.49933239       0.33701313       1.04173723       0.42001263       0.13221950       0.08810736      -8.70227292
Si      14.51722346      12.68372704       9.02530652       0.12069727       1.47894567       1.20858728      -0.65325155       1.21559840       0.13453685      -8.47731708
Si      10.55277295       3.88770703       2.73431767       0.02506003      -1.71173455       0.14070219       0.41647087       0.56684241      -0.27434936      -8.76880169
Si      12.54784588       4.94801106       5.91948785      -1.43178166      -0.42479937      -0.28609974      -0.73925155       0.14997772      -0.35230583      -8.69975269
Si      14.37139075       6.21807816       9.04211150       0.62149978       0.63247838       0.43276431       0.44606465      -0.72689438       0.19979007      -8.68944528
Si      12.48098143       7.18228184       2.72980678       1.62194012       0.24690055      -0.04683031       0.07028576       0.68580476       1.03267626      -8.75677674
Si      14.49259566       8.18413690       5.87835911      -0.26252624       0.63879838      -0.25101498      -0.28696918       0.90169283      -0.46029841      -8.69037353
Si      16.43703899       9.40915506       8.96343246       0.84139580      -0.78812523      -0.13683081      -0.52383852       0.18292424       0.49542080      -8.67106584
Si      14.50729160      10.58892471       2.72411831       0.24277647       1.97581747       0.94955552      -1.11551404      -0.16390230       0.32323121      -8.70685765
Si      16.36180678      11.75294053       5.89111005       0.48125358      -1.32228634      -0.46623186      -0.20710308      -0.82005489      -0.29237387      -8.65689990
Si      18.40959336      12.68990498       9.03531143      -2.22388906       1.72131081      -0.59243253      -0.37195642       0.44234987       0.44357040      -8.71643035
Si      14.40105695       3.90728118       2.70423051      -0.66027255      -1.22655389       1.75898753       0.16825068      -0.13476382       0.32501693      -8.73306768
Si      16.38620469       5.01919956       5.92728237       0.93153291       0.24427930      -2.00053735       0.20264818       0.05812217       0.17076223      -8.72322525
Si      18.34991486       6.01812080       8.98800147      -1.81513131       0.25000972      -0.00469385      -0.59944518       0.44188923       1.41605569      -8.56549049
Si      16.35467247       7.19073767       2.83610797      -0.77392984      -1.04899846      -0.03840249      -0.36164054      -0.03074119      -0.46319008      -8.77395083
Si      18.30777415       8.39928175       5.94825544      -1.69511052      -0.78189041      -0.78821763       0.40111267      -0.23765746       0.14065361      -8.76332159
Si      20.22820003       9.42650261       9.08445529      -0.54440234       0.25218151      -0.39150911      -0.41608762       0.38111495      -0.58463513      -8.71447752
Si      18.30977705      10.59683739       2.80541106       0.70544860       0.44951987      -0.21624737      -1.42900693      -1.42187451      -0.82673264      -8.50736518
Si      20.19859298      11.75177930       5.79261855      -0.64260282      -0.37254685       1.83551597      -0.11153131      -0.66550458       0.64246763      -8.73798920
Si      22.12412391      12.78370153       9.11329169       0.17032398      -0.84257124       0.18919087      -0.01507165      -0.47091326      -0.50686024      -8.57439383
Si       2.78814018       1.67703146       3.48202108       1.34413666       0.15705797      -0.42083801       1.89696788       0.82022548      -0.13394810      -8.69433167
Si       4.73470068       2.80860594       6.69550888      -0.67333914      -0.20018773       0.91150550       0.99619725      -0.17218312       0.17197782      -8.71254718
Si       2.89055200       3.86903092       0.38404418      -2.21637301       1.24774373      -0.52491500      -0.03856087      -0.33224805      -0.01447062      -8.73913749
Si       4.77136680       5.00148363       3.57227094       1.36179870       0.68797740      -1.12730992       0.35173336      -0.55309391      -0.01068645      -8.71980119
Si       6.78210568       6.17697626       6.75313837      -1.10981541      -1.65439500      -0.59275794       0.01195634      -0.76932099      -1.60707296      -8.69254430
Si       4.79337130       7.18285992       0.50571908      -0.95451914      -0.67233930      -1.94048728       0.35198570       0.61770030      -0.49725100      -8.72180731
Si       6.63460074       8.30377445       3.63472916       2.35704124       0.65297413      -0.54990258       1.02426520       0.75219720      -0.70047609      -8.68653772
Si       8.68258444       9.55204851       6.65943336       1.24074606      -1.26260713      -0.40455920       0.44685231      -0.36528928       0.35283048      -8.68196933
Si       4.89104955       0.49036249       0.37323439      -0.79720334      -0.45589421       2.46375193      -0.10863489       0.03135161      -0.28595207      -8.72331550
Si       6.67397103       1.71797457       3.48139899       1.11173775      -1.64794031      -0.93992806       0.72223801      -0.71174540       0.28338818      -8.72088666
Si       8.57696677       2.74388000       6.72193220       1.39609813      -0.25083772      -0.92305666       0.08742332       0.08556453      -0.83230403      -8.75120027
Si       6.63505418       3.94694479       0.37918782       1.94007190      -1.00606277      -0.43489674       0.49610631       0.29853541       0.08396643      -8.72845656
Si       8.65725701       5.04915428       3.46456269      -0.07228998      -0.20958166       1.42636278      -0.27096774       0.26861411       0.66299796      -8.69176502
Si      10.59122956       6.10380505       6.73851180      -0.66260081       2.27802027      -0.86139961       0.34186578      -0.12223622      -0.34892489      -8.72346661
Si       8.63367573       7.22143948       0.33519177      -0.46000629      -0.65722769       1.14134840       0.45590646      -0.97054813       0.41432353      -8.72664673
Si      10.62140864       8.40000477       3.58761680       0.22735336      -0.39462942      -0.47672843      -0.56435970      -0.35842522      -0.50319270      -8.68339179
Si      12.54832219       9.35907359       6.62107678      -0.40374641       0.12086683      -0.01299046       0.67109015       0.81354154       0.27397080      -8.73519920
Si       8.71238873       0.59890503       0.39904084       1.56213429      -0.07628339       0.14217871      -0.50335113       0.61508961      -0.01698285      -8.73446270
Si      10.62209113       1.70690758       3.44340062      -0.55433663      -0.27260351      -0.81571189      -0.30587263       0.09970070       1.25589273      -8.73452562
Si      12.55945125       2.73511176       6.72004860      -0.71990707       1.63562360      -0.36286175      -0.55319193       0.31427913      -0.41537339      -8.77037542
Si      10.65045311       3.83496146       0.39440140      -0.23004251       0.47270342       0.04262091      -0.40862630       0.25628625      -0.41134032      -8.70723261
Si      12.51128538       4.98968737       3.49289477       0.10669985       0.97705790       0.60472428      -0.42437529      -0.14515203       0.76227788      -8.71778043
Si      14.42536725       6.00981442       6.71299363      -0.58205537       1.68698200      -0.44324555       0.34234080       0.52464771       0.01022036      -8.77470553
Si      12.52040164       7.19959339       0.48154093       0.61155289      -0.60800353       0.18238124       0.05725427      -0.34572237      -1.34338489      -8.75567787
Si      14.43978086       8.32794569       3.46102888      -0.33317638       0.53184972      -0.23358320      -0.37397586      -0.02600980       0.76745937      -8.68644530
Si      16.37554948       9.44571712       6.60758524       1.18746639       0.52491629       0.70272736      -0.45611373       0.45311190       0.29649328      -8.74341305
P        0.90369953       0.54730793       0.42574519      -1.00632307       0.13431630       0.02687748       1.22972719      -0.44987285      -0.03436290      -9.72451978
54
Lattice="11.5478352 0.0 0.0 5.773917198490155 10.000722372470358 0.0 5.773916394327279 3.333571176804646 9.428767828939895" Properties=species:S:1:pos:R:3:momenta:R:3:forces:R:3:energies:R:1 spacegroup="_JSON {\"number\": 1, \"setting\": 1}" unit_cell=conventional occupancy="_JSON {\"0\": {\"Si\": 1.0}, \"1\": {\"Si\": 1.0}, \"2\": {\"Si\": 1.0}, \"3\": {\"Si\": 1.0}, \"4\": {\"Si\": 1.0}, \"5\": {\"Si\": 1.0}, \"6\": {\"Si\": 1.0}, \"7\": {\"Si\": 1.0}, \"8\": {\"Si\": 1.0}, \"9\": {\"Si\": 1.0}, \"10\": {\"Si\": 1.0}, \"11\": {\"Si\": 1.0}, \"12\": {\"Si\": 1.0}, \"13\": {\"Si\": 1.0}, \"14\": {\"Si\": 1.0}, \"15\": {\"Si\": 1.0}, \"16\": {\"Si\": 1.0}, \"17\": {\"Si\": 1.0}, \"18\": {\"Si\": 1.0}, \"19\": {\"Si\": 1.0}, \"20\": {\"Si\": 1.0}, \"21\": {\"Si\": 1.0}, \"22\": {\"Si\": 1.0}, \"23\": {\"Si\": 1.0}, \"24\": {\"Si\": 1.0}, \"25\": {\"Si\": 1.0}, \"26\": {\"Si\": 1.0}, \"27\": {\"Si\": 1.0}, \"28\": {\"Si\": 1.0}, \"29\": {\"Si\": 1.0}, \"30\": {\"Si\": 1.0}, \"31\": {\"Si\": 1.0}, \"32\": {\"Si\": 1.0}, \"33\": {\"Si\": 1.0}, \"34\": {\"Si\": 1.0}, \"35\": {\"Si\": 1.0}, \"36\": {\"Si\": 1.0}, \"37\": {\"Si\": 1.0}, \"38\": {\"Si\": 1.0}, \"39\": {\"Si\": 1.0}, \"40\": {\"Si\": 1.0}, \"41\": {\"Si\": 1.0}, \"42\": {\"Si\": 1.0}, \"43\": {\"Si\": 1.0}, \"44\": {\"Si\": 1.0}, \"45\": {\"Si\": 1.0}, \"46\": {\"Si\": 1.0}, \"47\": {\"Si\": 1.0}, \"48\": {\"Si\": 1.0}, \"49\": {\"Si\": 1.0}, \"50\": {\"Si\": 1.0}, \"51\": {\"Si\": 1.0}, \"52\": {\"Si\": 1.0}, \"53\": {\"P\": 1.0}}" energy=-471.38041778625825 stress="-0.002313299155562197 0.002180068149737278 0.0011812382528126055 0.002180068149737278 -0.0036302158253652835 0.0003705134416686407 0.0011812382528126055 0.0003705134416686407 0.0017245471126435474" free_energy=-471.38041778625825 pbc="T T T"
Si       6.70612159       3.91517073       2.71334588       0.02695883       0.60365307      -0.34456508       0.74628174      -0.34180458       0.15782079      -8.73175329
Si       8.71416292       4.98356171       5.88901874      -0.07163584       0.50927029      -0.73930349      -0.43811059       0.17235288       0.22198776      -8.75079222
Si      10.59607202       6.06320872       9.07365506       0.53523278       0.15201724      -0.53134159      -0.49923324       0.26181805      -0.14742636      -8.65272015
Si       8.68781869       7.31593581       2.75113226       2.07138732      -1.53318827       1.29257812       0.06847562      -0.92302845       0.09113730      -8.77172442
Si      10.55017535       8.35943620       5.98411101      -1.70295752      -0.01474376      -0.18246441       1.11107077       0.05680435      -1.45367408      -8.73782613
Si      12.47094668       9.41153134       8.97220788       0.38811396      -2.47273497       0.38582760       0.13598178       0.36528142       0.24307025      -8.74775991
Si      10.50261522      10.59864488       2.72296319      -0.05828754      -0.44487786       1.40684904       1.38495900      -0.80197027       0.78042370      -8.72829643
Si      12.44536132      11.64116460       5.90890973       0.90342402       0.47483990       0.67995808       0.16064645       0.07225244      -0.51294856      -8.69608822
Si      14.49241703      12.78510550       9.08472420      -1.12839890       1.92015391       0.88046462      -0.87003809      -0.59167073      -0.55379976      -8.49453095
Si      10.56762147       3.83846700       2.73275166       0.46072323       0.08543647      -0.14139143       0.10707714       1.51540527      -0.03206075      -8.70236578
Si      12.45544518       4.95202097       5.89438198      -1.84528160       0.90684548      -0.57345339       0.22141766       1.39703158       0.04590537      -8.72919445
Si      14.42579971       6.21673711       9.06262890       1.47147693      -0.74732332       0.15513593       0.49429869      -0.96466559      -0.55719364      -8.72526974
Si      12.55828371       7.21928726       2.75996680       1.11627354       1.03828248       0.94400992      -0.73988003       0.19565092       0.07702112      -8.77225757
Si      14.47121473       8.25625416       5.85007508      -0.47375035       2.10752979      -0.72094168       0.02299452       0.87521622      -0.03358029      -8.71825014
Si      16.45741366       9.38242759       8.98047343      -0.12079351      -0.09425187       0.81747683      -0.73971189       0.71754205       0.60998463      -8.69422799
Si      14.47861597      10.66611541       2.77160054      -1.15870043       0.62277412       0.59353383      -0.39614931      -1.49071637      -0.71250887      -8.72675667
Si      16.38154761      11.66394609       5.85618973       0.31865635      -1.78612221      -0.80516406      -0.02385910       0.28742151      -0.04992080      -8.71420417
Si      18.29379874      12.78486568       9.02894425      -1.90883038       1.66519550       0.38685019       0.72628368      -0.46900489       0.59458017      -8.66675110
Si      14.37888435       3.85705712       2.79185284      -0.10426506      -0.31062897       1.27838135       0.48205142       1.29684656      -0.85447356      -8.69213730
Si      16.42456804       5.02740620       5.83878123       0.18660452      -0.07970281      -1.24106550      -1.14344971      -0.51197887       0.68629254      -8.71106039
Si      18.23788958       6.04429091       9.02733995      -2.27080385       0.63365976       1.10022177       0.13744763      -0.01105025      -0.11844591      -8.58800782
Si      16.31599551       7.15702951       2.80888502      -0.43817059       0.09583818      -1.08595863       0.67489033       1.23766214      -0.78733592      -8.68685285
Si      18.25186045       8.34801341       5.91495855      -0.21899068      -1.15743869      -0.47864779       1.24299937      -0.16932484       0.15799982      -8.70645240
Si      20.18625381       9.45065502       9.03726520      -0.93915319       0.54445423      -1.42541605       0.03368397      -0.10604856      -0.63335732      -8.75959260
Si      18.30138842      10.57571975       2.76588833      -0.68840578      -0.93902778      -1.15804610      -0.17537463      -0.22126183      -0.32318677      -8.57541714
Si      20.16471123      11.70830383       5.89962192      -0.54878711      -1.18623859       1.99411397       0.26654521      -0.27255602      -0.33956209      -8.70850653
Si      22.13363638      12.72595222       9.10318203       0.21212775      -1.19383063      -0.53854729       0.05849114       0.17460443      -0.36205037      -8.61306063
Si       2.90566365       1.70577022       3.47228976       2.46299412       0.64488635       0.34753682      -0.65595126      -0.26916463       1.04146077      -8.72086741
Si       4.73958104       2.79833506       6.74155369       0.81894613      -0.09367305       0.66406207       0.83291724       0.20792815      -0.52869578      -8.71454790
Si       2.78899458       3.91046864       0.36671880      -1.38703174       0.19739788       0.03437477       1.00968834      -0.85827295       0.63913096      -8.66725501
Si       4.84111382       5.00506964       3.51436194       0.99046361      -0.64437992      -1.03834750      -0.84287415      -0.88363687       0.14435630      -8.76560060
Si       6.73273140       6.07138656       6.67294814      -0.60787738      -2.10993636      -2.06368565       0.64282715       0.25452961      -0.08452021      -8.73538154
Si       4.76483931       7.16491590       0.40089893      -0.03245762      -0.17797094      -1.77490998       0.73877598      -0.03256532       0.60061951      -8.72266107
Si       6.77275864       8.35404733       3.57654779       2.45881184       0.98813503      -1.61146916      -0.73858088      -0.33676828      -0.48712658      -8.70854438
Si       8.73540073       9.47803419       6.65589976       0.19793256      -1.38893367       0.33587511      -1.76545515       0.27897378       0.58649857      -8.68888222
Si       4.84511090       0.48045083       0.47720560      -0.95830776       0.30603125       1.29854668      -0.13152296       0.91488815      -1.05746051      -8.76214089
Si       6.74407011       1.62592693       3.45283783       1.17195041      -1.41071655       0.02958893      -0.78909690       1.03531951       0.98725480      -8.67689858
Si       8.65237232       2.73625063       6.65679290       1.43374786       0.01428860      -1.27219340      -0.09076483       0.29179860       0.29719884      -8.73252605
Si       6.74073443       3.90497494       0.36436199       1.79636483      -0.66091365      -0.05066996      -0.62740065       0.02456972       0.38646734      -8.78152732
Si       8.64681388       5.04322850       3.55194186      -0.24034715      -0.12136757       1.60997406       0.06296474      -0.14473783      -0.49293911      -8.70787045
Si      10.56939937       6.19995158       6.69086770      -0.21272738       1.04632023      -0.75228215       0.17564353      -1.41742119       0.44065634      -8.72266353
Si       8.62958830       7.16443808       0.40012631       0.31256781      -1.21189731       1.14790425       0.48377676       0.20394335      -0.31079603      -8.66942243
Si      10.61629805       8.37016482       3.55334577      -0.29754447      -0.63947092      -0.61727550      -0.06079384       0.04422386       0.32653187      -8.66098852
Si      12.54726585       9.39184829       6.63024739       0.17386539       0.98553012       0.33235619      -0.03902849       0.26745165       0.16531394      -8.74068174
Si       8.76250497       0.61721150       0.40742439       0.19097689       0.67714819       0.20372209      -1.11554863       0.21959815       0.07579900      -8.66638436
Si      10.59552211       1.69153398       3.45488704      -0.25442636      -0.38537291       1.24087456       0.47819123      -0.16951503       1.17518869      -8.73795263
Si      12.49911595       2.81897541       6.68889436      -1.55414037       1.28494056      -0.70711806      -0.43818916      -0.74090224       0.03687671      -8.78585569
Si      10.62211160       3.86676400       0.38553528      -0.84631935       0.68762469      -0.24693342      -0.38506946       0.05807890       0.10980546      -8.76584317
Si      12.49941828       5.02571176       3.54888095      -0.52788041       0.27883697       1.36439231      -0.30550448      -0.59155137       0.10158018      -8.73319332
Si      14.40968136       6.10205706       6.68741145      -0.01754153       1.55090252      -0.58161906       0.34623945      -0.55423679      -0.18738619      -8.69698928
Si      12.54874311       7.17009232       0.44048022       0.33922617      -0.21635451      -1.54716210      -0.44136703       0.83407530      -0.58655546      -8.74014444
Si      14.41944568       8.36007816       3.47849763      -0.20821961       0.78730841       0.84989859       0.53262448       0.33389739       0.55767999      -8.71272771
Si      16.40985084       9.48188890       6.65125558       0.01401976       0.62261854       0.87332197      -0.86456971      -0.45678516      -0.05142876      -8.76037446
P        0.89974414       0.53967903       0.42623102       0.76918684      -0.41082269      -0.01785722       0.93827917      -0.26452703      -0.08020902      -9.80063610
54
Lattice="11.5478352 0.0 0.0 5.773917198490155 10.000722372470358 0.0 5.773916394327279 3.333571176804646 9.428767828939895" Properties=species:S:1:pos:R:3:momenta:R:3:forces:R:3:energies:R:1 spacegroup="_JSON {\"number\": 1, \"setting\": 1}" unit_cell=conventional occupancy="_JSON {\"0\": {\"Si\": 1.0}, \"1\": {\"Si\": 1.0}, \"2\": {\"Si\": 1.0}, \"3\": {\"Si\": 1.0}, \"4\": {\"Si\": 1.0}, \"5\": {\"Si\": 1.0}, \"6\": {\"Si\": 1.0}, \"7\": {\"Si\": 1.0}, \"8\": {\"Si\": 1.0}, \"9\": {\"Si\": 1.0}, \"10\": {\"Si\": 1.0}, \"11\": {\"Si\": 1.0}, \"12\": {\"Si\": 1.0}, \"13\": {\"Si\": 1.0}, \"14\": {\"Si\": 1.0}, \"15\": {\"Si\": 1.0}, \"16\": {\"Si\": 1.0}, \"17\": {\"Si\": 1.0}, \"18\": {\"Si\": 1.0}, \"19\": {\"Si\": 1.0}, \"20\": {\"Si\": 1.0}, \"21\": {\"Si\": 1.0}, \"22\": {\"Si\": 1.0}, \"23\": {\"Si\": 1.0}, \"24\": {\"Si\": 1.0}, \"25\": {\"Si\": 1.0}, \"26\": {\"Si\": 1.0}, \"27\": {\"Si\": 1.0}, \"28\": {\"Si\": 1.0}, \"29\": {\"Si\": 1.0}, \"30\": {\"Si\": 1.0}, \"31\": {\"Si\": 1.0}, \"32\": {\"Si\": 1.0}, \"33\": {\"Si\": 1.0}, \"34\": {\"Si\": 1.0}, \"35\": {\"Si\": 1.0}, \"36\": {\"Si\": 1.0}, \"37\": {\"Si\": 1.0}, \"38\": {\"Si\": 1.0}, \"39\": {\"Si\": 1.0}, \"40\": {\"Si\": 1.0}, \"41\": {\"Si\": 1.0}, \"42\": {\"Si\": 1.0}, \"43\": {\"Si\": 1.0}, \"44\": {\"Si\": 1.0}, \"45\": {\"Si\": 1.0}, \"46\": {\"Si\": 1.0}, \"47\": {\"Si\": 1.0}, \"48\": {\"Si\": 1.0}, \"49\": {\"Si\": 1.0}, \"50\": {\"Si\": 1.0}, \"51\": {\"Si\": 1.0}, \"52\": {\"Si\": 1.0}, \"53\": {\"P\": 1.0}}" energy=-471.05985604237685 stress="-0.0021739711616542024 0.002899187575223115 0.001870387192947307 0.002899187575223115 -0.0027859444011798826 0.0004887151408502401 0.001870387192947307 0.0004887151408502401 -0.001184898011017967" free_energy=-471.05985604237685 pbc="T T T"
Si       6.74072510       3.92258428       2.70283981       1.25901560      -0.45550118      -0.01519504       0.59863120      -0.86872756       0.31889390      -8.70859057
Si       8.69993053       5.00910990       5.86932467      -0.33170697       0.30374435       0.13258576       0.10233117      -0.45230451       0.76233069      -8.75911130
Si      10.60252156       6.08234617       9.04603098      -0.30651792       0.58869503      -0.39833155      -0.57036107       0.30958533       0.33558992      -8.63554805
Si       8.78531839       7.20514380       2.81166982       1.37994815      -2.50411250       0.81223246      -0.94521227      -0.17363682      -0.69850541      -8.76736533
Si      10.51916031       8.36492302       5.92042237       0.57056090       0.28117556      -2.03435796       1.32776027       0.27975025      -0.61142460      -8.70678541
Si      12.49805004       9.31123249       8.99882287       0.67574809      -1.10927624       0.57469960       0.25397118       1.28825101       0.04014334      -8.73184289
Si      10.55587088      10.54681990       2.81521894       1.94775821      -1.36336269       1.84918790       0.82493391      -0.13738734      -0.23016790      -8.76186875
Si      12.49793300      11.66985291       5.92304904       1.08358187       0.64210264      -0.12752247       0.08789776       0.15802161      -0.45443496      -8.72907091
Si      14.41014860      12.84857963       9.10471827      -1.70154083       0.28810770      -0.17933887       0.32469308      -1.43120325      -0.79350382      -8.47196901
Si      10.59029515       3.89037757       2.73096794       0.29708381       1.57245054       0.20419632      -0.30901381       0.27872039       0.46667681      -8.68329827
Si      12.37897698       5.04653321       5.87570388      -0.84153437       2.39775832       0.04272698       1.12111538       0.25413092       0.72403543      -8.74609582
Si      14.50970819       6.14809681       9.04350694       1.43509856      -1.66024993      -0.95345923      -0.62054917      -0.15380247      -0.82619392      -8.74908524
Si      12.58442415       7.27000876       2.79868518      -0.10954012       0.70720031       0.33198420      -0.68892135      -0.53167872      -0.71472056      -8.70036617
Si      14.45098225       8.38919029       5.82283851      -0.24182790       2.68390681      -0.08355515       0.23305258      -0.20346547       0.85923466      -8.75717987
Si      16.42356889       9.40774335       9.03875314      -1.10366105       1.06133947       1.20890983      -0.46675252       0.71609078      -0.14868577      -8.74778965
Si      14.42439471      10.64167698       2.77252265      -0.58212696      -1.38914699      -0.51106587       0.82912070      -0.82730609      -0.52318427      -8.74190689
Si      16.39807256      11.59305541       5.82212810       0.30490210      -0.76982444      -0.25279253      -0.04992037       0.84935108       0.88177789      -8.76451165
Si      18.22649358      12.84927509       9.06200623      -0.64372127       0.75345197       0.65886056       0.77273991      -0.60855660      -0.23567866      -8.67115679
Si      14.38986998       3.89122714       2.82224057       0.44405517       1.43695566      -0.11367948       0.16303967       0.61979554      -0.83710544      -8.73402867
Si      16.38399033       5.00021602       5.79747482      -1.71368888      -0.94799377      -0.40628331      -1.05275986      -0.47094581       0.40432526      -8.73050895
Si      18.13888648       6.06929886       9.06373997      -1.22236792       0.19925780       0.06120459       1.21747387      -0.46710405      -1.01300957      -8.48775057
Si      16.32379206       7.20336040       2.72825509       0.77716468       1.44795969      -1.79236810       0.83585114       0.39377035      -0.02716945      -8.64063751
Si      18.27897897       8.28610699       5.89164631       0.98212016      -1.09821498      -0.49686338       0.18478043       0.22184045      -0.18642194      -8.68369152
Si      20.14716709       9.46603055       8.95079255      -0.42318641      -0.10421220      -1.51252166       0.51865710      -0.66647693       0.77232036      -8.74956782
Si      18.27516097      10.53550405       2.70233389      -0.06401757      -0.31628797      -1.06278730       0.81244504       0.86300305       0.47832359      -8.54732607
Si      20.14833552      11.64719668       5.98560711      -0.07646951      -0.90937660       1.21114357       0.26189838       0.63214236      -0.62516506      -8.66425887
Si      22.14677208      12.68242011       9.06750148       0.27406702      -0.27027405      -0.69137350       0.00077460       0.91957572       0.14252611      -8.57872687
Si       2.98638503       1.72150873       3.53396934       0.36483513      -0.11634239       1.94373903      -1.64934067      -0.57420839       0.80034644      -8.65430753
Si       4.80424533       2.79976373       6.74967493       1.42080509       0.08513374      -0.42698361      -0.05026459      -0.03456536      -0.80278142      -8.72275451
Si       2.75718515       3.89310930       0.39152926       0.14590551      -0.71365446       0.81459755       0.90007226      -0.29641274       0.26330703      -8.63248956
Si       4.85327225       4.95342168       3.46595496      -0.54369037      -0.95625883      -0.80876677      -0.88217915       0.53045633       0.14079425      -8.77905415
Si       6.72545741       5.98294885       6.58224079       0.21298162      -1.07480433      -1.07814319       0.17181192       0.97912210       1.16129027      -8.69686196
Si       4.78730017       7.14593059       0.33462438       0.76680313      -0.64816218      -0.74786535       0.26904517      -0.41978821       0.61657323      -8.73864225
Si       6.86437672       8.37978131       3.48383275       0.94192987      -0.21998288      -1.72323485      -1.11283565      -1.15328987       0.28840750      -8.65631386
Si       8.67252416       9.41910972       6.68857439      -2.41920489      -0.88486310       0.63668656      -1.09057362       0.19873550      -0.47994018      -8.76129731
Si       4.78797320       0.53403457       0.50955861      -1.23831937       1.68767494       0.08350649      -0.18993932       0.71418684      -0.48918862      -8.77345357
Si       6.76159107       1.60427848       3.49596327      -0.56256296       0.68790016       1.59615490      -0.98046581       1.42333477       0.89168312      -8.66383023
Si       8.71985722       2.74988349       6.60956260       1.04793548       0.51104207      -0.41022347      -0.44243268       0.30760482       0.76997261      -8.65771526
Si       6.80672794       3.86105369       0.37513635       0.71256720      -1.19318036       0.38364961      -0.67052531      -0.65051727       0.07915290      -8.76485009
Si       8.64089248       5.02657942       3.60485126       0.09188194      -0.60364645       0.24980292       0.36612035      -0.50488930      -1.08038225      -8.71589524
Si      10.55873470       6.20225267       6.67217820      -0.33015304      -0.74888170       0.06626270      -0.35637893      -0.60626352       0.55096356      -8.74894835
Si       8.65893553       7.11814268       0.44634506       0.65875694      -0.40735712       0.60833471      -0.09938320       0.78901994      -0.34101475      -8.62189182
Si      10.60812981       8.34129710       3.54052534       0.15364853      -0.44896371       0.19731051       0.57371049       0.07930539       0.57895204      -8.72350380
Si      12.54544636       9.44672424       6.65267664      -0.37641460       0.99230775       0.49594494      -0.56310344      -0.18175726       0.05501936      -8.72610640
Si       8.73482962       0.64691608       0.41961221      -1.08939097       0.15693161       0.21250566      -0.50722703      -0.93149770      -0.11519111      -8.67273654
Si      10.59669277       1.66733109       3.54335152       0.18319345      -0.46108260       1.60790206       0.04858138       0.11571225      -0.85193434      -8.73178438
Si      12.41003447       2.85563201       6.65964459      -1.60793498       0.17363782      -0.30404831       0.48082457      -0.51295032       0.45101395      -8.72827984
Si      10.56643909       3.90518173       0.38485917      -1.17118840       0.78419452       0.34355167       0.02815854       0.07249908       0.57843083      -8.75831805
Si      12.46676987       5.02469034       3.60953765      -0.56803361      -0.12646854       0.66959795       0.27679123       0.14425048      -0.96159827      -8.74606434
Si      14.41924621       6.16077259       6.64782234       0.31250088       0.72633327      -0.94572015       0.06767572      -0.41494289      -0.25198821      -8.63935759
Si      12.54659374       7.19909528       0.35694480      -0.41839992       1.38815369      -1.28448865      -0.42495129       1.07892041       0.79222446      -8.71034829
Si      14.43453132       8.41302950       3.53329961       0.81036157       1.12591637       0.97569063       0.64098187      -0.08997831      -0.46051858      -8.75793430
Si      16.38575252       9.48412308       6.69275334      -0.72296974      -0.70630742       0.67476069      -0.04610032      -1.09269086      -0.18673327      -8.73417304
P        0.95441766       0.51554322       0.42010508       1.15495991      -0.47554219      -0.28676059      -0.52574942       0.23917084      -0.25766718      -9.89290436
54
Lattice="11.5478352 0.0 0.0 5.773917198490155 10.000722372470358 0.0 5.773916394327279 3.333571176804646 9.428767828939895" Properties=species:S:1:pos:R:3:momenta:R:3:forces:R:3:energies:R:1 spacegroup="_JSON {\"number\": 1, \"setting\": 1}" unit_cell=conventional occupancy="_JSON {\"0\": {\"Si\": 1.0}, \"1\": {\"Si\": 1.0}, \"2\": {\"Si\": 1.0}, \"3\": {\"Si\": 1.0}, \"4\": {\"Si\": 1.0}, \"5\": {\"Si\": 1.0}, \"6\": {\"Si\": 1.0}, \"7\": {\"Si\": 1.0}, \"8\": {\"Si\": 1.0}, \"9\": {\"Si\": 1.0}, \"10\": {\"Si\": 1.0}, \"11\": {\"Si\": 1.0}, \"12\": {\"Si\": 1.0}, \"13\": {\"Si\": 1.0}, \"14\": {\"Si\": 1.0}, \"15\": {\"Si\": 1.0}, \"16\": {\"Si\": 1.0}, \"17\": {\"Si\": 1.0}, \"18\": {\"Si\": 1.0}, \"19\": {\"Si\": 1.0}, \"20\": {\"Si\": 1.0}, \"21\": {\"Si\": 1.0}, \"22\": {\"Si\": 1.0}, \"23\": {\"Si\": 1.0}, \"24\": {\"Si\": 1.0}, \"25\": {\"Si\": 1.0}, \"26\": {\"Si\": 1.0}, \"27\": {\"Si\": 1.0}, \"28\": {\"Si\": 1.0}, \"29\": {\"Si\": 1.0}, \"30\": {\"Si\": 1.0}, \"31\": {\"Si\": 1.0}, \"32\": {\"Si\": 1.0}, \"33\": {\"Si\": 1.0}, \"34\": {\"Si\": 1.0}, \"35\": {\"Si\": 1.0}, \"36\": {\"Si\": 1.0}, \"37\": {\"Si\": 1.0}, \"38\": {\"Si\": 1.0}, \"39\": {\"Si\": 1.0}, \"40\": {\"Si\": 1.0}, \"41\": {\"Si\": 1.0}, \"42\": {\"Si\": 1.0}, \"43\": {\"Si\": 1.0}, \"44\": {\"Si\": 1.0}, \"45\": {\"Si\": 1.0}, \"46\": {\"Si\": 1.0}, \"47\": {\"Si\": 1.0}, \"48\": {\"Si\": 1.0}, \"49\": {\"Si\": 1.0}, \"50\": {\"Si\": 1.0}, \"51\": {\"Si\": 1.0}, \"52\": {\"Si\": 1.0}, \"53\": {\"P\": 1.0}}" energy=-470.88331530852844 stress="9.644475789528566e-05 -0.0013457110405507386 -0.0007034154758982339 -0.0013457110405507386 0.0006417783971939901 -0.00034006629880866974 -0.0007034154758982339 -0.00034006629880866974 -0.0036318076012046554" free_energy=-470.88331530852844 pbc="T T T"
Si       6.81239495       3.87064224       2.71567219       1.11250067      -1.36032123       0.48484959      -0.78712752      -0.22375813       0.22819387      -8.73636182
Si       8.69024531       5.00349182       5.89863654      -0.02709518      -0.53404684       0.78756185       0.13445465      -0.50544058       0.01618713      -8.75515457
Si      10.56710737       6.12522733       9.04218499      -0.96757134       1.03893279       0.29252524      -0.26559016       0.27373947       0.48940125      -8.71814192
Si       8.81843789       7.08634642       2.82327073      -0.09471280      -1.65314308      -0.38695749      -0.87406359       1.24636827      -0.75948227      -8.69966694
Si      10.57863723       8.38777109       5.81910355       1.26324299       0.49862614      -1.26472120      -0.36230263      -0.06652869       1.55980329      -8.65092690
Si      12.54380971       9.29839919       9.03096703       1.05414098       0.43759198       0.66839330       0.18898686       0.59120114       0.09501537      -8.73242942
Si      10.66306330      10.48877779       2.89267531       1.63279611      -0.52385834       0.94093754      -1.12941883       1.11493464      -0.86346771      -8.71528707
Si      12.55699983      11.70949516       5.90714705       1.13509238       0.84197892      -0.27372941      -0.04438659       0.04808904       0.34867294      -8.75752641
Si      14.35144404      12.81002386       9.06777514      -0.29365450      -1.62378121      -1.10917082       1.24888129      -0.88676451      -0.30865510      -8.49996389
Si      10.59233876       3.96385266       2.76041376      -0.19464046       0.87767225       0.87627640      -0.19574674      -1.10217555       0.30486051      -8.69333093
Si      12.38394213       5.15945300       5.90370586       1.03952630       1.53140443       0.89590415       1.12421015      -1.20973095       0.24270701      -8.72585162
Si      14.55215327       6.06606092       8.96635029       0.10002991      -1.29858046      -1.82744107      -0.95454351       0.50471331      -0.19262956      -8.73415076
Si      12.56429198       7.28569883       2.78821593      -0.39411684      -0.08209007      -0.70263574       0.33498843      -0.43278195      -0.61120968      -8.65922390
Si      14.44446748       8.50726465       5.85268651      -0.10361476       1.55249019       1.12072201      -0.14064071      -1.24100100       0.47091095      -8.74486509
Si      16.35870103       9.48318783       9.08707837      -1.11988843       1.61942297       0.48621453       0.49894494      -0.04495194      -0.71964513      -8.75596669
Si      14.41903048      10.56288199       2.73821677       0.19279872      -1.11097830      -0.56518781       0.14613983       1.10857819       0.36511754      -8.72764086
Si      16.40912795      11.57870951       5.84984898       0.05468555       0.05159475       1.30285795      -0.28086374       0.20134438       0.84110592      -8.77404204
Si      18.21226148      12.87251513       9.08027491      -0.12496596       0.30661953      -0.06223355      -0.10360582       0.06520258      -0.63079980      -8.72372300
Si      14.41001436       3.96665128       2.79220697       0.13332382       0.99699702      -0.85311741      -0.55841550      -1.09184233      -0.13442643      -8.75123839
Si      16.27204077       4.94182346       5.78631141      -2.16289229      -1.07377978      -0.13413473       0.46140612       0.32164420      -0.04633440      -8.74663452
Si      18.12524907       6.06501428       9.03187297       0.67956160      -0.24337642      -1.11932187       1.13500398      -0.00987803      -0.40293866      -8.47237794
Si      16.39063768       7.27986720       2.64566273       1.59513528       1.20173084      -1.14849863       0.13959609      -0.66248313       0.77328329      -8.66614425
Si      18.31779164       8.23651741       5.85376588       0.12801732      -0.84512878      -1.03057285      -1.24739555       0.02873034      -0.50562056      -8.67129359
Si      20.14158057       9.43574112       8.92131371       0.10564963      -0.98515617       0.61584542       0.11680627      -0.41495325       1.61766083      -8.71263447
Si      18.30470673      10.55126501       2.67400025       1.15730362       0.80113781       0.10879534       0.67833426       0.41853544       0.95738842      -8.55035274
Si      20.14936229      11.62909595       6.02766796       0.01067441       0.24698435       0.47873354      -0.14324940       0.74310889      -0.28824677      -8.66482900
Si      22.15912536      12.70056618       9.03978827       0.14847422       0.82363033      -0.34090794      -0.19025690       0.38858048       0.23848645      -8.54239851
Si       2.95425725       1.69693815       3.64963173      -1.28120233      -0.71489036       2.10108768      -0.45419335      -0.15547447      -0.61716869      -8.63898104
Si       4.86680918       2.79789571       6.70231071       0.79360656      -0.24278295      -1.21021112      -0.72349639      -0.36749462      -0.15031542      -8.73065315
Si       2.79054372       3.85233472       0.43423577       0.92267722      -0.70054360       0.62047149       0.09818711       0.25774069      -0.48446515      -8.67860859
Si       4.80951577       4.93739853       3.42891375      -0.71747570       0.53525438      -0.58621873       0.66781947       1.27315442       0.20324458      -8.69830761
Si       6.72667330       5.96245020       6.57109680      -0.44174170       0.19519602       0.58308743      -0.87666442       0.59434322       0.88580994      -8.68751306
Si       4.83104385       7.10242559       0.31155830       0.78419816      -0.82911838      -0.28432349      -0.19078255       0.27331665       0.03078670      -8.74661600
Si       6.87561464       8.32677949       3.40915574      -0.38087354      -1.63283661      -1.06061465      -0.58405350      -0.49980960       0.54961663      -8.67303556
Si       8.53655353       9.37787638       6.68682191      -2.13547127      -0.65362133      -0.85126986       1.35651979       0.31798294      -1.02281991      -8.74288652
Si       4.71964310       0.63550973       0.50359410      -1.26167173       1.85568197      -0.16799590       0.21124211      -0.54812624       0.07492032      -8.70906249
Si       6.71880140       1.67987362       3.59908558      -0.59855246       1.82166369       1.99124835       0.80703796      -0.02814938      -0.44298050      -8.72847848
Si       8.75505752       2.78389622       6.61857840       0.27003422       0.66115862       0.74278743      -0.53030400      -0.18156022       0.72421955      -8.66955097
Si       6.82357937       3.77608496       0.38998906       0.03509459      -1.90027141       0.03685265      -0.25609392      -0.09509351      -0.47646955      -8.73037470
Si       8.66086428       4.97235827       3.58731438       0.64707498      -1.47469986      -0.62303577       0.26590336      -0.52487213       0.04468784      -8.73235324
Si      10.52433371       6.16220655       6.69322789      -0.95697773      -0.39380578       0.64609217      -0.24137076       0.87967611       0.19527045      -8.72949828
Si       8.67954317       7.12979574       0.46747703      -0.05283356       0.87038651       0.23758335      -0.78745067       0.85376534      -0.18939360      -8.67050157
Si      10.63648072       8.31400095       3.56294009       0.82543622      -0.71876089       0.39000951       0.19243243      -0.38677794      -0.44098690      -8.75613553
Si      12.50606751       9.49129385       6.67924479      -1.02793578       0.72618711       0.48985834      -0.18367245      -0.11040895      -0.04487752      -8.72769273
Si       8.66885017       0.61239394       0.42153471      -1.21856406      -1.48630332      -0.23548909       0.31185388      -0.97899853      -0.48519741      -8.71306203
Si      10.60384577       1.65088404       3.57537244       0.03979693      -0.12056634      -0.57005537      -0.14805574       0.29616363      -1.55541238      -8.67161090
Si      12.35826897       2.85662542       6.66343233      -0.12635589       0.08103244       0.47434392       1.40260656       0.32689289       0.54453428      -8.65197577
Si      10.51331833       3.94663751       0.42217534      -0.73139723       0.71475705       0.95461238       0.50429110      -0.24117181       0.09592681      -8.72209028
Si      12.45396423       5.03328970       3.60657067       0.17055130       0.59488501      -0.69323434       0.62627496       0.68795089      -0.63083112      -8.74422544
Si      14.43361586       6.18980689       6.59151933       0.15574056       0.51562936      -1.11491746      -0.23579518       0.11500224       0.08065677      -8.67487274
Si      12.51548039       7.30114506       0.32619863      -0.62486919       2.18080712       0.16322332       0.12457190      -0.17159002       1.00239148      -8.72038578
Si      14.49434315       8.45384194       3.55850300       1.30890363       0.14596330      -0.06919091       0.01516535      -1.17261166      -0.67674521      -8.74052543
Si      16.35846648       9.41377201       6.72139593      -0.08722606      -1.71843615       0.44098773       0.85119431      -0.10447515      -0.09556315      -8.70106900
P        0.97704476       0.50706150       0.39755639      -0.36976709       0.19546082      -0.64667539      -1.15331300       0.52814486      -0.20417752      -9.91109117
54
Lattice="11.5478352 0.0 0.0 5.773917198490155 10.000722372470358 0.0 5.773916394327279 3.333571176804646 9.428767828939895" Properties=species:S:1:pos:R:3:momenta:R:3:forces:R:3:energies:R:1 spacegroup="_JSON {\"number\": 1, \"setting\": 1}" unit_cell=conventional occupancy="_JSON {\"0\": {\"Si\": 1.0}, \"1\": {\"Si\": 1.0}, \"2\": {\"Si\": 1.0}, \"3\": {\"Si\": 1.0}, \"4\": {\"Si\": 1.0}, \"5\": {\"Si\": 1.0}, \"6\": {\"Si\": 1.0}, \"7\": {\"Si\": 1.0}, \"8\": {\"Si\": 1.0}, \"9\": {\"Si\": 1.0}, \"10\": {\"Si\": 1.0}, \"11\": {\"Si\": 1.0}, \"12\": {\"Si\": 1.0}, \"13\": {\"Si\": 1.0}, \"14\": {\"Si\": 1.0}, \"15\": {\"Si\": 1.0}, \"16\": {\"Si\": 1.0}, \"17\": {\"Si\": 1.0}, \"18\": {\"Si\": 1.0}, \"19\": {\"Si\": 1.0}, \"20\": {\"Si\": 1.0}, \"21\": {\"Si\": 1.0}, \"22\": {\"Si\": 1.0}, \"23\": {\"Si\": 1.0}, \"24\": {\"Si\": 1.0}, \"25\": {\"Si\": 1.0}, \"26\": {\"Si\": 1.0}, \"27\": {\"Si\": 1.0}, \"28\": {\"Si\": 1.0}, \"29\": {\"Si\": 1.0}, \"30\": {\"Si\": 1.0}, \"31\": {\"Si\": 1.0}, \"32\": {\"Si\": 1.0}, \"33\": {\"Si\": 1.0}, \"34\": {\"Si\": 1.0}, \"35\": {\"Si\": 1.0}, \"36\": {\"Si\": 1.0}, \"37\": {\"Si\": 1.0}, \"38\": {\"Si\": 1.0}, \"39\": {\"Si\": 1.0}, \"40\": {\"Si\": 1.0}, \"41\": {\"Si\": 1.0}, \"42\": {\"Si\": 1.0}, \"43\": {\"Si\": 1.0}, \"44\": {\"Si\": 1.0}, \"45\": {\"Si\": 1.0}, \"46\": {\"Si\": 1.0}, \"47\": {\"Si\": 1.0}, \"48\": {\"Si\": 1.0}, \"49\": {\"Si\": 1.0}, \"50\": {\"Si\": 1.0}, \"51\": {\"Si\": 1.0}, \"52\": {\"Si\": 1.0}, \"53\": {\"P\": 1.0}}" energy=-470.5619230572245 stress="-0.0004376070238067499 -0.0027763824428307213 -0.0020705161597436884 -0.0027763824428307213 0.0025328007878257083 -0.0002799215916302525 -0.0020705161597436884 -0.0002799215916302525 -0.0010610588580132405" free_energy=-470.5619230572245 pbc="T T T"
Si       6.83148968       3.80480611       2.74143674      -0.45893695      -0.85902377       0.31740783      -1.08984673       0.90563583      -0.46011223      -8.71321299
Si       8.68603249       4.96542716       5.93228190      -0.28778301      -0.69732032       0.39334137      -0.44838187       0.34162814      -0.38399388      -8.73346081
Si      10.51367113       6.18615986       9.07141813      -0.89925404       1.15789519       0.68895474       0.40336204      -0.22688597      -0.02692572      -8.74765330
Si       8.78709658       7.05103152       2.78247483      -0.93863195       0.23557381      -0.95503158      -0.23052583       0.99055574       0.06743065      -8.67890031
Si      10.61620679       8.40590283       5.82068320      -0.03681171       0.11002517       1.25331124      -1.16503501      -0.38514841       1.29695343      -8.66650541
Si      12.60068764       9.32990204       9.06804672       0.97111020       0.51261360       0.68226411      -0.37146414      -0.39395412      -0.14938656      -8.69507632
Si      10.69489522      10.50560390       2.91024973      -0.50404909       1.08414571      -0.18531309      -1.47821159       0.80853004      -0.53754805      -8.66125887
Si      12.61119433      11.75082602       5.91646185       0.83827439       0.63271333       0.75301251      -0.41480661      -0.34450328       0.81330147      -8.72075986
Si      14.37544935      12.71163404       9.01165349       0.96658965      -1.67733342      -0.74828220       0.32981356       0.87086631       0.78753640      -8.54061475
Si      10.58612685       3.96018712       2.81022229       0.21096928      -1.05284298       0.85710701       0.76304686      -1.22692584      -0.34018654      -8.73891387
Si      12.46379211       5.18973124       5.94964425       1.59914846      -0.35444977       0.66912517      -0.43296679      -1.12995744      -0.49503814      -8.70075980
Si      14.52712611       6.01725213       8.87708343      -0.89033522      -0.60237347      -1.31449953      -0.31300729       0.35882579       0.82382677      -8.69992498
Si      12.56637695       7.27058620       2.73262602       0.60510848      -0.35984045      -1.29119504       0.84944268       0.09635105      -0.10257652      -8.71384910
Si      14.42861762       8.53642589       5.91447172      -0.53432862      -0.43762518       0.96380590      -0.26082128      -1.22141611      -0.58132554      -8.71107293
Si      16.32764338       9.55619888       9.08668155       0.01615010       0.99974464      -0.39309772       0.81586549      -0.69313451      -0.29912774      -8.71933194
Si      14.42826384      10.55444010       2.72533340       0.07085558       0.74853408       0.06478421      -0.20709684       0.96542053       0.33540913      -8.70807737
Si      16.40225416      11.58356241       5.93330768      -0.24223808       0.07885632       1.53668416       0.01174623      -0.02086418      -0.48259346      -8.69921468
Si      18.19330322      12.89782704       9.05502236      -0.70650557       0.71859837      -0.79046595      -0.52873400       0.29212578      -0.18744288      -8.73882446
Si      14.39569107       3.96930996       2.75192688      -0.57110145      -0.91722310      -0.50304083      -0.15154382      -1.18862332       0.56502560      -8.71577941
Si      16.18983216       4.90568850       5.77366087      -0.78250898      -0.18927761      -0.38386464       1.21144279       0.77421585      -0.18514634      -8.68180929
Si      18.19366957       6.06047471       8.97242003       1.67918400       0.21378165      -0.85324876       0.15018952       0.54773337       0.74325712      -8.51998536
Si      16.46531070       7.30900427       2.61426972       0.97151801      -0.20338363      -0.14661050      -0.94469808      -1.09413953       0.40115885      -8.72432189
Si      18.27316994       8.19127618       5.78200570      -1.71544734      -0.85953087      -1.59146077      -0.80239260       0.10551340      -0.05624652      -8.70989626
Si      20.14482635       9.37663737       8.99854426      -0.09294304      -1.06787506       1.91282095      -0.31237426       0.37958540       0.02465645      -8.68490097
Si      18.38001284      10.59526811       2.71112029       1.42657074       0.59609853       1.12386993      -0.44949736      -0.67913577       0.25051766      -8.52943695
Si      20.14176513      11.66308936       6.04742722      -0.31402643       0.87114050       0.35383695      -0.19327810       0.04591786       0.01079218      -8.70895192
Si      22.15679168      12.74670852       9.02750427      -0.27946931       0.71008607      -0.21604338      -0.34661803      -0.49433114      -0.10638670      -8.54708936
Si       2.88685145       1.66240916       3.72317859      -0.96972158      -0.41858986       0.54491606       0.80471192       0.56267703      -1.23059215      -8.63146856
Si       4.87747620       2.77134915       6.64309105      -0.40383755      -0.71666401      -0.87969643      -0.78974968      -0.15908196       0.50776685      -8.71595724
Si       2.83105828       3.82889034       0.44499280       0.40321438      -0.15028105      -0.19970621      -0.75766355       0.42964155      -0.44003572      -8.74972499
Si       4.80560072       5.00890317       3.40680239       0.57667991       1.96679135      -0.26309453       0.72422556       0.39110197       0.18130983      -8.66315114
Si       6.67137303       5.98466722       6.62210553      -1.54837168       0.43707207       1.05374832      -0.43528875      -0.23886173      -0.31551449      -8.69165177
Si       4.86249050       7.07820425       0.29514938       0.38680192       0.02883423      -0.34875671      -0.30711407       0.75397138      -0.00978095      -8.70781944
Si       6.84456301       8.24016499       3.37649837      -0.57412449      -1.30783976      -0.15231072       0.29883739       0.91010513       0.66601851      -8.69494725
Si       8.49038580       9.36117898       6.62061677       0.44030823       0.05247155      -1.31195760       1.61082778       0.44821553       0.35693093      -8.70238697
Si       4.66658061       0.69924111       0.49968195      -0.68614469       0.41592980       0.02059527       0.50756041      -1.16352577       0.08579044      -8.63018267
Si       6.72467029       1.75335350       3.67229155       0.82636835       0.60665722       0.61633347       0.85195857      -1.48117550      -1.15397304      -8.69739234
Si       8.75304822       2.80370973       6.68058290      -0.23118259      -0.02638086       1.49073912      -0.07833381      -0.63858885       0.20476508      -8.74016745
Si       6.81943887       3.68599230       0.37410728      -0.13372681      -1.28808317      -0.57322233      -0.02293086       0.87263230      -0.21348387      -8.68896378
Si       8.69609395       4.88587035       3.56874617       0.49283873      -1.55308208       0.06574079      -0.50778225       0.50307419       0.63493433      -8.72599608
Si      10.47857283       6.17785159       6.72922138      -0.52215889       0.92544174       0.63234687       0.76664180       0.63373225      -0.17130293      -8.70968724
Si       8.64782128       7.20164014       0.47158160      -1.02736627       1.66552043      -0.11883489      -0.28827928       0.04818773      -0.32411468      -8.75224597
Si      10.67903338       8.26493441       3.55828950       0.65350164      -1.00133526      -0.58864346      -0.37251434       0.18941467      -0.52963075      -8.73929721
Si      12.45535681       9.52796309       6.70427659      -0.70349818       0.71089917       0.50181479       0.59854485       0.03182576       0.09516739      -8.71123277
Si       8.62434778       0.51159342       0.38961236      -0.37667520      -2.01967242      -0.94056044       0.70164906       0.33156717      -0.32048242      -8.72610910
Si      10.60306233       1.65531729       3.50378131       0.01327817       0.25061365      -1.73339450       0.17430099       0.13339535       0.08955372      -8.68620540
Si      12.40465468       2.87669395       6.70488427       1.75347847       0.67730681       0.96681980       0.84740481       0.30814086      -0.00325009      -8.70363678
Si      10.49595995       3.96967895       0.46515454       0.07732737       0.08533241       0.49136839       0.54046417      -0.54808964      -0.65298643      -8.62592468
Si      12.48421362       5.08678744       3.55782806       0.87885450       1.27416869      -0.94241442       0.22711499       0.01807298       0.24484462      -8.73807423
Si      14.43365557       6.22510763       6.54163695      -0.09774357       0.85814749      -0.68829757      -0.02417930       0.21218126       0.46881420      -8.73139560
Si      12.49099094       7.39128193       0.36712362      -0.26718261       0.98418270       1.20743462       0.29573351      -1.22409704       0.23997550      -8.71024292
Si      14.55641140       8.41544676       3.53727871       0.92830622      -1.48519091      -0.57231695      -0.49743446      -0.69246304      -0.02837963      -8.68698446
Si      16.38925617       9.33445858       6.74164465       1.19310516      -1.06175225       0.31342698       0.57442108       0.85685567      -0.16938092      -8.70771990
P        0.93191970       0.53082300       0.36179079      -1.18343704       0.69779498      -0.79024979       0.16326453       0.12720527       0.06120778      -9.88377392
54
Lattice="11.5478352 0.0 0.0 5.773917198490155 10.000722372470358 0.0 5.773916394327279 3.333571176804646 9.428767828939895" Properties=species:S:1:pos:R:3:momenta:R:3:forces:R:3:energies:R:1 spacegroup="_JSON {\"number\": 1, \"setting\": 1}" unit_cell=conventional occupancy="_JSON {\"0\": {\"Si\": 1.0}, \"1\": {\"Si\": 1.0}, \"2\": {\"Si\": 1.0}, \"3\": {\"Si\": 1.0}, \"4\": {\"Si\": 1.0}, \"5\": {\"Si\": 1.0}, \"6\": {\"Si\": 1.0}, \"7\": {\"Si\": 1.0}, \"8\": {\"Si\": 1.0}, \"9\": {\"Si\": 1.0}, \"10\": {\"Si\": 1.0}, \"11\": {\"Si\": 1.0}, \"12\": {\"Si\": 1.0}, \"13\": {\"Si\": 1.0}, \"14\": {\"Si\": 1.0}, \"15\": {\"Si\": 1.0}, \"16\": {\"Si\": 1.0}, \"17\": {\"Si\": 1.0}, \"18\": {\"Si\": 1.0}, \"19\": {\"Si\": 1.0}, \"20\": {\"Si\": 1.0}, \"21\": {\"Si\": 1.0}, \"22\": {\"Si\": 1.0}, \"23\": {\"Si\": 1.0}, \"24\": {\"Si\": 1.0}, \"25\": {\"Si\": 1.0}, \"26\": {\"Si\": 1.0}, \"27\": {\"Si\": 1.0}, \"28\": {\"Si\": 1.0}, \"29\": {\"Si\": 1.0}, \"30\": {\"Si\": 1.0}, \"31\": {\"Si\": 1.0}, \"32\": {\"Si\": 1.0}, \"33\": {\"Si\": 1.0}, \"34\": {\"Si\": 1.0}, \"35\": {\"Si\": 1.0}, \"36\": {\"Si\": 1.0}, \"37\": {\"Si\": 1.0}, \"38\": {\"Si\": 1.0}, \"39\": {\"Si\": 1.0}, \"40\": {\"Si\": 1.0}, \"41\": {\"Si\": 1.0}, \"42\": {\"Si\": 1.0}, \"43\": {\"Si\": 1.0}, \"44\": {\"Si\": 1.0}, \"45\": {\"Si\": 1.0}, \"46\": {\"Si\": 1.0}, \"47\": {\"Si\": 1.0}, \"48\": {\"Si\": 1.0}, \"49\": {\"Si\": 1.0}, \"50\": {\"Si\": 1.0}, \"51\": {\"Si\": 1.0}, \"52\": {\"Si\": 1.0}, \"53\": {\"P\": 1.0}}" energy=-470.0553527200509 stress="0.0002448241469999823 -0.0006124833549328142 -0.0002203745604277706 -0.0006124833549328142 0.0011370037504123138 0.0010584458602742753 -0.0002203745604277706 0.0010584458602742753 0.000507771141856175" free_energy=-470.0553527200509 pbc="T T T"
Si       6.77370954       3.80077072       2.73724977      -1.52807947       0.68672469      -0.45854399      -0.23680189       0.82788942      -0.39351313      -8.72461436
Si       8.65274616       4.95010612       5.94214187      -0.94348747       0.20480550       0.09643433      -0.30674875       0.70106943       0.04868779      -8.71226939
Si      10.48906930       6.22811770       9.09920086       0.03151275       0.27389996       0.26111409       0.66515124      -0.87272410      -0.45082397      -8.70724876
Si       8.73876288       7.08751573       2.74475188      -0.72175796       0.88854131      -0.34286487       0.47925304      -0.05138878       0.61937089      -8.68182623
Si      10.57635379       8.39921337       5.91203528      -1.21727002      -0.26792609       1.75241432      -0.13068134      -0.01320766      -0.56251189      -8.77420144
Si      12.62922487       9.33680547       9.09303753      -0.00951841      -0.27696822       0.18833628      -0.86196357      -0.50148886      -0.46634825      -8.66545888
Si      10.62200326      10.57946624       2.88754234      -1.98160560       1.43601155      -0.54286802      -0.31627797      -0.35317661      -0.00290676      -8.68253756
Si      12.63243308      11.76706367       5.97782054      -0.14099015      -0.05720577       1.33214159      -0.84125150      -0.51276620      -0.16016602      -8.72034888
Si      14.42670987      12.67571683       9.01100637       0.78210855       0.56928737       0.80812156      -0.49506103       1.87880339       1.11815319      -8.50162353
Si      10.62929208       3.87445800       2.83605105       1.35996160      -1.78893300       0.04133840       0.48589672       0.42511821      -0.68645927      -8.77303910
Si      12.51799360       5.13968625       5.96033151       0.32675365      -1.25975340      -0.33021519      -0.99894287       0.02149546      -0.76543995      -8.66974135
Si      14.47867424       5.99592235       8.84548634      -0.76375715      -0.26505316       0.15522000       0.44490012       0.15125900       1.01202132      -8.67178557
Si      12.62628218       7.26210514       2.67295710       1.51300150       0.12988269      -0.73301165       0.19478679       0.45052147       0.86232627      -8.76679956
Si      14.39819629       8.47998935       5.93745898      -0.46589182      -1.38431068      -0.14002551       0.34899389       0.06472238      -0.80004766      -8.67915893
Si      16.35324858       9.57931791       9.06541446       0.79899364      -0.14613770      -0.22913751       0.18980057      -0.81167404       0.42757950      -8.68432671
Si      14.42611764      10.61092897       2.73420510      -0.05494701       0.99155232       0.10670490       0.18523498      -0.64658344      -0.31316924      -8.71232063
Si      16.39838202      11.58990293       5.98541500       0.24403703       0.22848922       0.31545712       0.58955393       0.23130536      -1.02376274      -8.56294693
Si      18.14048342      12.93855417       9.01989384      -1.15275939       0.63759690      -0.29256211       0.07621219      -0.46701025       0.78760963      -8.70741959
Si      14.37148848       3.88886523       2.75013535      -0.16009861      -1.82686026       0.42435886       0.59685478       0.08481366       0.52629816      -8.68072192
Si      16.19364370       4.92478357       5.75014927       0.81978076       0.85167841      -0.42322910       0.78371715       0.51086997       0.15724587      -8.68215710
Si      18.27286839       6.09281604       8.96306394       1.05502231       0.95856717       0.50918263      -0.97887914       0.30821629       0.78472426      -8.55828468
Si      16.47598592       7.26330968       2.61250592      -0.51810617      -1.28637292      -0.07700228      -0.77361314      -0.10463535      -0.20625630      -8.76626950
Si      18.17572619       8.15582209       5.70970874      -1.54766034      -0.40699564      -0.90843487       0.95031311       0.43935812       0.94704887      -8.68132192
Si      20.12835323       9.34745455       9.08176417      -0.48585893       0.16284688       0.96872604      -0.12307800       1.17891837      -1.13295655      -8.61175660
Si      18.42185164      10.59175883       2.76666496      -0.04804933      -0.81133331       0.77537662      -1.26939924      -0.98208887      -0.59981630      -8.45552925
Si      20.12316197      11.70027115       6.06226798      -0.26832576       0.35413869       0.08953088       0.29449776      -0.70861415      -0.45698909      -8.73029635
Si      22.13154736      12.75938101       9.00771706      -0.58525488      -0.27320614      -0.59819233       0.03275220      -0.67487764      -0.33557777      -8.58090747
Si       2.87453352       1.66821592       3.71154547       0.52595162       0.68809976      -0.79001116       0.88061418       0.72931696      -0.47211663      -8.72865953
Si       4.83132844       2.73567147       6.61846603      -1.21051666      -0.47429058      -0.06552966      -0.21771044       0.50171656       0.48612685      -8.69540901
Si       2.81979203       3.83638316       0.42716312      -0.78226356       0.39475003      -0.27534940      -0.54194948       0.27574946       0.34876844      -8.78935355
Si       4.85102589       5.10413161       3.39883652       0.89528535       1.19812349      -0.04320920      -0.29261223      -1.42620742       0.17344536      -8.65514324
Si       6.58488008       5.99357843       6.65325485      -1.51338815      -0.12405296       0.00207949       0.50649134      -0.34431712      -0.82129095      -8.68925951
Si       4.87076698       7.10605257       0.27945683      -0.07273361       0.92373252      -0.19637805      -0.31221289       0.32830955       0.19446605      -8.68227328
Si       6.82884451       8.21645916       3.39145123      -0.07260693       0.48483599       0.61301517       0.12723784       1.22093475       0.23642227      -8.71941792
Si       8.55346626       9.37507862       6.57602449       1.45978775       0.36981482      -0.22461269      -0.35330667       0.03773899       1.01719674      -8.64131688
Si       4.65017542       0.68288229       0.50066009       0.03891608      -0.83266176      -0.04011647       0.42613573      -0.35867608      -0.12189628      -8.66878763
Si       6.78997599       1.72589717       3.66609469       1.39207598      -1.51809078      -0.68360835      -0.23192379      -0.95110998      -0.50758891      -8.75713712
Si       8.74511435       2.78151515       6.75628126       0.04430617      -0.68232792       1.19511941       0.36620681      -0.11319500      -0.57184995      -8.76072277
Si       6.81141954       3.65929543       0.34386905      -0.18829262       0.36184215      -0.42586522      -0.08008219       1.23168547       0.38607595      -8.69028338
Si       8.69882076       4.83259313       3.58975408      -0.36361704      -0.39081127       0.53747373      -0.42398738       0.86274119      -0.12160197      -8.72788458
Si      10.48333583       6.23486954       6.75423575       0.66975272       0.89663417       0.30779748       0.64835423      -0.73624134      -0.23302711      -8.69903520
Si       8.59690443       7.27385618       0.45298259      -0.66560384       0.77585759      -0.55280814       0.67942893      -1.15385461      -0.18361519      -8.73556719
Si      10.69557811       8.23135964       3.51949057      -0.05973658      -0.08848837      -0.65556502      -0.51981572       0.93132727       0.37929260      -8.66458871
Si      12.44557359       9.56247785       6.73545961       0.33906977       0.47746445       0.68113694       0.63637511      -0.46599251       0.06748661      -8.70365978
Si       8.62702252       0.43360075       0.33688766       0.32462679      -0.71420746      -0.88464210       0.10895934       1.27534825       0.39870131      -8.69132509
Si      10.61543412       1.66601685       3.43570177       0.52318163      -0.02516231      -0.54449679       0.41650350      -0.57340565       1.34693266      -8.66931311
Si      12.50952524       2.91680819       6.74496011       1.84279815       0.69869625       0.39235003      -0.72092350      -0.29120885      -0.64759470      -8.73747040
Si      10.51905589       3.95294045       0.46307005       0.75477049      -0.70442836      -0.56433277       0.34544874      -0.47412815      -0.63029337      -8.57053135
Si      12.53176162       5.13793770       3.52466144       0.81500322       0.37788985      -0.22876227      -0.23863241      -1.12999809       0.61151354      -8.69366080
Si      14.43101766       6.26902368       6.52638442       0.02887611       0.56093134       0.14486347       0.09912149      -0.77986227       0.62029779      -8.74353488
Si      12.48781616       7.39775635       0.42109073       0.12410821      -0.61507640       0.48405263       0.20952326      -0.76317519      -1.16316887      -8.68224901
Si      14.58238811       8.32987324       3.51151543       0.03052669      -1.40842684      -0.32257289      -0.61373030       0.74925592       0.32204097      -8.63797472
Si      16.45628984       9.31595733       6.74691370       1.00636896       0.39404655      -0.19168468      -0.80156319       1.01014983      -0.46909781      -8.72399216
P        0.89393475       0.56465868       0.33091473      -0.22440002       0.65233968      -0.41671369       0.91282961      -0.16702650       0.42005374      -9.75188968
54
Lattice="11.5478352 0.0 0.0 5.773917198490155 10.000722372470358 0.0 5.773916394327279 3.333571176804646 9.428767828939895" Properties=species:S:1:pos:R:3:momenta:R:3:forces:R:3:energies:R:1 spacegroup="_JSON {\"number\": 1, \"setting\": 1}" unit_cell=conventional occupancy="_JSON {\"0\": {\"Si\": 1.0}, \"1\": {\"Si\": 1.0}, \"2\": {\"Si\": 1.0}, \"3\": {\"Si\": 1.0}, \"4\": {\"Si\": 1.0}, \"5\": {\"Si\": 1.0}, \"6\": {\"Si\": 1.0}, \"7\": {\"Si\": 1.0}, \"8\": {\"Si\": 1.0}, \"9\": {\"Si\": 1.0}, \"10\": {\"Si\": 1.0}, \"11\": {\"Si\": 1.0}, \"12\": {\"Si\": 1.0}, \"13\": {\"Si\": 1.0}, \"14\": {\"Si\": 1.0}, \"15\": {\"Si\": 1.0}, \"16\": {\"Si\": 1.0}, \"17\": {\"Si\": 1.0}, \"18\": {\"Si\": 1.0}, \"19\": {\"Si\": 1.0}, \"20\": {\"Si\": 1.0}, \"21\": {\"Si\": 1.0}, \"22\": {\"Si\": 1.0}, \"23\": {\"Si\": 1.0}, \"24\": {\"Si\": 1.0}, \"25\": {\"Si\": 1.0}, \"26\": {\"Si\": 1.0}, \"27\": {\"Si\": 1.0}, \"28\": {\"Si\": 1.0}, \"29\": {\"Si\": 1.0}, \"30\": {\"Si\": 1.0}, \"31\": {\"Si\": 1.0}, \"32\": {\"Si\": 1.0}, \"33\": {\"Si\": 1.0}, \"34\": {\"Si\": 1.0}, \"35\": {\"Si\": 1.0}, \"36\": {\"Si\": 1.0}, \"37\": {\"Si\": 1.0}, \"38\": {\"Si\": 1.0}, \"39\": {\"Si\": 1.0}, \"40\": {\"Si\": 1.0}, \"41\": {\"Si\": 1.0}, \"42\": {\"Si\": 1.0}, \"43\": {\"Si\": 1.0}, \"44\": {\"Si\": 1.0}, \"45\": {\"Si\": 1.0}, \"46\": {\"Si\": 1.0}, \"47\": {\"Si\": 1.0}, \"48\": {\"Si\": 1.0}, \"49\": {\"Si\": 1.0}, \"50\": {\"Si\": 1.0}, \"51\": {\"Si\": 1.0}, \"52\": {\"Si\": 1.0}, \"53\": {\"P\": 1.0}}" energy=-470.32501944676795 stress="8.870526283461057e-05 0.0018189479512493683 0.0014626041019309482 0.0018189479512493683 -0.0013761598247446114 0.0008927923526977083 0.0014626041019309482 0.0008927923526977083 0.0022733846804355974" free_energy=-470.32501944676795 pbc="T T T"
Si       6.70011967       3.85178580       2.70616259      -0.97050990       0.91083859      -0.57004993       0.96421088      -0.51941199       0.21959305      -8.71773613
Si       8.59902870       4.98241865       5.95367383      -0.93091686       0.87056943       0.38215895       0.38297948       0.08769029       0.19418054      -8.70028293
Si      10.50896983       6.20902415       9.09678760       0.56180259      -0.93891573      -0.29441227       0.03955181      -0.62688807      -0.22716137      -8.70146014
Si       8.72218910       7.12527051       2.74928298       0.08141870       0.47308285       0.44566648       0.45043474      -0.36461520       0.34864840      -8.71429059
Si      10.52850489       8.39069705       5.96849885      -0.27581447       0.01540451       0.23904784       1.13657670       0.26717061      -1.19586875      -8.74023162
Si      12.59647790       9.31133227       9.08542841      -1.16664935      -0.48048282      -0.43550643      -0.57621208       0.33649891      -0.29962337      -8.70785788
Si      10.52836265      10.62866958       2.86051716      -1.17145236       0.24428488      -0.49000214       1.29724523      -1.11246753       0.00471340      -8.68067686
Si      12.59480722      11.74692487       6.02940593      -1.18518309      -0.63773199       0.45614904      -0.41844187      -0.23373889      -0.86588586      -8.72952189
Si      14.44195699      12.76817180       9.08844089      -0.30461839       2.59699890       1.90768995      -0.88714196       0.48071418       0.18543852      -8.59228647
Si      10.70531550       3.81514549       2.81172794       1.26576944      -0.28003856      -0.93193112      -0.58705739       1.16828413      -0.53074648      -8.74032109
Si      12.50264136       5.08904933       5.91620958      -0.75693182      -0.46836336      -1.24623709      -0.39503399       0.79990999      -0.33724622      -8.70673920
Si      14.46027011       5.98968251       8.88827633       0.09178677       0.10065868       1.36907613       0.55831286       0.44084351       0.58856363      -8.70125783
Si      12.69637969       7.28185303       2.67153271       0.81073757       0.48112163       0.63244885      -1.16603707      -0.09546622       0.69162892      -8.75972153
Si      14.39127970       8.42474507       5.90265605       0.24670514      -0.53991362      -1.06850997       0.53043322       0.76565362      -0.31990376      -8.67724995
Si      16.39385827       9.54077221       9.06996367       0.59442761      -1.29939023       0.32839440      -0.41977914      -0.70588131       0.14007465      -8.69299887
Si      14.44118816      10.62387028       2.72167342       0.80210948      -0.66760569      -0.63475852       0.81932478      -1.29694448      -0.48793264      -8.69055471
Si      16.43525511      11.61333100       5.96357933       1.13067194       0.70260623      -1.07239112       0.46133319       0.37851771      -0.71399087      -8.60630879
Si      18.09580074      12.94495769       9.03539772      -0.31411354      -0.52878241       0.78712416       0.99228304      -0.99094113       0.42631502      -8.66695328
Si      14.38797678       3.81645954       2.78454599       0.77916878      -0.56023563       0.71036744       0.56398936       1.53485665      -0.15945033      -8.65922910
Si      16.25279901       4.97897822       5.73729152       1.13532460       0.98833283      -0.02575229      -0.38420661      -0.36989416       0.32412869      -8.69520833
Si      18.28133653       6.14500374       9.00547792      -0.80119201       0.82410652       0.80493349      -1.20808025      -0.49708895      -0.37980194      -8.58009258
Si      16.43128086       7.21035019       2.60085728      -0.96579161      -0.46805076      -0.29169406       0.08558589       0.90481973       0.09327810      -8.74523180
Si      18.14174602       8.15312293       5.70598941       0.34943602       0.35065275       0.84857647       1.34211820       0.63275357       1.26319725      -8.62573712
Si      20.10449843       9.40011483       9.08473857      -0.28820860       1.71220089      -0.86279341       0.41016391       0.65786644      -1.15789284      -8.65799367
Si      18.37975439      10.52356891       2.78180727      -1.28039939      -1.46337752      -0.21060135      -0.21471096       0.28244043      -0.66525902      -8.48904478
Si      20.12439452      11.68775526       6.04315022       0.33572034      -0.82633803      -0.89174868       0.37052820      -0.67888384      -0.73344156      -8.71972831
Si      22.10855751      12.72608190       8.96619263      -0.20456351      -0.80796051      -0.88682866       0.36616749       0.06463011       0.05134093      -8.57955786
Si       2.91748141       1.72004958       3.66289381       0.70205465       0.96911626      -0.86838435      -0.67930636      -0.50532609       0.29722712      -8.74477039
Si       4.76938460       2.73630991       6.62815167      -0.96767954       0.57508689       0.30154502       0.49964916       0.79496839      -0.03901096      -8.69099501
Si       2.77545582       3.86660563       0.43167031      -0.56199764       0.75596723       0.48189647       0.77452468       0.25675085       0.47567447      -8.77021625
Si       4.87641421       5.10005150       3.40483730      -0.09592459      -1.39885560       0.28024401      -0.95603231      -1.58349853       0.19417809      -8.66597758
Si       6.53785119       5.98165208       6.63162622      -0.04781122      -0.14390796      -0.57328269       1.39874689       0.37760198       0.15229757      -8.70038541
Si       4.85540855       7.15713281       0.27698227      -0.49516536       0.83223161       0.08956143      -0.24047770      -0.41837646       0.14601153      -8.69433570
Si       6.82079937       8.27552327       3.42384750      -0.36861665       1.41068739       0.48814936      -0.38854631      -0.17713122      -0.27560263      -8.75892194
Si       8.59509949       9.39429942       6.60570779      -0.15167044       0.32297608       1.33471890      -1.42550481      -0.14241049       0.91103885      -8.61776862
Si       4.66654466       0.64063398       0.49667051       0.55757276      -0.50008393      -0.01811502       0.31986581       0.72148995       0.23185966      -8.72416510
Si       6.83527556       1.63308235       3.62041907       0.02627730      -1.59027587      -0.89301778      -1.39698327       0.70902567       0.13262986      -8.69195381
Si       8.75974634       2.75071374       6.79319152       0.41995119      -0.33409277       0.20159632       0.00210457       0.51007686      -0.62254835      -8.74801546
Si       6.79756524       3.72125229       0.34000482      -0.34806920       1.83658605       0.30500726      -0.11358480       0.57643086       0.49020083      -8.73965002
Si       8.67173951       4.84199611       3.60353134      -0.51609645       0.67451915      -0.13997450       0.17645564       0.57065459      -0.61901416      -8.69650521
Si      10.53438841       6.24093414       6.76065804       1.08333950      -0.79106088      -0.09662272      -0.11602326      -1.21453012      -0.36744634      -8.69936232
Si       8.59241662       7.26804960       0.42070081       0.51801648      -0.91340012      -0.60606486       0.77189068      -0.83892358       0.10991052      -8.72838108
Si      10.67477461       8.26357105       3.50506978      -0.66160714       1.27431265       0.16673187      -0.23661644       0.76238187       0.62632351      -8.61190923
Si      12.48071548       9.56068749       6.76878699       0.84655370      -0.67794302       0.46495713       0.03520121      -0.96804764      -0.42487826      -8.71359163
Si       8.63922822       0.44569675       0.31188957       0.02635438       1.08834628       0.00587345      -0.33046999       0.92514238       0.69001304      -8.69592199
Si      10.65458641       1.63740812       3.46286752       0.84145320      -1.04935263       1.54816314      -0.07915255      -0.49133575       1.20369822      -8.72334241
Si      12.56559342       2.93593467       6.74261319       0.14653365      -0.06700179      -0.39217239      -1.29908788      -0.67060009      -0.31928547      -8.72191582
Si      10.56700770       3.90134763       0.41654903       0.94735701      -1.16811449      -1.03643503      -0.16449708      -0.09307084       0.05117841      -8.64895519
Si      12.56437637       5.11233112       3.53355966       0.43602968      -1.27040056       0.46451371      -0.21656532      -0.80452232       0.20298949      -8.70718938
Si      14.43359718       6.25595851       6.55686285       0.01067774      -1.17802467       0.96305298      -0.12661997      -1.21922481       0.39812624      -8.73435651
Si      12.50025047       7.34740936       0.39907185       0.30140840      -1.08223655      -1.19430169       0.01115663       0.11426677      -0.66712751      -8.71757388
Si      14.56612299       8.29613537       3.50851029      -0.49571878       0.26838896       0.20605340      -0.01587832       1.32175443       0.30466924      -8.65712204
Si      16.46923086       9.37129465       6.71943017      -0.59207291       1.58335854      -0.80984457      -1.11675418       0.47993634      -0.28798529      -8.73108544
P        0.91238885       0.58745129       0.32803046       0.87011620       0.26950190       0.32773503       0.39796765      -0.30391110       0.54797624      -9.71237874
54
Lattice="11.5478352 0.0 0.0 5.773917198490155 10.000722372470358 0.0 5.773916394327279 3.333571176804646 9.428767828939895" Properties=species:S:1:pos:R:3:momenta:R:3:forces:R:3:energies:R:1 spacegroup="_JSON {\"number\": 1, \"setting\": 1}" unit_cell=conventional occupancy="_JSON {\"0\": {\"Si\": 1.0}, \"1\": {\"Si\": 1.0}, \"2\": {\"Si\": 1.0}, \"3\": {\"Si\": 1.0}, \"4\": {\"Si\": 1.0}, \"5\": {\"Si\": 1.0}, \"6\": {\"Si\": 1.0}, \"7\": {\"Si\": 1.0}, \"8\": {\"Si\": 1.0}, \"9\": {\"Si\": 1.0}, \"10\": {\"Si\": 1.0}, \"11\": {\"Si\": 1.0}, \"12\": {\"Si\": 1.0}, \"13\": {\"Si\": 1.0}, \"14\": {\"Si\": 1.0}, \"15\": {\"Si\": 1.0}, \"16\": {\"Si\": 1.0}, \"17\": {\"Si\": 1.0}, \"18\": {\"Si\": 1.0}, \"19\": {\"Si\": 1.0}, \"20\": {\"Si\": 1.0}, \"21\": {\"Si\": 1.0}, \"22\": {\"Si\": 1.0}, \"23\": {\"Si\": 1.0}, \"24\": {\"Si\": 1.0}, \"25\": {\"Si\": 1.0}, \"26\": {\"Si\": 1.0}, \"27\": {\"Si\": 1.0}, \"28\": {\"Si\": 1.0}, \"29\": {\"Si\": 1.0}, \"30\": {\"Si\": 1.0}, \"31\": {\"Si\": 1.0}, \"32\": {\"Si\": 1.0}, \"33\": {\"Si\": 1.0}, \"34\": {\"Si\": 1.0}, \"35\": {\"Si\": 1.0}, \"36\": {\"Si\": 1.0}, \"37\": {\"Si\": 1.0}, \"38\": {\"Si\": 1.0}, \"39\": {\"Si\": 1.0}, \"40\": {\"Si\": 1.0}, \"41\": {\"Si\": 1.0}, \"42\": {\"Si\": 1.0}, \"43\": {\"Si\": 1.0}, \"44\": {\"Si\": 1.0}, \"45\": {\"Si\": 1.0}, \"46\": {\"Si\": 1.0}, \"47\": {\"Si\": 1.0}, \"48\": {\"Si\": 1.0}, \"49\": {\"Si\": 1.0}, \"50\": {\"Si\": 1.0}, \"51\": {\"Si\": 1.0}, \"52\": {\"Si\": 1.0}, \"53\": {\"P\": 1.0}}" energy=-471.2667642315288 stress="-0.00013259951223864693 0.0014461925950401328 0.0011634535258573326 0.0014461925950401328 5.283469100579759e-06 8.902723842570386e-05 0.0011634535258573326 8.902723842570386e-05 -0.0006152154621190986" free_energy=-471.2667642315288 pbc="T T T"
Si       6.69363483       3.86952282       2.69029291       0.75106966      -0.33700838       0.06360863       1.06147632      -0.92021909       0.60948847      -8.72824425
Si       8.57544196       5.02041679       5.97487086       0.21895528       0.37636630       0.26899377       1.10030168      -0.69537699      -0.41279039      -8.70599048
Si      10.53629402       6.14559695       9.07722939       0.45080415      -1.24769992      -0.37377043      -0.08803636       0.28548945       0.07134967      -8.71465989
Si       8.73702800       7.13953226       2.77900897       0.34640601       0.17022702       0.54605714      -0.08483893       0.02430071      -0.20537265      -8.74265539
Si      10.55301198       8.39846916       5.94372171       0.99778355       0.18677988      -0.93268962       0.33150711      -0.10201404      -0.22489642      -8.72335306
Si      12.52237346       9.31148433       9.05596535      -1.45573572       0.67779299      -0.59245896       0.22104927       1.06802316       0.07058881      -8.73954177
Si      10.52097997      10.60208677       2.83494083       0.81056140      -1.07608004      -0.45865235       0.99686854      -0.40238439       0.10118087      -8.75612878
Si      12.52698712      11.70773454       6.02003229      -1.20003498      -0.80620725      -0.77047461       0.36398231      -0.03112196      -0.70415816      -8.71590887
Si      14.39822572      12.89477278       9.17864213      -1.10600074       1.73092571       1.22765400       0.12001768      -1.46548787      -0.99614517      -8.56725783
Si      10.73966549       3.83226517       2.75045088      -0.09483154       0.63078709      -1.21390804      -1.12812270       0.01842044       0.21500527      -8.67974058
Si      12.45723866       5.08832963       5.85021454      -0.78815522       0.22062401      -1.01477541       0.33943620      -0.04292303       0.64429988      -8.75705915
Si      14.47923051       6.01891063       8.97571595       0.44110036       1.12308928       1.81052581      -0.18959499       0.84534762      -0.02346249      -8.73062805
Si      12.68403548       7.29543516       2.71993325      -1.34497834      -0.06451139       1.01737303      -1.40725943      -0.48451499      -0.06863521      -8.67982379
Si      14.42271297       8.41727850       5.84704649       0.88670452       0.03198219      -0.79821043       0.27156537      -0.09099999       0.65388573      -8.72225754
Si      16.40615172       9.45085393       9.08166122      -0.12852949      -1.97419905      -0.09477998      -0.43168764      -0.09129987      -0.68249310      -8.71733366
Si      14.50761784      10.55039744       2.68084260       1.49753274      -1.78943297      -0.64730702      -0.06182690       0.04630199       0.55615034      -8.72916746
Si      16.50215625      11.66386066       5.89293855       1.16486178       1.16995740      -1.29872990      -0.54605017       0.16015946       0.55183616      -8.73988991
Si      18.11976839      12.88227050       9.08100520       1.17255665      -1.70765949       0.72816038       0.77894529      -0.38255162      -0.44817887      -8.69475281
Si      14.44450843       3.84820654       2.81045996       1.20497470       1.59622557       0.22350701      -0.13541515       0.83449667      -0.38924209      -8.74931216
Si      16.28942476       5.00915618       5.74868936       0.21773823       0.10133693       0.46663108      -0.55302018      -0.59990492       0.34525971      -8.72627763
Si      18.21314618       6.16202898       9.02514162      -1.28886082      -0.27254347      -0.13518039       0.73736513      -0.87615317      -0.69579865      -8.54736766
Si      16.38795801       7.21372810       2.59980560      -0.64986337       0.38678084       0.43905712       0.23305072       0.10740749       0.80487965      -8.70848265
Si      18.20233997       8.20028331       5.79276299       1.69361906       1.50286053       2.26505912       0.28172902       0.82232170       0.49465383      -8.69379431
Si      20.11070185       9.49884551       9.00658879       0.58843117       1.73130820      -1.78726734       0.64421606      -0.58545717       0.15382579      -8.73074610
Si      18.31878960      10.47522912       2.74728649      -0.82054893      -0.12986029      -1.02428883       0.66162231       1.23099101      -0.32372682      -8.50285924
Si      20.15000868      11.62929292       5.97395477       0.50523227      -1.16162436      -1.56949142      -0.15157739       0.24861462      -0.04350851      -8.72701497
Si      22.10942684      12.69807538       8.93011620       0.16777731      -0.05827673      -0.33416978       0.10117877       0.84735801       0.64681411      -8.49618775
Si       2.91891562       1.73703197       3.62910755      -0.68993825      -0.48887114      -0.52062761      -0.86158666      -1.14591572      -0.09492284      -8.69090193
Si       4.74145336       2.79213046       6.63517175      -0.07382051       1.38800480      -0.14759037       0.59719470       0.14161390      -0.47295705      -8.72771117
Si       2.77950883       3.91542147       0.46519175       0.68269391       1.06215174       0.55016598       0.67215139       0.08938643      -0.47251226      -8.67890323
Si       4.83575802       4.98861603       3.42378674      -1.29446822      -2.33853653       0.38990332      -0.28891660       0.40283364       0.00962690      -8.73950177
Si       6.58818624       5.99586774       6.61832374       1.80352435       0.76471188       0.20445780       0.76270213       0.68529914       0.69125954      -8.73131777
Si       4.82214337       7.18107300       0.28490602      -0.72396406       0.08008469       0.17189450      -0.04357733      -0.41272089      -0.00278876      -8.73840674
Si       6.78895720       8.32152551       3.44161141      -0.75094612       0.02642243       0.28132126      -0.02685284      -1.37885422       0.06669334      -8.73570461
Si       8.54490366       9.40063765       6.69635993      -1.37802452      -0.15677575       1.74095634       0.05870343      -0.40536095      -0.58197790      -8.73947686
Si       4.70860299       0.64424414       0.50796661       1.03940802       0.54860407       0.44889347       0.28297429       0.36960219       0.22652709      -8.75609259
Si       6.78978837       1.58284969       3.57938245      -1.47268751      -0.30710417      -0.68738365      -0.29656669       0.80524373       0.09487412      -8.64973951
Si       8.77255579       2.75546181       6.78458946      -0.10196225       0.52315888      -0.43714975      -0.65884291       0.53713228      -0.26175507      -8.65484361
Si       6.77520469       3.82360648       0.37033525      -0.49710446       1.75109960       0.73555065      -0.08460492      -0.63392077       0.03772059      -8.74526847
Si       8.65611061       4.89534092       3.57640278      -0.00306086       1.26416377      -0.76564495       0.48319810       0.18499824      -0.12338268      -8.68211778
Si      10.57719362       6.16539032       6.73843337       0.37941502      -1.76521517      -0.78153406      -0.77448404       0.03580548      -0.47307803      -8.73557904
Si       8.64196140       7.20189756       0.39766119       1.17940496      -1.33503443      -0.18125597       0.02428176       0.23289633       0.45881557      -8.67287137
Si      10.63638858       8.34931792       3.53536690      -0.70029267       1.73270034       0.90158676       0.15811497      -0.27413932       0.28347690      -8.70310374
Si      12.52056772       9.49190102       6.76898393       0.58383258      -1.78854652      -0.58356460      -0.31448763      -0.36157143      -0.90172646      -8.75316867
Si       8.63283051       0.52250115       0.33534932      -0.13752374       1.50378244       0.77826025       0.17426329      -0.37297123       0.25836981      -8.73171540
Si      10.68783607       1.57904012       3.57122578       0.29583530      -0.86835717       2.09763457      -0.58742576       0.68775027      -0.70045482      -8.74102323
Si      12.53271479       2.90812697       6.71456278      -1.11774536      -0.90510921      -0.59506195      -0.19170730      -0.32235190       0.02019363      -8.71936297
Si      10.59968692       3.84445367       0.37389474       0.09625964      -0.83708739      -0.41730950      -0.92216918       0.53734596       0.71856233      -8.73084470
Si      12.58063378       5.03103907       3.55554517       0.20104305      -1.49352020       0.17528528      -0.15735274       0.49699416      -0.56361472      -8.74137409
Si      14.42751331       6.16148499       6.61577829      -0.26114044      -2.08025915       1.14674277      -0.19867779       0.10288473      -0.12501040      -8.71831783
Si      12.51207786       7.30166317       0.33253548       0.05417711      -0.60603712      -0.93471692      -0.35304812       0.31688016       0.91487502      -8.76036841
Si      14.54555141       8.35423956       3.52447812      -0.24453521       1.68943443       0.24216212       0.15023740       0.29563648      -0.30593079      -8.75975929
Si      16.40392169       9.46123355       6.67153212      -1.66258263       1.61893189      -0.89095202      -0.19382766      -0.39760361       0.20568992      -8.73378868
P        0.95407981       0.59201938       0.36209482       0.55563315       0.00526236       1.06750367      -0.87657526       0.01428370       0.39261725      -9.76906503
54
Lattice="11.5478352 0.0 0.0 5.773917198490155 10.000722372470358 0.0 5.773916394327279 3.333571176804646 9.428767828939895" Properties=species:S:1:pos:R:3:momenta:R:3:forces:R:3:energies:R:1 spacegroup="_JSON {\"number\": 1, \"setting\": 1}" unit_cell=conventional occupancy="_JSON {\"0\": {\"Si\": 1.0}, \"1\": {\"Si\": 1.0}, \"2\": {\"Si\": 1.0}, \"3\": {\"Si\": 1.0}, \"4\": {\"Si\": 1.0}, \"5\": {\"Si\": 1.0}, \"6\": {\"Si\": 1.0}, \"7\": {\"Si\": 1.0}, \"8\": {\"Si\": 1.0}, \"9\": {\"Si\": 1.0}, \"10\": {\"Si\": 1.0}, \"11\": {\"Si\": 1.0}, \"12\": {\"Si\": 1.0}, \"13\": {\"Si\": 1.0}, \"14\": {\"Si\": 1.0}, \"15\": {\"Si\": 1.0}, \"16\": {\"Si\": 1.0}, \"17\": {\"Si\": 1.0}, \"18\": {\"Si\": 1.0}, \"19\": {\"Si\": 1.0}, \"20\": {\"Si\": 1.0}, \"21\": {\"Si\": 1.0}, \"22\": {\"Si\": 1.0}, \"23\": {\"Si\": 1.0}, \"24\": {\"Si\": 1.0}, \"25\": {\"Si\": 1.0}, \"26\": {\"Si\": 1.0}, \"27\": {\"Si\": 1.0}, \"28\": {\"Si\": 1.0}, \"29\": {\"Si\": 1.0}, \"30\": {\"Si\": 1.0}, \"31\": {\"Si\": 1.0}, \"32\": {\"Si\": 1.0}, \"33\": {\"Si\": 1.0}, \"34\": {\"Si\": 1.0}, \"35\": {\"Si\": 1.0}, \"36\": {\"Si\": 1.0}, \"37\": {\"Si\": 1.0}, \"38\": {\"Si\": 1.0}, \"39\": {\"Si\": 1.0}, \"40\": {\"Si\": 1.0}, \"41\": {\"Si\": 1.0}, \"42\": {\"Si\": 1.0}, \"43\": {\"Si\": 1.0}, \"44\": {\"Si\": 1.0}, \"45\": {\"Si\": 1.0}, \"46\": {\"Si\": 1.0}, \"47\": {\"Si\": 1.0}, \"48\": {\"Si\": 1.0}, \"49\": {\"Si\": 1.0}, \"50\": {\"Si\": 1.0}, \"51\": {\"Si\": 1.0}, \"52\": {\"Si\": 1.0}, \"53\": {\"P\": 1.0}}" energy=-470.54389151734665 stress="-0.001741756275154009 -0.002928904860224462 -0.0022794204507139803 -0.002928904860224462 1.8440747263943009e-06 -0.00041941475335542937 -0.0022794204507139803 -0.00041941475335542937 -0.005039261509623556" free_energy=-470.54389151734665 pbc="T T T"
Si       6.76016309       3.82474173       2.71827604       1.49118054      -1.14468987       0.96972740      -0.06713021      -0.03591722       0.47044237      -8.75924584
Si       8.62745729       5.01120592       5.96546216       1.59704212      -0.68570254      -0.74134196       0.43999932      -0.52984410      -0.85758025      -8.75672060
Si      10.55794022       6.10321905       9.06014140       0.39280696      -0.18390692      -0.30446524      -0.01997644       0.98998683      -0.02507971      -8.71512161
Si       8.74766561       7.15604192       2.79516444       0.00240052       0.56660209       0.01330907      -0.31238668       0.43514120      -0.42541730      -8.75122071
Si      10.60157074       8.39725941       5.90108655       0.55718018      -0.36618058      -0.44728552      -0.82893613      -0.62041344       0.73444559      -8.65729769
Si      12.46433634       9.38384062       9.02965793      -0.58900621       1.90065434      -0.39595903       0.87633671       0.37896330       0.13074927      -8.74859706
Si      10.58324698      10.54783210       2.81656148       1.19928210      -0.68783555      -0.22899496      -0.41390245       0.76800001       0.15595548      -8.75973897
Si      12.48355501      11.66558332       5.95772959      -0.38689733      -0.77179137      -1.49255054       0.63974034       0.08363743      -0.25826766      -8.68089291
Si      14.36446068      12.92096113       9.20000007       0.08310020      -0.75713908      -0.41759517       1.12771296      -1.57094934      -1.01652811      -8.48128586
Si      10.69333266       3.85667870       2.70533284      -1.56281087       0.18883426      -0.33044792      -0.69984238      -0.42855549       0.89843136      -8.64505305
Si      12.43552573       5.08531565       5.82714236       0.04524531      -0.52932914       0.15298755       0.66624015      -0.79656405       0.72342568      -8.75527134
Si      14.48218780       6.10458282       9.06118924      -0.56155655       1.93212750       1.28541691      -1.08836780       0.02833274      -0.66043572      -8.72700903
Si      12.57324793       7.27723486       2.76729501      -2.55582124      -0.52901486       0.74016628      -0.15444157      -0.10556832      -0.26980293      -8.63607333
Si      14.47333044       8.40386157       5.83414095       0.90928741      -0.73913306       0.28523468      -0.25037534      -0.86008391       0.58279682      -8.70841610
Si      16.38783099       9.35638340       9.04585597      -0.47155535      -1.37889833      -1.28526618      -0.05384840       0.87587093      -0.73355562      -8.71398890
Si      14.57075693      10.48316019       2.67620478       0.69419221      -0.33697365       0.52098373      -0.92110539       1.72283668       0.76891752      -8.65235523
Si      16.52540463      11.72398979       5.86210719      -0.57621809       0.97244598       0.31191891      -1.69149476      -0.41116647       1.25765347      -8.71290371
Si      18.19948836      12.79450391       9.09629872       1.64130135      -1.32889407      -0.20687126      -0.09213279       0.80243852      -0.68851972      -8.70212924
Si      14.48466327       3.93267881       2.80561646       0.00088131       1.04561369      -0.46340597      -1.32389415      -1.37154642      -0.58598623      -8.72885793
Si      16.29050717       5.00104445       5.78530461       0.04411708      -0.17778125       0.88615277       0.29669682       0.29745117       0.18442059      -8.75144781
Si      18.19035400       6.11845583       8.99934770       0.55030473      -1.21723925      -0.61296319       1.27395192      -0.20736390       0.21855913      -8.52728883
Si      16.35984954       7.22620051       2.65275283      -0.48563990      -0.11021528       1.47594726      -0.00558181      -0.67362291       0.41072302      -8.68926974
Si      18.27938673       8.30220499       5.91378608       0.78515674       2.12636123       1.99948820      -1.49195088      -0.16300046      -0.86523749      -8.67251258
Si      20.15953588       9.55899328       8.94319152       1.07833993       0.46444385      -0.24462618      -0.11302024      -0.98559772       1.60189864      -8.70288397
Si      18.30076339      10.50668024       2.69319836       0.04891478       1.03928553      -0.77347381       0.33178049       0.12465568       0.69204123      -8.57571218
Si      20.16636016      11.58598128       5.90162461       0.06739398      -0.37657024      -1.00685415      -0.35050166       0.70521103       0.64802867      -8.67997831
Si      22.11878581      12.72909966       8.93914139       0.13656619       1.20484489       0.65701370      -0.10649558       0.70947578       0.56665270      -8.47194850
Si       2.86189074       1.67711130       3.58539701      -1.20439779      -1.53600773      -1.32732713       0.23279330      -0.14181321      -0.77712092      -8.68623766
Si       4.75725408       2.85504090       6.61196292       0.60350113       0.70239705      -0.62585857       0.31329579      -1.05478737      -0.04799783      -8.74382905
Si       2.83327934       3.96969942       0.46560355       1.22042505       0.90026025      -0.66288200       0.09291145      -0.33386029      -0.97307566      -8.59324424
Si       4.78526462       4.90358109       3.44859886      -0.08842132      -0.57216440       0.66198908       1.73025620       1.67199819       0.39084576      -8.66798005
Si       6.69380776       6.05727255       6.65020655       1.91636783       1.43207763       0.83905065      -0.42815039       0.12199271       0.02236665      -8.74877581
Si       4.78663988       7.17956282       0.29616886      -0.53544524       0.09578740       0.34204907       0.32819423       0.49220518       0.32599670      -8.76461271
Si       6.75570260       8.27887943       3.46326995      -0.39511056      -1.34576003       0.60828381       0.43960451      -0.21756515       0.32623965      -8.69864288
Si       8.50166501       9.38425132       6.74424196       0.22959217      -0.24945745      -0.17801053       2.01349904       0.42950389      -1.56369568      -8.68234745
Si       4.77048932       0.66989672       0.53187541       1.24265271       0.11028344       0.27883979      -0.01424603      -0.85225234      -0.49139474      -8.73983668
Si       6.72361197       1.59114240       3.54777283      -0.65419434       0.47818903      -0.47496702       1.24923679       0.22935347       0.25230229      -8.65025190
Si       8.73894800       2.79696961       6.75452899      -1.18532849       0.88519471      -0.65562822      -0.68770157      -0.14808725      -0.04594413      -8.60960971
Si       6.74626730       3.88657795       0.40408299      -0.60004454       0.66803637       0.45646655      -0.06304722      -0.57363238      -0.32431263      -8.74230132
Si       8.67596257       4.96117082       3.53996496       0.75582081       1.08825780      -0.47988278       0.45791774      -0.42442670       0.43504604      -8.70277186
Si      10.56653448       6.09026627       6.68455240      -0.70558284      -0.84189196      -1.12828388      -0.44464429       1.04491182       0.08644947      -8.72499170
Si       8.69398450       7.14981250       0.40688415       0.63094109      -0.51758700       0.50489184      -0.64840143       0.75984728       0.34249881      -8.62050472
Si      10.60743931       8.41311844       3.58590054      -0.40164014       0.42521521       0.87238586       0.16582600      -1.32325755      -0.31385910      -8.74983859
Si      12.53958696       9.39764085       6.70722617       0.18049890      -1.54363788      -1.61645245      -0.16408505       0.66163793      -0.30379117      -8.76702934
Si       8.63809090       0.57800319       0.37791076       0.41151681       0.53599479       0.70084483       0.45944461      -0.67924231      -0.29845343      -8.72785406
Si      10.67981277       1.56669826       3.62820212      -0.57652003       0.46981239      -0.27236395      -0.48658970       0.99199321      -2.00591447      -8.65558976
Si      12.48763066       2.85815726       6.68905086      -0.23038753      -0.81797033      -0.27644881       1.23427493       0.36907439       0.40265783      -8.66731302
Si      10.57393268       3.82373942       0.38004618      -0.83564289       0.02602941       0.57892005      -0.00200802       0.46315920       0.43692610      -8.77697535
Si      12.58152234       4.98199707       3.54003178      -0.26260964      -0.25527173      -0.74434670      -0.52564966       0.97615868      -0.47729209      -8.74654776
Si      14.40788870       6.07150465       6.66880032      -0.43491008      -1.10876726       0.86255251       0.00674948       1.05649876      -0.18180657      -8.66218768
Si      12.49955875       7.27225891       0.32713553      -0.52899152      -0.72963929       0.79172893      -0.35114696      -0.48667956       1.16897526      -8.74508433
Si      14.53073216       8.42797470       3.52243010      -0.48576463       0.61723946      -0.28866248      -0.48383659      -1.64076155      -0.19553114      -8.75159886
Si      16.32481647       9.52580745       6.63899277      -1.07247932       0.79717471      -0.24705530       0.89523130      -0.58970652       0.59967139      -8.70057165
P        0.94120771       0.59590886       0.41953897      -1.12903370       0.16628711       1.13392146      -0.98680247       0.03592989      -0.44851720      -9.85414234
54
Lattice="11.5478352 0.0 0.0 5.773917198490155 10.000722372470358 0.0 5.773916394327279 3.333571176804646 9.428767828939895" Properties=species:S:1:pos:R:3:momenta:R:3:forces:R:3:energies:R:1 spacegroup="_JSON {\"number\": 1, \"setting\": 1}" unit_cell=conventional occupancy="_JSON {\"0\": {\"Si\": 1.0}, \"1\": {\"Si\": 1.0}, \"2\": {\"Si\": 1.0}, \"3\": {\"Si\": 1.0}, \"4\": {\"Si\": 1.0}, \"5\": {\"Si\": 1.0}, \"6\": {\"Si\": 1.0}, \"7\": {\"Si\": 1.0}, \"8\": {\"Si\": 1.0}, \"9\": {\"Si\": 1.0}, \"10\": {\"Si\": 1.0}, \"11\": {\"Si\": 1.0}, \"12\": {\"Si\": 1.0}, \"13\": {\"Si\": 1.0}, \"14\": {\"Si\": 1.0}, \"15\": {\"Si\": 1.0}, \"16\": {\"Si\": 1.0}, \"17\": {\"Si\": 1.0}, \"18\": {\"Si\": 1.0}, \"19\": {\"Si\": 1.0}, \"20\": {\"Si\": 1.0}, \"21\": {\"Si\": 1.0}, \"22\": {\"Si\": 1.0}, \"23\": {\"Si\": 1.0}, \"24\": {\"Si\": 1.0}, \"25\": {\"Si\": 1.0}, \"26\": {\"Si\": 1.0}, \"27\": {\"Si\": 1.0}, \"28\": {\"Si\": 1.0}, \"29\": {\"Si\": 1.0}, \"30\": {\"Si\": 1.0}, \"31\": {\"Si\": 1.0}, \"32\": {\"Si\": 1.0}, \"33\": {\"Si\": 1.0}, \"34\": {\"Si\": 1.0}, \"35\": {\"Si\": 1.0}, \"36\": {\"Si\": 1.0}, \"37\": {\"Si\": 1.0}, \"38\": {\"Si\": 1.0}, \"39\": {\"Si\": 1.0}, \"40\": {\"Si\": 1.0}, \"41\": {\"Si\": 1.0}, \"42\": {\"Si\": 1.0}, \"43\": {\"Si\": 1.0}, \"44\": {\"Si\": 1.0}, \"45\": {\"Si\": 1.0}, \"46\": {\"Si\": 1.0}, \"47\": {\"Si\": 1.0}, \"48\": {\"Si\": 1.0}, \"49\": {\"Si\": 1.0}, \"50\": {\"Si\": 1.0}, \"51\": {\"Si\": 1.0}, \"52\": {\"Si\": 1.0}, \"53\": {\"P\": 1.0}}" energy=-471.51624176766495 stress="-0.001548561660145358 -0.0028847951381923225 -0.002172725343737161 -0.0028847951381923225 -2.0480403863313303e-05 0.0001408850990481467 -0.002172725343737161 0.0001408850990481467 -0.001174568152456355" free_energy=-471.51624176766495 pbc="T T T"
Si       6.82686635       3.77938853       2.77813003       0.93454422      -0.28338676       1.11932995      -0.54374100       1.13178054      -0.27479288      -8.72223954
Si       8.70757108       4.96643554       5.89528255       1.09021887      -0.78215002      -1.82579135      -0.96823356       0.39660202      -0.41365127      -8.76273108
Si      10.57669235       6.12733766       9.04131825       0.29572284       0.92649856      -0.44059088      -0.11634992       0.30846725      -0.13563332      -8.73443848
Si       8.73621839       7.20027805       2.78243732      -0.41738425       1.01459283      -0.40739272      -0.23478716       0.03011315      -0.07357641      -8.77348411
Si      10.59454249       8.35224185       5.90687373      -0.78455676      -1.32344536       0.59649475      -0.64924384      -0.50955598       0.45232443      -8.72223537
Si      12.46816156       9.48423921       9.01231167       0.67803894       1.68936787      -0.29421100       0.64953627      -0.54905101       0.02067222      -8.72304587
Si      10.62173974      10.54171485       2.80962981       0.20395791       0.36336001      -0.05658877      -0.66919794       0.43168330       0.06177744      -8.73689728
Si      12.48646446      11.62965541       5.87637143       0.44397280      -0.58124161      -1.46273963       0.42749839       0.14511884       0.32039375      -8.70064558
Si      14.40415669      12.83446350       9.14818702       1.21058491      -2.23000064      -1.36135694       0.29676747      -0.35777486      -0.25764803      -8.47875722
Si      10.59753993       3.85384953       2.72271904      -1.80299819      -0.17604852       0.90103817       0.42462963       0.04675872       0.52607901      -8.72353112
Si      12.45988491       5.02990421       5.85508232       0.77649291      -1.43471775       0.73708409       0.26151393      -0.21955060       0.04011102      -8.75705539
Si      14.41163123       6.19114739       9.09908381      -1.96616537       1.10429686       0.13051780      -0.45313806      -0.99997678      -0.77109958      -8.72950834
Si      12.44866487       7.24934196       2.79436185      -1.92963982      -0.48020454       0.27417593       0.88698546       0.11134644      -0.33562750      -8.70155343
Si      14.50660393       8.33064349       5.86251158       0.29843336      -1.98607558       0.62642207      -0.49236315      -0.58991523      -0.07930886      -8.72754710
Si      16.36310077       9.32432292       8.96238344      -0.44787607       0.20799590      -1.57173420       0.04525183       1.07798360       0.54341219      -8.71433830
Si      14.56588616      10.52880448       2.72626808      -0.95378236       1.78788260       1.23830395      -1.19258904       0.61972601       0.17395226      -8.71552979
Si      16.43148700      11.75799415       5.91400728      -2.80179866       0.36619801       1.35190391      -0.90402517      -0.26512291       0.05470190      -8.73488391
Si      18.27722832      12.75764642       9.06446957       1.27864740      -0.15553547      -0.83954262      -0.27272706       0.51199761      -0.03643217      -8.71713555
Si      14.44462200       3.93163297       2.75989045      -1.15489701      -0.96395012      -1.20214563       0.04089841      -0.94205123      -0.30035890      -8.74613730
Si      16.31023028       5.01160567       5.83768326       0.77903590       0.65235190       1.11622859       0.58399779       0.57264636       0.20309540      -8.73757950
Si      18.25644995       6.06087061       8.98913678       1.71834508      -0.72856486       0.40376652       0.29853670       0.76558139       0.90803007      -8.52151132
Si      16.33467725       7.19327356       2.73474558      -0.42169088      -1.08488691       1.43626147       0.19324553      -0.42993715      -0.42476871      -8.73966386
Si      18.25826587       8.39527944       5.97587225      -1.39670928       1.28830324       0.30515741      -0.72617505      -0.70285363      -1.12682966      -8.68165350
Si      20.20024445       9.54724146       8.98289669       0.31402067      -0.81776179       1.44187466      -0.71789546      -0.59457826       0.41729973      -8.75223693
Si      18.30367957      10.54786007       2.68544971      -0.19198695       0.22563057       0.48596894      -0.64712245      -1.06697488       0.72950394      -8.57344863
Si      20.15976718      11.59407443       5.87036264      -0.20706259       0.66714101      -0.32345583       0.09435979       0.62968942       0.11975191      -8.69259169
Si      22.12140880      12.81031712       8.98815580      -0.03308205       1.67303863       1.04030047      -0.09622070      -0.15038723      -0.10824640      -8.55021783
Si       2.82193105       1.60684105       3.49368649      -0.08448716      -0.85502716      -1.93003489       1.13360885       0.98231389       0.12962797      -8.69010748
Si       4.79730122       2.84448819       6.58506787       0.84651941      -1.10648428      -0.28006303       0.00662003      -1.05470061       0.41967331      -8.72463710
Si       2.89565438       3.99761072       0.39921544       1.06360098       0.03711708      -1.67925175      -0.28193723      -0.83272222      -0.23606412      -8.66095856
Si       4.84046452       4.92906492       3.49726585       1.82557090       1.21917652       1.11143000       0.38774121       0.43856408       0.10408870      -8.73690978
Si       6.77390284       6.12729127       6.68313804       1.09878500       1.06642454       0.22830506      -0.59851633      -0.54098897      -0.69839498      -8.69889272
Si       4.77598875       7.21238249       0.33276299       0.19292129       1.24729686       1.13608415       0.56577509       0.84274703       0.63972179      -8.74571162
Si       6.75024754       8.21841933       3.50867709       0.08151622      -0.65901622       1.12239810       0.02725259       0.96444166       0.32128429      -8.64245075
Si       8.59622516       9.39622917       6.68944524       3.17035609       0.75832892      -1.54537696       1.18572754       0.65033457      -0.16325459      -8.75030318
Si       4.83213898       0.64048953       0.51924758       1.05675217      -1.17121605      -0.88258518      -0.21875689      -0.63550093      -0.96238893      -8.72743320
Si       6.74266611       1.61648221       3.53445022       1.34765169       0.33013878      -0.03382870       1.11491175      -0.37329457       0.24279503      -8.71880997
Si       8.65526620       2.82653166       6.72092563      -1.89299758       0.06476373      -0.57595992      -0.25288181      -0.82162545       0.14807353      -8.69399777
Si       6.71192557       3.91051526       0.41773912      -0.72095072       0.47078811       0.14626937      -0.10678593       0.30815497      -0.01181058      -8.74226888
Si       8.72646036       4.99811068       3.53205803       0.98937274       0.31065821       0.13074293      -0.24975874      -0.45532076       0.24629084      -8.73743456
Si      10.52889461       6.08690032       6.63746679      -0.40484861       0.61556560      -0.51420663       0.79214379       0.64399635       0.68371768      -8.72039859
Si       8.70224179       7.15156489       0.43792079      -0.25621828       0.52842788       0.48340835      -0.42116899       0.54076974      -0.41174652      -8.68600611
Si      10.58917249       8.38783218       3.61480511      -0.37386350      -1.19241985       0.18217412      -0.14232253      -0.56908987      -0.49328366      -8.75135263
Si      12.54635767       9.34978153       6.62394918       0.13074770      -0.20287196      -1.32709767       0.03810258       0.96295042       0.59815886      -8.73403747
Si       8.67337216       0.58809824       0.40185835       0.79730568       0.04388433       0.23277435      -0.07807863       0.07784967      -0.22019210      -8.72779882
Si      10.63776566       1.62763183       3.55462755      -0.87315979       1.76369971      -2.02437512       0.10344387       0.61563031      -0.06648674      -8.71837175
Si      12.52217262       2.82843619       6.68999561       1.34722159      -0.41872622       0.25693428       0.46745612      -0.01599069       0.19985295      -8.75188510
Si      10.54619497       3.83636764       0.41614190      -0.02766682       0.33164322       0.57803723       0.75399972      -0.01976323      -0.41481988      -8.75539617
Si      12.54339445       5.00050016       3.49286264      -1.21732821       0.77180350      -0.83679957      -0.61358844       0.22925553       0.36538461      -8.74687426
Si      14.38950626       6.05591614       6.70847450      -0.19008624       0.46984069       0.66989095       0.30014238       0.87358250      -0.10553914      -8.69604122
Si      12.46141403       7.21416876       0.40315109      -0.85613040      -1.40040549       1.82361022      -0.07670617      -0.17456325       0.06059395      -8.73082010
Si      14.48243179       8.39308862       3.50670074      -1.37901577      -1.81118844      -0.20859949      -0.57437413      -1.14446067       0.21171319      -8.73045934
Si      16.30537267       9.54673928       6.64711956       0.25588850       0.04073354       0.44546882       0.59907927      -0.42891836       0.15982712      -8.75452121
P        0.87027543       0.59846921       0.44680769      -1.43984246      -0.19162359      -0.12862816       0.61945938      -0.46541604      -0.97995418      -9.87176539
54
Lattice="11.5478352 0.0 0.0 5.773917198490155 10.000722372470358 0.0 5.773916394327279 3.333571176804646 9.428767828939895" Properties=species:S:1:pos:R:3:momenta:R:3:forces:R:3:energies:R:1 spacegroup="_JSON {\"number\": 1, \"setting\": 1}" unit_cell=conventional occupancy="_JSON {\"0\": {\"Si\": 1.0}, \"1\": {\"Si\": 1.0}, \"2\": {\"Si\": 1.0}, \"3\": {\"Si\": 1.0}, \"4\": {\"Si\": 1.0}, \"5\": {\"Si\": 1.0}, \"6\": {\"Si\": 1.0}, \"7\": {\"Si\": 1.0}, \"8\": {\"Si\": 1.0}, \"9\": {\"Si\": 1.0}, \"10\": {\"Si\": 1.0}, \"11\": {\"Si\": 1.0}, \"12\": {\"Si\": 1.0}, \"13\": {\"Si\": 1.0}, \"14\": {\"Si\": 1.0}, \"15\": {\"Si\": 1.0}, \"16\": {\"Si\": 1.0}, \"17\": {\"Si\": 1.0}, \"18\": {\"Si\": 1.0}, \"19\": {\"Si\": 1.0}, \"20\": {\"Si\": 1.0}, \"21\": {\"Si\": 1.0}, \"22\": {\"Si\": 1.0}, \"23\": {\"Si\": 1.0}, \"24\": {\"Si\": 1.0}, \"25\": {\"Si\": 1.0}, \"26\": {\"Si\": 1.0}, \"27\": {\"Si\": 1.0}, \"28\": {\"Si\": 1.0}, \"29\": {\"Si\": 1.0}, \"30\": {\"Si\": 1.0}, \"31\": {\"Si\": 1.0}, \"32\": {\"Si\": 1.0}, \"33\": {\"Si\": 1.0}, \"34\": {\"Si\": 1.0}, \"35\": {\"Si\": 1.0}, \"36\": {\"Si\": 1.0}, \"37\": {\"Si\": 1.0}, \"38\": {\"Si\": 1.0}, \"39\": {\"Si\": 1.0}, \"40\": {\"Si\": 1.0}, \"41\": {\"Si\": 1.0}, \"42\": {\"Si\": 1.0}, \"43\": {\"Si\": 1.0}, \"44\": {\"Si\": 1.0}, \"45\": {\"Si\": 1.0}, \"46\": {\"Si\": 1.0}, \"47\": {\"Si\": 1.0}, \"48\": {\"Si\": 1.0}, \"49\": {\"Si\": 1.0}, \"50\": {\"Si\": 1.0}, \"51\": {\"Si\": 1.0}, \"52\": {\"Si\": 1.0}, \"53\": {\"P\": 1.0}}" energy=-470.9195629827168 stress="-0.0016886777075250934 0.0034099316589878974 0.0020971843533214947 0.0034099316589878974 -0.00307793374428211 0.00037557056397489623 0.0020971843533214947 0.00037557056397489623 0.0013754963080568302" free_energy=-470.9195629827168 pbc="T T T"
Si       6.85455703       3.81173666       2.82003082       0.12865383       1.45802545       0.40171767      -0.52202122       0.91429324      -0.58353072      -8.70020155
Si       8.72460223       4.94806783       5.80192469      -0.39907504       0.16422373      -1.32887012      -0.83599052       0.72423475       1.14315662      -8.70758848
Si      10.58810447       6.17278103       9.01310339       0.17559710       0.53031059      -0.61504177       0.03047912      -0.76943831      -0.05009109      -8.72456533
Si       8.70572787       7.24565503       2.76378283      -0.75826253       0.57032843      -0.22300346      -0.29264155      -0.52743842       0.23861424      -8.74500579
Si      10.54923983       8.27388840       5.94122967      -0.50907222      -1.42016464       0.42253487       0.98967215       0.43864547      -0.65797057      -8.75107952
Si      12.51643841       9.54800280       8.99744622       0.89824131       0.72254454      -0.27230807      -0.37619720      -0.63283428       0.01900627      -8.69780511
Si      10.61693539      10.56602598       2.80498009      -0.14291557       0.34998688      -0.22559586       0.26567382      -0.40038465      -0.34682974      -8.70817573
Si      12.52009072      11.60348248       5.81895808       0.69282960      -0.45334566      -0.62458146      -0.14866888       0.00253670       0.71077957      -8.74377791
Si      14.46825794      12.72036179       9.07362065       1.05172222      -1.80673719      -1.38692790      -0.42190783       0.87902620       0.11752530      -8.44936428
Si      10.53270181       3.85722230       2.77322229      -0.47074842       0.50812266       0.67215447       1.18902904       0.82348602      -0.83128402      -8.73259523
Si      12.50550059       4.96091917       5.88765165       0.88403828      -0.93632984       0.39131955      -0.05024441       0.77157867      -0.40059344      -8.70644852
Si      14.31218814       6.20836314       9.08221916      -1.45613641      -0.40767490      -0.61723654       0.96335270      -0.84383846      -0.15860966      -8.72198659
Si      12.38619178       7.22838221       2.79702255      -0.44676070      -0.33518005      -0.13411491       0.90395439       0.04246738      -0.18765220      -8.77665896
Si      14.50402820       8.22115899       5.88703458      -0.37238419      -1.78886608       0.22008528      -0.40295397       0.95959564      -0.43314714      -8.72546007
Si      16.34131651       9.36924701       8.92084880      -0.38731800       1.32056321       0.27548027       0.02544168       0.36569182       1.63264138      -8.69797482
Si      14.48109756      10.61620257       2.78760298      -1.89559742       0.99861207       0.88330156       0.30800755      -1.52153997      -0.67341228      -8.70088167
Si      16.27588916      11.77048770       5.97271456      -2.62889740       0.13291777       0.65206593       1.04260864      -0.17296768      -0.87173058      -8.61920631
Si      18.33644518      12.75672500       9.03060177       1.03641651      -0.10990964      -0.26265027      -0.05454919      -0.38719472       0.69532172      -8.70627942
Si      14.40010785       3.86383283       2.69145315      -0.36982430      -1.24116254      -1.29188317       0.74858117       0.54466138       0.15822921      -8.65272182
Si      16.37059592       5.05796621       5.90572431       1.41875126       0.88219848       1.48352345       0.17763841      -0.32565495       0.22125250      -8.72654135
Si      18.34682130       6.05535326       9.03768522       1.51329926       0.49736473       1.22017631      -0.55442971       0.68601375       0.04186657      -8.53123374
Si      16.32456517       7.13437053       2.78779945       0.09029689      -0.85099270       0.52866397       0.39839359       0.75798390      -0.64487045      -8.75823076
Si      18.19356799       8.43761506       5.95655351      -0.43365852       0.36148247      -0.85708052       1.72185280      -0.54905403      -0.38845830      -8.67629214
Si      20.19515965       9.49547406       9.05705093      -0.33204809      -0.87224669       1.11492942      -0.05492976       0.48873214      -0.65035450      -8.70725149
Si      18.26544220      10.51776060       2.72860297      -1.20272356      -1.25641457       0.96037515      -0.41613173      -0.61586348      -0.04073502      -8.58078387
Si      20.16303144      11.64708066       5.84752303       0.52045213       1.20711259      -0.72468948       0.81537108       0.07039297      -0.57171146      -8.71762608
Si      22.11671685      12.87998764       9.02877721      -0.13636918       0.78641276       0.35078289      -0.05967439      -0.90666192      -0.71396424      -8.60872583
Si       2.85635493       1.60382586       3.40994187       1.15672009       0.70072774      -1.08200917       0.22151298       0.83359626       0.84600172      -8.74552894
Si       4.83786827       2.76265923       6.58713497       0.63416875      -1.64904237       0.34981314      -0.24519073       0.34885316       0.39302120      -8.67232233
Si       2.93731987       3.96419871       0.31709253       0.48358523      -1.30499806      -1.17837028      -0.43674852      -0.79170628       0.82519028      -8.75889004
Si       4.92771185       4.98740393       3.55618413       1.13059338       0.62357116       1.10543579      -1.08728231      -1.04634158      -0.02144873      -8.69636384
Si       6.80931348       6.16077993       6.67101355       0.29512293       0.23672937      -0.56063415      -0.41643743      -0.44124717      -0.20476909      -8.69070344
Si       4.80417758       7.30071787       0.41237022       0.77834563       1.87048069       1.75345634       0.17461059      -0.11585986       0.07831158      -8.71866401
Si       6.74469449       8.22372530       3.57578378      -0.47163019       0.82344451       1.31913488      -0.65754299       0.82182265      -0.14069744      -8.68485153
Si       8.76467289       9.45581392       6.62086575       2.44008304       1.43842503      -0.74661586      -1.92257735       0.34077991       1.09290309      -8.66494636
Si       4.87696736       0.56648495       0.43958921       0.61274313      -1.41293003      -2.01358503      -0.37101033       0.28673792      -0.42497547      -8.71370353
Si       6.83448739       1.62168875       3.53719087       1.61797971       0.03202415       0.05196866      -0.97574238       0.26486725      -0.07847768      -8.75238747
Si       8.55211160       2.80273406       6.69804722      -1.92115385      -0.78812123      -0.27498863       0.22184994      -0.11770320       0.23190153      -8.74877638
Si       6.67081229       3.95421416       0.42998142      -0.80092619       1.26794541       0.38418106       0.07613609       0.59174049       0.23051335      -8.72517528
Si       8.75692574       5.00541440       3.53886714      -0.01922176       0.15604606      -0.07201176      -0.98449853       0.26706433      -0.52507728      -8.71569325
Si      10.54223103       6.12286082       6.63893988       0.89306959       0.29977649       0.55774766       0.74458436      -1.10471198       0.63249449      -8.70978416
Si       8.68022585       7.19173011       0.44109512      -0.43666842       0.82092522      -0.40606535       0.14559010      -0.16869925      -0.57753301      -8.74859582
Si      10.56143777       8.32219890       3.61032085      -0.70053066      -0.97473961      -0.23750158      -0.20288876       0.73197291      -0.05904170      -8.71495206
Si      12.55356980       9.36861371       6.58172517       0.11358705       0.71421736      -0.24313572      -0.07351334       0.16390544       0.76477086      -8.68681455
Si       8.70018946       0.60239642       0.41119504       0.01773191       0.62516236       0.23028894      -0.86930499       0.55611433       0.19034319      -8.71643172
Si      10.59989636       1.72718683       3.47273562      -0.55649265       1.64064848      -0.67924973       0.16191319      -0.88807488       1.58138303      -8.66397336
Si      12.58672610       2.79796992       6.70630898       0.68540297      -0.84478474       0.28908897      -1.19159942      -0.41758253      -0.10614250      -8.77031020
Si      10.56640475       3.84997359       0.42494558       0.61550981       0.15590722      -0.28760685       0.06276010      -0.14635669      -0.60084811      -8.67041663
Si      12.46531712       5.03315027       3.47083667      -1.52273981       0.17430603       0.10078762       0.30461731      -0.91639320       0.77669459      -8.70232604
Si      14.39214847       6.09939165       6.73890604       0.29028548       0.83395228       0.47475847       0.30607226      -0.50194211      -0.16375286      -8.74441397
Si      12.41830619       7.14572217       0.48240043      -0.68328396      -0.99720234       0.87606723       0.33708051       0.65324144      -1.18655427      -8.68937082
Si      14.39578147       8.27605258       3.50558639      -1.72458222      -2.25070939       0.19164944       0.20532209       0.42004609       0.31158427      -8.66766162
Si      16.32533669       9.53570592       6.66483476       0.19108089      -0.38776727       0.03694784      -0.60106928      -0.15290472      -0.57066079      -8.77368009
P        0.83939153       0.57333618       0.41535986       0.41271326      -0.81517637      -0.95267917       1.68364104      -0.28768788      -0.06858222      -9.79836317
54
Lattice="11.5478352 0.0 0.0 5.773917198490155 10.000722372470358 0.0 5.773916394327279 3.333571176804646 9.428767828939895" Properties=species:S:1:pos:R:3:momenta:R:3:forces:R:3:energies:R:1 spacegroup="_JSON {\"number\": 1, \"setting\": 1}" unit_cell=conventional occupancy="_JSON {\"0\": {\"Si\": 1.0}, \"1\": {\"Si\": 1.0}, \"2\": {\"Si\": 1.0}, \"3\": {\"Si\": 1.0}, \"4\": {\"Si\": 1.0}, \"5\": {\"Si\": 1.0}, \"6\": {\"Si\": 1.0}, \"7\": {\"Si\": 1.0}, \"8\": {\"Si\": 1.0}, \"9\": {\"Si\": 1.0}, \"10\": {\"Si\": 1.0}, \"11\": {\"Si\": 1.0}, \"12\": {\"Si\": 1.0}, \"13\": {\"Si\": 1.0}, \"14\": {\"Si\": 1.0}, \"15\": {\"Si\": 1.0}, \"16\": {\"Si\": 1.0}, \"17\": {\"Si\": 1.0}, \"18\": {\"Si\": 1.0}, \"19\": {\"Si\": 1.0}, \"20\": {\"Si\": 1.0}, \"21\": {\"Si\": 1.0}, \"22\": {\"Si\": 1.0}, \"23\": {\"Si\": 1.0}, \"24\": {\"Si\": 1.0}, \"25\": {\"Si\": 1.0}, \"26\": {\"Si\": 1.0}, \"27\": {\"Si\": 1.0}, \"28\": {\"Si\": 1.0}, \"29\": {\"Si\": 1.0}, \"30\": {\"Si\": 1.0}, \"31\": {\"Si\": 1.0}, \"32\": {\"Si\": 1.0}, \"33\": {\"Si\": 1.0}, \"34\": {\"Si\": 1.0}, \"35\": {\"Si\": 1.0}, \"36\": {\"Si\": 1.0}, \"37\": {\"Si\": 1.0}, \"38\": {\"Si\": 1.0}, \"39\": {\"Si\": 1.0}, \"40\": {\"Si\": 1.0}, \"41\": {\"Si\": 1.0}, \"42\": {\"Si\": 1.0}, \"43\": {\"Si\": 1.0}, \"44\": {\"Si\": 1.0}, \"45\": {\"Si\": 1.0}, \"46\": {\"Si\": 1.0}, \"47\": {\"Si\": 1.0}, \"48\": {\"Si\": 1.0}, \"49\": {\"Si\": 1.0}, \"50\": {\"Si\": 1.0}, \"51\": {\"Si\": 1.0}, \"52\": {\"Si\": 1.0}, \"53\": {\"P\": 1.0}}" energy=-470.4675287984991 stress="-0.0018008300915813747 0.0017995628634222371 0.0007365938388831739 0.0017995628634222371 -0.0025739155322372265 0.0004832812861440248 0.0007365938388831739 0.0004832812861440248 -0.0006393309032855387" free_energy=-470.4675287984991 pbc="T T T"
Si       6.84141273       3.90741213       2.81937182      -0.63770036       1.87283526      -0.39474243      -0.55912400      -0.31510308      -0.45999802      -8.72690622
Si       8.68042782       4.98001909       5.78738119      -1.09163152       0.92283311       0.81892255      -0.06743238       0.21490347       1.32870225      -8.67815376
Si      10.60355314       6.16483969       8.98460999       0.50512311      -0.87223105      -0.33098527       0.38080536      -0.92861863       0.49611975      -8.71875550
Si       8.65181099       7.25653055       2.75996726      -1.33896135      -0.06223292       0.02612578      -0.44387038      -0.16417235       0.04484340      -8.70745351
Si      10.56499474       8.22779867       5.93482145       1.02342846      -0.18790966      -0.59722039       0.69498732       1.01171221      -0.40139079      -8.74514390
Si      12.53902796       9.56564647       8.98468408      -0.16615954       0.05280361      -0.19056628      -0.88693996      -0.23270047       0.11509132      -8.70016294
Si      10.62683492      10.56465488       2.77449884       0.55292329      -0.41254471      -1.00968262       0.39359356      -0.44333647      -0.63578060      -8.67416934
Si      12.54089218      11.57819916       5.81167427      -0.07247923      -0.52390452       0.27050781      -0.81584077      -0.04181634       0.42478081      -8.74373390
Si      14.50272201      12.67030837       9.00670987       0.21020989       0.02579246      -1.13559892      -0.63193147       1.37548469       0.24607308      -8.48646901
Si      10.54871756       3.91291871       2.76758768       0.86715776       1.41781704      -0.94184020       0.36333235       0.06612545      -1.05731251      -8.75712662
Si      12.54843352       4.94149494       5.89430268       0.73345598       0.08178144      -0.06145273      -0.12982316       0.33808174      -0.11017542      -8.71570979
Si      14.27619456       6.16743492       9.05415350       0.05076301      -0.85302599      -0.27328395       0.86615096       0.32633416       0.53698455      -8.70612188
Si      12.38671797       7.20865998       2.78485065       0.22436626      -0.50564556      -0.30261125      -0.02078038      -0.29685930      -0.07826551      -8.78858255
Si      14.47067158       8.18026361       5.88124898      -0.86003228       0.38211568      -0.39123926      -0.24360081       1.54388341      -0.22960190      -8.72522836
Si      16.32153753       9.44139298       8.98664547      -0.37064410       1.21381949       1.86200338       0.01795644      -0.49087970       0.22038882      -8.73500550
Si      14.41959940      10.59820853       2.80178361      -0.16742348      -1.72352507      -0.33778694       1.36374203      -1.66292817      -0.63435796      -8.63236110
Si      16.19162992      11.76754066       5.97024753      -0.45636629      -0.29791289      -0.72774787       1.55649818      -0.37419872      -0.79797400      -8.60996319
Si      18.38832288      12.73114181       9.04306959       0.89802360      -0.89823309       0.64977014      -0.22785709      -0.51615456       0.35442493      -8.71387522
Si      14.40762185       3.83330938       2.63625338       0.58528750       0.25441167      -0.67616938       0.47936413       1.23992208       0.70614112      -8.59095263
Si      16.44115972       5.08038798       5.98675310       1.06206250      -0.21001340       1.48184828      -0.63349629      -1.04605982      -0.26142274      -8.69010911
Si      18.39459647       6.09631151       9.08909197       0.14405470       0.81097959       0.50124231      -1.18750637      -0.29214686      -0.89589533      -8.51924065
Si      16.34102461       7.12578073       2.79797342       0.43806282       0.53004852       0.06199959       0.01224055       0.79589355       0.13706398      -8.75258906
Si      18.24068848       8.44078861       5.91151017       2.10193003      -0.09786290      -0.54977204       1.26078811      -0.00355209       0.81044843      -8.68183902
Si      20.18437522       9.47377160       9.08799919       0.05861126       0.05605001       0.07762325       0.49451793       0.55373534      -0.61432837      -8.63213437
Si      18.20014477      10.44845413       2.77102970      -1.03656025      -0.96978297       0.55750722       0.56153746       1.00860493      -0.43929866      -8.52417742
Si      20.21969284      11.70793164       5.78791081       1.49037997       1.05340848      -1.45463477       0.24119310      -0.17986288      -0.20309729      -8.75768861
Si      22.10762496      12.88821474       9.02166709      -0.19152974      -0.35313285      -0.50572025       0.01778597      -0.45887776      -0.26829247      -8.63854112
Si       2.90776355       1.65757324       3.38612025       0.55659548       1.03317520       0.11770921      -0.74288617      -0.38682842       0.62135293      -8.75172022
Si       4.86220021       2.70325735       6.61851209       0.33037929      -0.42644829       0.79408902      -0.10969424       1.10493523       0.18414832      -8.64027862
Si       2.94923336       3.87929666       0.29210583       0.07971086      -1.60722996       0.23843067      -0.01897717       0.45636824       0.88223717      -8.78665549
Si       4.93790153       4.97795563       3.61294156      -0.81780036      -0.88002138       1.03090434      -1.39531816      -0.66357088      -0.13381359      -8.65588458
Si       6.81516048       6.16378451       6.64528148       0.05864657       0.04531837      -0.20440769       0.07924675       0.21131157       0.64385162      -8.71426315
Si       4.84594221       7.38063838       0.49511463       0.70991402       0.95797801       1.16553613      -0.24294860      -0.98083207      -0.84721378      -8.66102517
Si       6.69629499       8.28554226       3.62918897      -1.27352768       1.24693626       0.52699386      -0.27790883      -0.28717283      -0.86765074      -8.75074541
Si       8.80904545       9.53697351       6.62637234      -0.67754502       1.45347396       0.89302450      -1.70700928      -0.43128958       0.86254427      -8.64158754
Si       4.89463321       0.51138355       0.32995039       0.08861462      -0.59011782      -1.93452808      -0.25924790       0.67335502       0.48954406      -8.67537044
Si       6.85737601       1.64807700       3.53602692      -0.96345555       1.12862421      -0.13862835      -1.79366448       0.82883478      -0.27049174      -8.70874884
Si       8.46889262       2.77149151       6.69155016      -1.06515394      -0.16449705      -0.02269929       0.94988174       0.80739653       0.02413983      -8.70769839
Si       6.63774173       4.03527724       0.45484573      -0.35417665       1.60330151       0.44760609       0.48345584      -0.26091907      -0.21595432      -8.71150020
Si       8.72095273       5.02884178       3.51240187      -1.19354365       0.76900052      -0.87105453      -0.37487887       0.39700466      -0.26999088      -8.74065556
Si      10.60938673       6.08676920       6.68293679       1.49153386      -1.65058221       0.87587032       0.04910984      -1.02067210      -0.31834334      -8.72423292
Si       8.66558537       7.22105455       0.40704166      -0.12529034       0.21671939      -0.67789407       0.12988668      -0.47465311       0.24301699      -8.75931863
Si      10.52233136       8.30439648       3.59778686      -0.66880712       0.30077138      -0.24488987       0.26053699       0.76690361      -0.07213651      -8.72415623
Si      12.55549972       9.40005037       6.59582513      -0.06179947       0.28171958       0.70253589      -0.16381092      -0.62754092       0.45896207      -8.68301751
Si       8.66962405       0.65085418       0.43160950      -1.04306215       1.03028618       0.53088610      -0.33811233      -0.18918378       0.12979023      -8.75269355
Si      10.57193561       1.76670168       3.49919475      -0.59845977      -0.20259520       1.56467569      -0.17622854      -1.17563417       1.10328798      -8.67141249
Si      12.57223421       2.74055596       6.71446194      -1.17942867      -1.25660816      -0.04066046      -0.97871579      -0.07939315      -0.35052955      -8.72433796
Si      10.59349549       3.85404131       0.39154250       0.30165321       0.03877808      -0.87236354      -0.40071066       0.00608539      -0.16304177      -8.63276857
Si      12.41209359       5.00670968       3.50369426      -0.23554061      -1.06382769       1.06011486       1.36992962      -0.47719758       0.41947839      -8.68259931
Si      14.41807611       6.10893334       6.75560612       0.68079374      -0.61783222       0.10673729       0.23525581      -1.06759572      -0.38334313      -8.74616297
Si      12.40233596       7.12422616       0.48076536       0.20341086       0.23976847      -0.85353008       0.84059413       0.89698595      -0.87125657      -8.71291422
Si      14.32644400       8.18625209       3.52641714      -0.69649977      -0.99902955       0.54583551       1.06673555       1.11663384       0.08202592      -8.62697632
Si      16.30981385       9.51014065       6.64776155      -0.71077865      -0.60021850      -0.56158337      -0.33834797      -0.18946274      -0.09952630      -8.75672183
P        0.91545348       0.52851731       0.37564914       2.60726489      -0.99358185      -0.60520590       0.99753656       0.01871745       0.38504159      -9.77188837
54
Lattice="11.5478352 0.0 0.0 5.773917198490155 10.000722372470358 0.0 5.773916394327279 3.333571176804646 9.428767828939895" Properties=species:S:1:pos:R:3:momenta:R:3:forces:R:3:energies:R:1 spacegroup="_JSON {\"number\": 1, \"setting\": 1}" unit_cell=conventional occupancy="_JSON {\"0\": {\"Si\": 1.0}, \"1\": {\"Si\": 1.0}, \"2\": {\"Si\": 1.0}, \"3\": {\"Si\": 1.0}, \"4\": {\"Si\": 1.0}, \"5\": {\"Si\": 1.0}, \"6\": {\"Si\": 1.0}, \"7\": {\"Si\": 1.0}, \"8\": {\"Si\": 1.0}, \"9\": {\"Si\": 1.0}, \"10\": {\"Si\": 1.0}, \"11\": {\"Si\": 1.0}, \"12\": {\"Si\": 1.0}, \"13\": {\"Si\": 1.0}, \"14\": {\"Si\": 1.0}, \"15\": {\"Si\": 1.0}, \"16\": {\"Si\": 1.0}, \"17\": {\"Si\": 1.0}, \"18\": {\"Si\": 1.0}, \"19\": {\"Si\": 1.0}, \"20\": {\"Si\": 1.0}, \"21\": {\"Si\": 1.0}, \"22\": {\"Si\": 1.0}, \"23\": {\"Si\": 1.0}, \"24\": {\"Si\": 1.0}, \"25\": {\"Si\": 1.0}, \"26\": {\"Si\": 1.0}, \"27\": {\"Si\": 1.0}, \"28\": {\"Si\": 1.0}, \"29\": {\"Si\": 1.0}, \"30\": {\"Si\": 1.0}, \"31\": {\"Si\": 1.0}, \"32\": {\"Si\": 1.0}, \"33\": {\"Si\": 1.0}, \"34\": {\"Si\": 1.0}, \"35\": {\"Si\": 1.0}, \"36\": {\"Si\": 1.0}, \"37\": {\"Si\": 1.0}, \"38\": {\"Si\": 1.0}, \"39\": {\"Si\": 1.0}, \"40\": {\"Si\": 1.0}, \"41\": {\"Si\": 1.0}, \"42\": {\"Si\": 1.0}, \"43\": {\"Si\": 1.0}, \"44\": {\"Si\": 1.0}, \"45\": {\"Si\": 1.0}, \"46\": {\"Si\": 1.0}, \"47\": {\"Si\": 1.0}, \"48\": {\"Si\": 1.0}, \"49\": {\"Si\": 1.0}, \"50\": {\"Si\": 1.0}, \"51\": {\"Si\": 1.0}, \"52\": {\"Si\": 1.0}, \"53\": {\"P\": 1.0}}" energy=-470.99846325219346 stress="0.0015805927004424322 -0.0022069603040002503 -0.001883787139789917 -0.0022069603040002503 0.0022400138707031826 6.302838864946117e-05 -0.001883787139789917 6.302838864946117e-05 -0.002779860324349659" free_energy=-470.99846325219346 pbc="T T T"
Si       6.78479011       3.98414429       2.78511977      -1.53262303       0.95374228      -0.80784095      -0.59258093      -0.71235871      -0.05376332      -8.76557105
Si       8.63230821       5.02733691       5.86403341      -0.52910499       0.72072876       1.72955827       0.76307172      -0.40281331      -0.11502661      -8.69453836
Si      10.64450577       6.09277823       8.99185197       1.01541192      -1.63508472       0.63638169       0.22772626       0.00816379       0.59995422      -8.73253200
Si       8.56862669       7.25800925       2.75951555      -1.70869863       0.32433052      -0.10037546       0.03912334       0.62556674      -0.17594778      -8.70596158
Si      10.62856556       8.25046427       5.90235448       1.07174718       0.86420949      -0.39655615      -0.59559931       0.29573799       0.53269162      -8.68760889
Si      12.50036423       9.56495870       8.98153132      -1.16628594       0.00605739       0.11417293      -0.34153736       0.09317573       0.28394270      -8.72867382
Si      10.65940556      10.53439751       2.69885276       0.44952653      -0.56109129      -1.80818437      -0.52403593       0.24887801      -0.37838209      -8.70120220
Si      12.50601870      11.55336852       5.83656966      -1.16422276      -0.31373981       0.56914687      -0.46309106       0.37745968      -0.01009350      -8.74044970
Si      14.49233653      12.71634427       8.96119413      -0.49657778       1.48449031      -0.51891310      -0.19629563       0.43219715       0.54342244      -8.60538085
Si      10.59128474       3.97121355       2.69042063       0.50290962       0.52419226      -1.67544734      -0.61354761      -1.02702429       0.21013518      -8.73232870
Si      12.58179081       4.94368439       5.89322476       0.54671962      -0.27889037       0.12678276      -0.09791909      -0.74905767       0.30274620      -8.75182036
Si      14.30438983       6.14913686       9.06120355       0.86899568       0.33526976       0.48987284       0.25860551       1.01683769       0.34555518      -8.70491754
Si      12.39208407       7.16944468       2.76666102      -0.03904417      -0.96103744      -0.36683972      -0.10946285      -0.18823239       0.01715256      -8.74132314
Si      14.42049146       8.24294855       5.86192913      -0.95042026       1.60343436      -0.16560600       0.16173064      -0.00492374       0.45296617      -8.76704808
Si      16.30596129       9.47843866       9.06979062      -0.13413188       0.11682483       0.94564888       0.35927332      -0.80541625      -1.20434369      -8.71343344
Si      14.44343229      10.46816644       2.77622906       0.66609002      -2.70342151      -0.32581330      -0.18736491       0.39252892       0.54649443      -8.68353309
Si      16.21683283      11.73764843       5.91447192       1.13381021      -0.83063117      -1.08014183       0.46686907      -0.33970892       0.44067402      -8.73583419
Si      18.42006652      12.67332969       9.07796451       0.19364152      -1.05849604       0.41448573      -0.68412553       0.45412652      -0.68500386      -8.71118262
Si      14.45047203       3.88739071       2.63554680       0.90993343       1.57024826       0.74984589      -0.07287080       0.32072596       1.07852726      -8.69110075
Si      16.46884920       5.02951082       6.04737300       0.01869811      -1.62000859       0.70992531      -0.54253899      -0.60859505      -0.73758254      -8.71235895
Si      18.36045166       6.11900867       9.07867423      -1.25172453      -0.03904247      -0.84581922      -0.44421371      -0.66862149      -0.68931179      -8.52539734
Si      16.35709342       7.17084615       2.81601577       0.02982984       0.90258846       0.72328863      -0.55559961      -0.31225683       0.50890739      -8.73187625
Si      18.37487383       8.44085996       5.91950258       2.49040932       0.14362801       0.81377827      -0.79581455       0.16443999       0.66518249      -8.70175663
Si      20.20832140       9.49076316       9.07497290       0.85672230       0.43745312      -0.42340148       0.50930438      -0.04753941      -0.02656692      -8.64874560
Si      18.17376973      10.45001905       2.78245260       0.10174596       1.16079861      -0.09974832       0.84672523       1.52223787      -0.35557990      -8.45169640
Si      20.29089661      11.75451921       5.71936681       0.93744209       0.67560292      -0.84024123      -0.87566403      -0.36490270       1.02921045      -8.70873552
Si      22.10096971      12.86214128       8.99698556      -0.00914180      -0.47050498      -0.20351141       0.22486510       0.20683705       0.63656482      -8.55644149
Si       2.91160777       1.68731314       3.40439875      -0.28808893       0.00861860       0.31940716      -0.28456747      -0.75709768      -0.37660411      -8.71345723
Si       4.87724403       2.72139583       6.66277205       0.25574640       0.99518853       0.80627884      -0.06441536       0.62405319      -0.14963229      -8.70743441
Si       2.95764570       3.82453994       0.32859615       0.27836821      -0.34574469       0.92385792       0.12897612       0.99911487       0.00442055      -8.75501919
Si       4.84816799       4.92284681       3.65792788      -2.38030334      -0.90285029       0.62431289      -0.51545017       0.58231562      -0.35666241      -8.67032486
Si       6.82140101       6.18043512       6.66470978       0.11374463       0.65125316       0.97708304      -0.16168979       0.44649673       0.76333945      -8.73991958
Si       4.86902204       7.39049762       0.51708974       0.08238724      -0.57039132      -0.36323945      -0.59125290      -0.94372170      -0.98152522      -8.67032952
Si       6.62993595       8.33062031       3.62454685      -1.02798904       0.40885685      -0.57120006       0.62054788      -0.52421156      -0.36859190      -8.76858758
Si       8.73291524       9.58911843       6.69256630      -1.69080438       0.49157983       1.34946246       0.38624481      -0.60609443      -0.22723190      -8.71637216
Si       4.89441154       0.50216112       0.25616501       0.00442885       0.09623697      -0.74620503       0.12960818       0.11955640       1.01507359      -8.68241146
Si       6.76336453       1.72315604       3.51326335      -2.09521255       1.37579398      -0.77104913       0.20632384      -0.53560386      -0.42258541      -8.71315112
Si       8.45492128       2.79299074       6.68335759       0.55395139       0.86819313      -0.45267107       1.04188673       0.36644417      -0.59666569      -8.69825802
Si       6.63883368       4.09532710       0.46342229       0.38611252       0.45424251      -0.22132909       0.45536065      -1.16748751      -0.61226407      -8.67374307
Si       8.65889118       5.07742292       3.47078176      -0.92569119       0.91665070      -0.45437280       0.57656330      -0.24632389       0.73723262      -8.74442588
Si      10.67945611       5.98390892       6.70477538       0.99502982      -1.81094871      -0.17595003      -0.67548283       0.76263990      -0.82969731      -8.72042841
Si       8.65693889       7.22090959       0.38780263      -0.34837837      -0.04988485       0.01428911      -0.41615405       0.17829212       0.52199103      -8.74077595
Si      10.50080176       8.34014087       3.57772428      -0.12209463       0.85098815      -0.59604548       0.38582905      -0.05088790      -0.35991261      -8.75225583
Si      12.54472461       9.39044946       6.64387486      -0.36917312      -0.56816526       1.00651971      -0.24197144      -0.32116219      -0.01720871      -8.74431954
Si       8.61589539       0.68334270       0.46009998      -0.75856082      -0.01211491       0.46770873       0.62624036      -1.03742443      -0.21214544      -8.74831745
Si      10.53390740       1.72417733       3.59881136      -0.82531439      -1.15014929       1.67537562      -0.08476014      -0.13921192      -1.07448864      -8.69700916
Si      12.49148788       2.67859590       6.69743912      -1.49884313      -0.97310981      -0.59854992       0.57945899       0.43911533      -0.31169949      -8.65818492
Si      10.59248926       3.85826397       0.34495778      -0.33684630       0.15110391      -0.81743095      -0.38847203       0.11953751       0.17912329      -8.70009859
Si      12.45599656       4.94607440       3.56508037       1.83571171      -1.03188597       1.05155549       1.07807390       0.36313738      -0.47607086      -8.70928295
Si      14.46078170       6.04979049       6.74407193       0.88444863      -1.30117331      -0.53686305      -0.01482275       0.21549540      -0.33635122      -8.74683115
Si      12.44623426       7.16433344       0.41779902       1.40753768       1.05727536      -1.24003495       0.59623174      -0.01832955       0.32634793      -8.76986713
Si      14.33005901       8.17617774       3.55058903       0.70399517       0.52244371       0.23193797       0.56894629       0.75854995      -0.46057060      -8.71449878
Si      16.27333631       9.47178990       6.62359640      -0.41342435      -0.82624163      -0.20117902       0.69821787      -0.05472531       0.52616765      -8.66870203
P        1.05418451       0.48639197       0.36007591       2.76760473      -0.65741629      -0.06611712      -0.80450348       0.50007103       0.33368662      -9.74300877
54
Lattice="11.5478352 0.0 0.0 5.773917198490155 10.000722372470358 0.0 5.773916394327279 3.333571176804646 9.428767828939895" Properties=species:S:1:pos:R:3:momenta:R:3:forces:R:3:energies:R:1 spacegroup="_JSON {\"number\": 1, \"setting\": 1}" unit_cell=conventional occupancy="_JSON {\"0\": {\"Si\": 1.0}, \"1\": {\"Si\": 1.0}, \"2\": {\"Si\": 1.0}, \"3\": {\"Si\": 1.0}, \"4\": {\"Si\": 1.0}, \"5\": {\"Si\": 1.0}, \"6\": {\"Si\": 1.0}, \"7\": {\"Si\": 1.0}, \"8\": {\"Si\": 1.0}, \"9\": {\"Si\": 1.0}, \"10\": {\"Si\": 1.0}, \"11\": {\"Si\": 1.0}, \"12\": {\"Si\": 1.0}, \"13\": {\"Si\": 1.0}, \"14\": {\"Si\": 1.0}, \"15\": {\"Si\": 1.0}, \"16\": {\"Si\": 1.0}, \"17\": {\"Si\": 1.0}, \"18\": {\"Si\": 1.0}, \"19\": {\"Si\": 1.0}, \"20\": {\"Si\": 1.0}, \"21\": {\"Si\": 1.0}, \"22\": {\"Si\": 1.0}, \"23\": {\"Si\": 1.0}, \"24\": {\"Si\": 1.0}, \"25\": {\"Si\": 1.0}, \"26\": {\"Si\": 1.0}, \"27\": {\"Si\": 1.0}, \"28\": {\"Si\": 1.0}, \"29\": {\"Si\": 1.0}, \"30\": {\"Si\": 1.0}, \"31\": {\"Si\": 1.0}, \"32\": {\"Si\": 1.0}, \"33\": {\"Si\": 1.0}, \"34\": {\"Si\": 1.0}, \"35\": {\"Si\": 1.0}, \"36\": {\"Si\": 1.0}, \"37\": {\"Si\": 1.0}, \"38\": {\"Si\": 1.0}, \"39\": {\"Si\": 1.0}, \"40\": {\"Si\": 1.0}, \"41\": {\"Si\": 1.0}, \"42\": {\"Si\": 1.0}, \"43\": {\"Si\": 1.0}, \"44\": {\"Si\": 1.0}, \"45\": {\"Si\": 1.0}, \"46\": {\"Si\": 1.0}, \"47\": {\"Si\": 1.0}, \"48\": {\"Si\": 1.0}, \"49\": {\"Si\": 1.0}, \"50\": {\"Si\": 1.0}, \"51\": {\"Si\": 1.0}, \"52\": {\"Si\": 1.0}, \"53\": {\"P\": 1.0}}" energy=-470.3246431253905 stress="0.0004196720178826897 -0.0018760105658383285 -0.0009849013418845483 -0.0018760105658383285 0.0012431920517072697 -0.0007352424948151195 -0.0009849013418845483 -0.0007352424948151195 -0.0012561482232585769" free_energy=-470.3246431253905 pbc="T T T"
Si       6.68807812       4.01100770       2.74718785      -1.98412805       0.17417972      -0.53433960       0.07350946      -0.32786302       0.35086876      -8.76775335
Si       8.63606827       5.04985091       5.93580785       0.62026947       0.21069497       0.79319454       0.56999922      -0.13399813      -0.96959117      -8.72922609
Si      10.70039309       6.02260424       9.03733683       0.98156593      -0.78719487       0.85005853      -0.30344513       0.98969107      -0.35257962      -8.70744057
Si       8.49181787       7.29932838       2.74818982      -0.99125151       1.15503634      -0.29089981       0.94155300       0.25998940      -0.02094946      -8.73805544
Si      10.64978169       8.29588158       5.90187962      -0.42779865       0.68056667       0.29538959      -1.24194220      -0.43538344       0.22883334      -8.61281475
Si      12.43791208       9.56659280       8.99849884      -0.98832250      -0.03360790       0.51312989       0.54543819      -0.25151699       0.21174702      -8.73855706
Si      10.65667109      10.51999379       2.59838152      -0.60701844       0.06263056      -1.80628791      -0.74483693       0.45034541       0.48530897      -8.73399544
Si      12.43959446      11.55597386       5.86082226      -1.12820097       0.45660051       0.26351650       0.47586810       0.54962899      -0.37366461      -8.69229926
Si      14.47004861      12.79409777       8.95211300      -0.15248447       1.19112559       0.06116416       0.56155683      -0.69356993       0.12688316      -8.61565078
Si      10.59561996       3.95962486       2.62955084      -0.25948937      -0.89045029      -0.35135764      -0.33556653      -0.75060208       1.35760988      -8.64552946
Si      12.60697169       4.89666875       5.91129653       0.40350442      -1.47260074       0.51227711      -0.14175138      -0.58442428       0.10853327      -8.77218059
Si      14.35328753       6.19598266       9.09205645       0.88111833       1.15125763       0.52198729      -0.18919967      -0.13648899      -0.30162996      -8.72197473
Si      12.39303047       7.11925249       2.75019622       0.21100436      -0.80483308      -0.22694941       0.41389358       0.38719700       0.15155948      -8.68447614
Si      14.38385774       8.30900502       5.87079442      -0.32377288       0.65435042       0.45152916       0.63853523      -1.03775418       0.27369455      -8.72350479
Si      16.31592292       9.46098514       9.07080763       0.52501341      -0.58458142      -0.84241038       0.40858798      -0.04774999      -0.96623596      -8.70619544
Si      14.46066151      10.36570680       2.78219317      -0.15582461      -0.80325296       0.48503100      -0.79823338       1.97065603       0.30197420      -8.63018431
Si      16.27927821      11.68190565       5.88818914       1.01593332      -1.27044983       0.18989742      -0.43723925      -0.23761544       0.86047583      -8.74890441
Si      18.40312269      12.65035589       9.06412577      -0.80234117       0.36965589      -1.03699661      -0.53810238       1.15036639      -1.05219823      -8.68737180
Si      14.48592384       3.96117290       2.70619263       0.26896610       0.83209095       1.62854419      -0.72863102      -1.28895854      -0.13386217      -8.73144935
Si      16.45908873       4.94152732       6.05252741      -0.20187219      -1.29144943      -0.55404300       0.18309421       1.10925100      -0.89212488      -8.70022876
Si      18.29433687       6.09558726       9.02359623      -0.99748374      -0.73320879      -0.89526289       0.61622241      -0.20065816       0.70833402      -8.51153598
Si      16.33424490       7.19547849       2.86416412      -0.88115874      -0.09269392       0.89618754      -0.46736923      -0.81323796      -0.31473683      -8.69150001
Si      18.45085602       8.44924092       5.97180097       0.07148588       0.07628537       0.89018440      -2.09129152      -0.19638611      -0.44653982      -8.65941082
Si      20.26802121       9.50508717       9.05853584       1.28974870      -0.00648649      -0.11498106      -0.00800971      -0.50872398       0.31216390      -8.71944973
Si      18.20722419      10.55535505       2.76793597       1.02850897       2.49911370      -0.37988483       0.27689630       0.15279212      -0.07555642      -8.49002869
Si      20.30142542      11.77270948       5.72267874      -0.55001539      -0.02878081       0.99330418      -0.93846095      -0.55135228       1.14528258      -8.64496297
Si      22.11091701      12.84754420       9.01628821       0.41506225      -0.08926144       0.97393014       0.33485555       0.20154051       0.77929363      -8.48201361
Si       2.89486421       1.66604060       3.40057475      -0.16565045      -0.62602538      -0.46804993       0.44583942      -0.00648419      -0.39201152      -8.68367243
Si       4.88469411       2.78117911       6.69850442      -0.04866815       0.94000260       0.59065122      -0.36229282      -0.70558911      -0.01836103      -8.74203317
Si       2.97283167       3.84014389       0.36928645       0.22566530       0.80408151       0.53979592      -0.15430260       0.47181691      -0.35161400      -8.67728142
Si       4.72637386       4.90909316       3.67963288      -1.79711316       0.54631159       0.29711327       1.29408098       1.24646035      -0.00956742      -8.66094139
Si       6.81576709       6.22384701       6.73333561      -0.37784670       0.79482728       1.32512391      -0.35386223      -0.36190102      -0.45877490      -8.72414667
Si       4.84828825       7.33269421       0.47244184      -0.87786465      -1.42714189      -1.04343274      -0.60020048      -0.13725442       0.16527570      -8.71450653
Si       6.60796485       8.34479672       3.59327073       0.24900834       0.40532856      -0.41523055       0.83593775       0.51365470       0.43490037      -8.74306718
Si       8.68249679       9.59968795       6.74527028       0.10053962       0.05398591       0.53422713       1.67320457      -0.08649567      -0.74112676      -8.69163729
Si       4.90103343       0.50105516       0.25565628       0.23664649      -0.30587836       0.64081100       0.08813305      -0.51435062       0.66998238      -8.72438574
Si       6.67575304       1.76220357       3.46356287      -1.06772889      -0.04465128      -0.97226677       0.93380667      -1.16570226       0.16001724      -8.60781227
Si       8.51584871       2.83839669       6.63587780       1.58474248       0.59070342      -1.28810272       0.32808827      -0.69426132      -0.33654745      -8.69567039
Si       6.67353722       4.07322602       0.42914959       0.86464768      -1.22004103      -1.01649667       0.16838622      -0.87510133      -0.34064867      -8.71547420
Si       8.63282551       5.10899128       3.47841076      -0.13680732       0.20681556       0.72411418       0.32894773      -0.56393772       0.67005507      -8.69621424
Si      10.70188316       5.93310025       6.67233652      -0.13280710       0.06084852      -0.84535699      -0.64616486       1.51445587      -0.00976954      -8.67848896
Si       8.62212298       7.23105339       0.40300980      -0.92021455       0.49535632       0.41433939      -0.19683243       0.41808428      -0.06249778      -8.71234461
Si      10.50695655       8.37400287       3.53406056       0.30048646       0.31321033      -1.00592007       0.16883782      -0.55390020      -0.12219130      -8.72609938
Si      12.51672782       9.36066472       6.69249793      -0.66851295      -0.32905496       0.79938984      -0.12626264       0.60010328      -0.22026061      -8.77030346
Si       8.60520598       0.64646457       0.47326429       0.38712616      -1.23031925      -0.00625716       0.77606290      -0.41991928      -0.37331902      -8.73158659
Si      10.49023598       1.66790448       3.62284478      -0.77786380      -0.84201657      -0.98768468       0.16932021       0.47849156      -1.95432145      -8.66964097
Si      12.45108233       2.64833011       6.65938804       0.16599208      -0.15135401      -0.74085977       1.38972476       0.55003897       0.11786298      -8.64968080
Si      10.56534814       3.87055518       0.31142188      -0.55232388       0.30747548      -0.41081984       0.18309751       0.08509539       0.39178352      -8.77432189
Si      12.57155409       4.90841906       3.59310464       2.08895555      -0.38335365      -0.05658705      -0.80455960       0.46160483      -0.75738261      -8.71685846
Si      14.50063218       6.00332685       6.71148348       0.52577053      -0.28286307      -0.53254836      -0.44021696       0.96131048       0.32834674      -8.67870404
Si      12.53103714       7.20007104       0.37596355       1.59570822       0.01694258      -0.22539927      -0.29674079      -1.10814262       0.83229661      -8.74299639
Si      14.37261869       8.21953349       3.54646566       0.60635054       0.85550056      -0.27680902      -0.64790208      -0.30483001      -0.03670743      -8.75496619
Si      16.28476073       9.42995808       6.63637670       0.88289940      -0.71609360       0.69847364       0.83453486       0.14838754       0.56595633      -8.65125603
P        1.13835054       0.48039978       0.36886048       0.44784426       0.54266648       0.44186958      -2.06459601       1.02319121       0.34573106      -9.70385812
54
Lattice="11.5478352 0.0 0.0 5.773917198490155 10.000722372470358 0.0 5.773916394327279 3.333571176804646 9.428767828939895" Properties=species:S:1:pos:R:3:momenta:R:3:forces:R:3:energies:R:1 spacegroup="_JSON {\"number\": 1, \"setting\": 1}" unit_cell=conventional occupancy="_JSON {\"0\": {\"Si\": 1.0}, \"1\": {\"Si\": 1.0}, \"2\": {\"Si\": 1.0}, \"3\": {\"Si\": 1.0}, \"4\": {\"Si\": 1.0}, \"5\": {\"Si\": 1.0}, \"6\": {\"Si\": 1.0}, \"7\": {\"Si\": 1.0}, \"8\": {\"Si\": 1.0}, \"9\": {\"Si\": 1.0}, \"10\": {\"Si\": 1.0}, \"11\": {\"Si\": 1.0}, \"12\": {\"Si\": 1.0}, \"13\": {\"Si\": 1.0}, \"14\": {\"Si\": 1.0}, \"15\": {\"Si\": 1.0}, \"16\": {\"Si\": 1.0}, \"17\": {\"Si\": 1.0}, \"18\": {\"Si\": 1.0}, \"19\": {\"Si\": 1.0}, \"20\": {\"Si\": 1.0}, \"21\": {\"Si\": 1.0}, \"22\": {\"Si\": 1.0}, \"23\": {\"Si\": 1.0}, \"24\": {\"Si\": 1.0}, \"25\": {\"Si\": 1.0}, \"26\": {\"Si\": 1.0}, \"27\": {\"Si\": 1.0}, \"28\": {\"Si\": 1.0}, \"29\": {\"Si\": 1.0}, \"30\": {\"Si\": 1.0}, \"31\": {\"Si\": 1.0}, \"32\": {\"Si\": 1.0}, \"33\": {\"Si\": 1.0}, \"34\": {\"Si\": 1.0}, \"35\": {\"Si\": 1.0}, \"36\": {\"Si\": 1.0}, \"37\": {\"Si\": 1.0}, \"38\": {\"Si\": 1.0}, \"39\": {\"Si\": 1.0}, \"40\": {\"Si\": 1.0}, \"41\": {\"Si\": 1.0}, \"42\": {\"Si\": 1.0}, \"43\": {\"Si\": 1.0}, \"44\": {\"Si\": 1.0}, \"45\": {\"Si\": 1.0}, \"46\": {\"Si\": 1.0}, \"47\": {\"Si\": 1.0}, \"48\": {\"Si\": 1.0}, \"49\": {\"Si\": 1.0}, \"50\": {\"Si\": 1.0}, \"51\": {\"Si\": 1.0}, \"52\": {\"Si\": 1.0}, \"53\": {\"P\": 1.0}}" energy=-470.76971129911595 stress="-0.0025264279929000932 0.00024801127817452494 0.0009479902412306393 0.00024801127817452494 1.563060096782546e-05 -0.0007810856594537459 0.0009479902412306393 -0.0007810856594537459 0.0011227610726324442" free_energy=-470.76971129911595 pbc="T T T"
Si       6.59966900       4.00917663       2.73308024      -1.14685486      -0.24742232      -0.02421989       1.01762889      -0.33504237       0.28062971      -8.69960734
Si       8.67931769       5.06159628       5.93904369       0.81633783       0.30270971      -0.61952160      -0.24857230       0.11576956      -0.77671919      -8.77154209
Si      10.73167340       6.01937757       9.05895830       0.05599183       0.56916658      -0.14659403      -0.91089888       0.64551102      -0.83610799      -8.67767328
Si       8.48499902       7.35610453       2.73621535       0.82235650       0.75882975      -0.09178286       1.28693633      -0.71391242       0.26681141      -8.76354255
Si      10.58625657       8.31316121       5.91681831      -1.74178984       0.00190816       0.09211784      -0.25363981      -0.35748842      -0.49423815      -8.68820046
Si      12.41311645       9.54905619       9.03102695       0.08269439      -0.71442431       0.68188701       0.70576437      -0.55762716       0.03299127      -8.74268981
Si      10.60218051      10.53517115       2.53889209      -1.30403660       0.37255477      -0.17556116      -0.08833429      -0.10767675       1.58015427      -8.74979871
Si      12.40670720      11.59663526       5.85821143      -0.02450954       0.98171103      -0.37193754       0.87852584       0.12023165      -0.40832601      -8.67581746
Si      14.48052428      12.82633905       8.95421627       0.38867402       0.05586433      -0.06178267      -0.04752684      -0.64722771      -0.20214256      -8.56938995
Si      10.57330228       3.89411274       2.66212832      -0.52813412      -1.37299505       1.46277412      -0.08549419       0.18219687       0.86757612      -8.66544090
Si      12.61967275       4.81623874       5.93456949       0.02659426      -1.14673900       0.21700817      -0.35076015       1.15160371      -0.50448064      -8.74377939
Si      14.39121296       6.23136098       9.10111522       0.60491646      -0.12283477      -0.26771708      -0.03214271      -1.38754986      -0.65436869      -8.69328796
Si      12.42173680       7.09701605       2.74496815       0.86666163       0.02053867       0.03836251       0.34901609       0.64029017       0.19338993      -8.71628395
Si      14.39199843       8.30442135       5.90107403       0.58129946      -0.71590303       0.64916297       0.43372223      -0.60410269       0.05803956      -8.71528135
Si      16.35445755       9.43854915       9.00535278       0.84540205      -0.12007876      -1.28299811       0.02201126       0.54837109       0.48815033      -8.68478863
Si      14.41867444      10.40108466       2.80801598      -1.46763789       1.98763094       0.29786229      -0.87052252       1.33882287      -0.48628395      -8.71044575
Si      16.31614702      11.61096268       5.91502778       0.47444938      -1.31901709       0.48011102      -0.12430564       0.21028038      -0.49073977      -8.71080670
Si      18.35048386      12.69992266       8.97984730      -0.96284430       1.15909950      -1.89014338       0.40208989      -0.21398905       0.05690780      -8.71713682
Si      14.47590620       3.94498445       2.76843170      -0.45131192      -1.46294205       0.52259378       0.00599340      -1.32505009      -1.00111914      -8.71389031
Si      16.45811584       4.92971616       5.99609248       0.15779986       0.91141587      -1.36857343       0.15935412       1.39482561       0.00775782      -8.70217768
Si      18.26882280       6.05870016       9.01783076       0.02674938      -0.47813152       0.80126792       0.64478592       0.57624946       1.18709218      -8.50432797
Si      16.28237633       7.16815086       2.89074348      -0.85068246      -0.67325708      -0.00318439       0.47029584       0.26782431      -0.80147199      -8.67953909
Si      18.38600026       8.44820343       5.99768533      -2.12954479      -0.04530335       0.09064238      -0.50082421       0.03983727      -0.50489284      -8.71113652
Si      20.32324957       9.48222245       9.05984006       0.57819419      -0.88764468       0.02436617      -0.92503106      -0.58779630      -0.22193116      -8.76776841
Si      18.25887036      10.67315564       2.74519819       0.70661663       1.68516402      -0.49458109      -0.62063358      -1.05804543      -0.09067928      -8.53069026
Si      20.24785686      11.74992458       5.80520357      -1.19029694      -0.82645856       1.84332486       0.24811280      -0.50566871      -0.05902154      -8.66659198
Si      22.14580672      12.84594487       9.08969497       0.90606278      -0.07568246       1.64482703       0.29362305      -0.20367517       0.08215778      -8.52590956
Si       2.90962563       1.64412386       3.37432586       0.77936538      -0.03770664      -0.25072843       0.62651795       0.65538146       0.70339696      -8.67222654
Si       4.86567678       2.79620451       6.73295447      -0.69372434      -0.34171170       0.76381342      -0.42415620      -0.62129609       0.13005340      -8.74363083
Si       2.97880345       3.88968539       0.38655011       0.02276532       0.85766122       0.18582576      -0.08162078      -0.42828108      -0.09423248      -8.62207312
Si       4.69208737       4.98118291       3.69545654       0.47300156       1.97135126       0.22411249       1.25479140       0.33708750      -0.32640943      -8.72884791
Si       6.78714118       6.24012148       6.76860555      -0.60691041      -0.34212893      -0.18178514       0.05921738      -1.01669468      -1.23297270      -8.69705495
Si       4.78896875       7.26490156       0.43972320      -1.12168418      -0.95737006       0.04575932       0.41390575       0.63886847       1.14362821      -8.68748913
Si       6.64074260       8.39056001       3.58907144       0.73121054       1.34120089       0.21132393      -0.18066350       0.53356033       0.27058390      -8.69036771
Si       8.74187587       9.59458394       6.74436210       1.79174096      -0.39384595      -0.52437155       0.24710947      -0.62031204      -0.55906929      -8.74041157
Si       4.91193216       0.47070769       0.29979002       0.07709128      -0.65870563       0.72544359      -0.30659696       0.21495779      -0.53852038      -8.75031106
Si       6.65410572       1.72014093       3.42468006       0.14571839      -1.37215319      -0.42078311       0.55080649      -0.43605772       0.52266692      -8.64442998
Si       8.60213205       2.83656520       6.56632584       1.53991883      -0.68285728      -1.16225241      -0.32507651      -0.78638190       0.44793248      -8.70192926
Si       6.71982085       3.98995719       0.37314854       0.79365293      -1.66033158      -0.90053075      -0.24385861       0.26190247       0.50668695      -8.76063125
Si       8.63071947       5.10120251       3.53273043      -0.07976702      -0.42551124       1.13502719      -0.20289298      -0.26898340      -0.16291466      -8.65852252
Si      10.68035211       5.98963976       6.63712635      -0.47529130       1.90934151      -0.35338971       0.16510943       0.79571201       0.56223778      -8.68098422
Si       8.57532984       7.26930476       0.41372715      -0.69038245       0.86506996      -0.13716484       0.48359884       0.03589620      -0.57371562      -8.68210667
Si      10.52620891       8.36960712       3.48251379       0.38455420      -0.43184942      -0.84601961      -0.01988224      -0.37083563       0.32720171      -8.68106415
Si      12.48015341       9.37095679       6.72286456      -0.66238909       0.73003844       0.28889928       0.12313179       0.64637108      -0.49038911      -8.76814334
Si       8.64846000       0.57941729       0.45959369       1.07367999      -1.08235974      -0.48062203       0.04127025       0.53587021      -0.24342407      -8.69870844
Si      10.46185472       1.64611417       3.51716405      -0.18840085       0.03950126      -2.52474497       0.61154924       0.58041831       0.02446546      -8.72742568
Si      12.50336253       2.65474212       6.62905712       1.49362727       0.21850651      -0.36124532       0.09876627      -0.12314931       0.33508440      -8.75137140
Si      10.55238041       3.88940060       0.30995283       0.18340086       0.39836856       0.45077571       0.66273567       0.03081425       0.76245462      -8.77631814
Si      12.62806118       4.90530085       3.57113843      -0.24238674       0.21361440      -0.55999538      -1.99318941       0.24567689       0.07517076      -8.67774302
Si      14.50891531       6.02316757       6.70044389      -0.22030074       0.91685534       0.14230872      -0.48415876       0.48836439       0.45522753      -8.68099233
Si      12.59552581       7.16635325       0.38942384       0.74758359      -1.04207139       0.53984739      -0.76145235      -0.13596442       0.07323714      -8.72119811
Si      14.37202324       8.24646243       3.54012972      -0.67087108       0.17066346       0.17437382      -0.81319288      -0.31427443       0.50753790      -8.75304846
Si      16.35174754       9.39817091       6.68720221       1.38117123      -0.49846284       1.04820930      -0.30058669       0.15154453      -0.17815103      -8.76260380
P        1.09252294       0.53788341       0.39877908      -2.10953152       1.69713350       0.72020245      -1.06035592       0.34284294      -0.01690265      -9.81253285
54
Lattice="11.5478352 0.0 0.0 5.773917198490155 10.000722372470358 0.0 5.773916394327279 3.333571176804646 9.428767828939895" Properties=species:S:1:pos:R:3:momenta:R:3:forces:R:3:energies:R:1 spacegroup="_JSON {\"number\": 1, \"setting\": 1}" unit_cell=conventional occupancy="_JSON {\"0\": {\"Si\": 1.0}, \"1\": {\"Si\": 1.0}, \"2\": {\"Si\": 1.0}, \"3\": {\"Si\": 1.0}, \"4\": {\"Si\": 1.0}, \"5\": {\"Si\": 1.0}, \"6\": {\"Si\": 1.0}, \"7\": {\"Si\": 1.0}, \"8\": {\"Si\": 1.0}, \"9\": {\"Si\": 1.0}, \"10\": {\"Si\": 1.0}, \"11\": {\"Si\": 1.0}, \"12\": {\"Si\": 1.0}, \"13\": {\"Si\": 1.0}, \"14\": {\"Si\": 1.0}, \"15\": {\"Si\": 1.0}, \"16\": {\"Si\": 1.0}, \"17\": {\"Si\": 1.0}, \"18\": {\"Si\": 1.0}, \"19\": {\"Si\": 1.0}, \"20\": {\"Si\": 1.0}, \"21\": {\"Si\": 1.0}, \"22\": {\"Si\": 1.0}, \"23\": {\"Si\": 1.0}, \"24\": {\"Si\": 1.0}, \"25\": {\"Si\": 1.0}, \"26\": {\"Si\": 1.0}, \"27\": {\"Si\": 1.0}, \"28\": {\"Si\": 1.0}, \"29\": {\"Si\": 1.0}, \"30\": {\"Si\": 1.0}, \"31\": {\"Si\": 1.0}, \"32\": {\"Si\": 1.0}, \"33\": {\"Si\": 1.0}, \"34\": {\"Si\": 1.0}, \"35\": {\"Si\": 1.0}, \"36\": {\"Si\": 1.0}, \"37\": {\"Si\": 1.0}, \"38\": {\"Si\": 1.0}, \"39\": {\"Si\": 1.0}, \"40\": {\"Si\": 1.0}, \"41\": {\"Si\": 1.0}, \"42\": {\"Si\": 1.0}, \"43\": {\"Si\": 1.0}, \"44\": {\"Si\": 1.0}, \"45\": {\"Si\": 1.0}, \"46\": {\"Si\": 1.0}, \"47\": {\"Si\": 1.0}, \"48\": {\"Si\": 1.0}, \"49\": {\"Si\": 1.0}, \"50\": {\"Si\": 1.0}, \"51\": {\"Si\": 1.0}, \"52\": {\"Si\": 1.0}, \"53\": {\"P\": 1.0}}" energy=-470.8624475773627 stress="-0.001929749575754979 0.002923593759328371 0.001968778902301445 0.002923593759328371 -0.0026884302765542854 9.888776535748842e-05 0.001968778902301445 9.888776535748842e-05 0.0007100239400191176" free_energy=-470.8624475773627 pbc="T T T"
Si       6.58554061       3.98068245       2.74029165       0.66354258      -0.87523624       0.25726844       1.23798248      -0.47288297       0.11534824      -8.64988241
Si       8.70882359       5.07718355       5.88796053       0.29923393       0.17869938      -1.07703090      -0.29840464      -0.31749805       0.19574450      -8.77009034
Si      10.69772235       6.06443247       9.02234649      -1.30622804       0.98242290      -1.12350641      -0.73604128      -0.00741572      -0.34370052      -8.70235289
Si       8.56592641       7.36358492       2.74214937       1.94397026      -0.50597234       0.28504997       0.05561035      -0.85780426       0.13458112      -8.76046832
Si      10.50944653       8.30434871       5.89472338      -0.73667429      -0.24289826      -1.05657882       1.48911304       0.02409618      -0.96332842      -8.71261793
Si      12.43740515       9.49417940       9.06559868       0.68734998      -1.25634184       0.58117049       0.11207776      -0.08956631      -0.18568615      -8.75698043
Si      10.54406490      10.54161965       2.58694358      -0.65945610      -0.27582695       1.78371007       0.88121651      -0.68341610       0.74130957      -8.74852960
Si      12.43566300      11.64729082       5.82760980       1.00181137       0.87213104      -0.67490526       0.39036599      -0.18456365       0.06163426      -8.72088356
Si      14.48781011      12.81177602       8.94225374      -0.27182954      -0.45654504      -0.40536435      -0.68196602      -0.04171093      -0.24392417      -8.49451181
Si      10.54261133       3.84514776       2.75717573      -0.65503038      -0.21136897       1.86979847      -0.13843614       1.26713048      -0.26785184      -8.71879488
Si      12.60669608       4.81720057       5.92317382      -0.52575745       1.32901779      -0.64414574      -0.37422958       1.72415254      -0.47618086      -8.68247300
Si      14.42848008       6.17196663       9.06637512       0.91940022      -2.00156098      -0.90210438       0.35850367      -0.85239301      -0.05502788      -8.73764083
Si      12.47265760       7.11990632       2.75326604       0.89563791       0.74718277       0.23477823      -0.34396010       0.22865160       0.02253699      -8.77525238
Si      14.42937001       8.25860652       5.93637824       0.63973834      -0.72252792       0.67490594      -0.36075999       0.59748082      -0.02998290      -8.70318713
Si      16.39418216       9.45341937       8.97591831       0.55870668       0.64361231       0.42312004      -0.42007657       0.38463138       1.49469257      -8.65851931
Si      14.32019014      10.52902457       2.79986838      -1.93569575       2.34587494      -0.67510786       0.49765352      -0.77549494      -0.75839932      -8.73648591
Si      16.34382945      11.55579083       5.91004631       0.69254613      -0.69973284      -0.81000646       0.30415349       0.54677957      -1.05614988      -8.62126900
Si      18.32609691      12.73837905       8.90145028       0.15509863       0.12810098      -0.77920935       0.87745205      -0.93222619       1.30805721      -8.66120512
Si      14.46150914       3.84488594       2.76426883      -0.02906490      -1.73482206      -0.49767679       0.30077283       1.04948983      -0.30688988      -8.72732549
Si      16.46432379       5.01279024       5.94222792      -0.12086263       1.85478994      -0.42608744      -0.62303530      -0.15762915       0.99458855      -8.72309195
Si      18.29076725       6.06565731       9.08893575       0.71059617       0.88386586       1.52268908       0.25464897       1.11187410      -0.29031789      -8.55543302
Si      16.26044086       7.16436778       2.86015953       0.03425523       0.87291540      -1.07592007       0.57023048       1.58334618      -0.43642034      -8.68660068
Si      18.28592864       8.44429128       5.98472350      -1.16981294      -0.21305525      -0.55276137       1.49523270      -0.36162867      -0.36722417      -8.66807280
Si      20.31536182       9.42084426       9.04662286      -0.81277617      -1.24359500      -0.57297642      -0.68658520       0.21149069      -0.39177631      -8.77177795
Si      18.27159714      10.71744607       2.71783140      -0.13167172       0.02574961      -0.48569396      -0.29209394      -0.99000696       0.15248136      -8.56805969
Si      20.21383877      11.68927212       5.88484704       0.16284828      -1.42199370       0.97522777       1.27392678      -0.23993018      -0.90846216      -8.65859371
Si      22.19952056      12.82977071       9.16943251       0.99871457      -0.60317069       1.22888287      -0.27219292      -0.44996500      -0.57847358      -8.56326812
Si       2.96206651       1.66331293       3.39869222       0.91501207       0.59765263       1.32389200      -0.53183917       0.00065719       1.27626703      -8.67171706
Si       4.81928285       2.77010826       6.77260274      -0.90457217      -0.37020397       0.63219552       0.24063653       0.47414624      -0.30966420      -8.69994415
Si       2.97835632       3.90697832       0.39608290      -0.01786856      -0.36399763       0.23145802       0.00446089      -1.06531594       0.11465076      -8.67555051
Si       4.74632980       5.07263701       3.68416763       1.25633073       1.09269532      -0.80340017      -0.05492076      -1.28069723      -0.90169326      -8.74353604
Si       6.76345082       6.18718067       6.72268498      -0.17774477      -1.50175073      -1.27094618       0.53183074      -0.34450265      -0.09666642      -8.72990824
Si       4.75830690       7.23816281       0.48453336       0.08253021      -0.17343040       1.49997627       0.93051818       0.22134542       0.50450254      -8.71228087
Si       6.66688808       8.47075095       3.60229630       0.24530957       1.47527575       0.12362072      -0.28126498      -0.40615542      -0.38599878      -8.65251302
Si       8.81623605       9.54647347       6.70521952       0.53482902      -1.44166604      -0.76496827      -1.73218423      -0.65086792       0.21344072      -8.69231748
Si       4.90118317       0.45625958       0.31201931      -0.51294131       0.27902763      -0.24020425      -0.41124968       0.88642487      -0.49608713      -8.74980171
Si       6.66856949       1.64977284       3.42508108       0.07737377      -0.94434079       0.47386648      -0.72375087       0.99126194       0.67658364      -8.71392528
Si       8.66573812       2.78149284       6.52757309       0.83778896      -1.17297478      -0.26828692      -0.51209276       0.15349393       0.64021661      -8.71787546
Si       6.74999112       3.92063027       0.35245202       0.35841774      -0.93806430       0.17583311      -0.24294992       0.44362288       0.76273388      -8.76311849
Si       8.61636702       5.07210064       3.57407539      -0.47842118      -0.62134538       0.23798740      -0.25212477      -0.01666447      -0.95557884      -8.67402708
Si      10.66584609       6.10246422       6.64047914      -0.06531102       2.03855794       0.42750734       0.22905119      -0.58352226       0.34997417      -8.69838709
Si       8.56353410       7.30890105       0.38651763       0.31502369       0.50218660      -0.79834707       0.78078405      -0.52691468      -0.18320345      -8.68291340
Si      10.54630805       8.33820063       3.45572689       0.42611871      -0.65839484      -0.09826235       0.15329454       0.04440229       0.62854059      -8.68302201
Si      12.45277119       9.42622338       6.71714324      -0.33800664       1.20376256      -0.50586830       0.29754413      -0.02660202      -0.48697720      -8.70534672
Si       8.69430063       0.54846162       0.42759459       0.48450005      -0.07502963      -0.69101791      -0.69348995       0.62329332      -0.05350784      -8.69018800
Si      10.47527126       1.66211912       3.40932857       0.61789330       0.35434594      -1.22561857       0.29814081      -0.24243935       1.45661686      -8.68727304
Si      12.56151126       2.65708366       6.62130442       0.35970209      -0.11638327      -0.01821531      -1.29731297      -0.08457780       0.00401932      -8.76779197
Si      10.58267412       3.90973735       0.36370028       0.81917604       0.34282638       1.56627749       0.08393727      -0.09848807       0.64209802      -8.74184866
Si      12.54938281       4.91710842       3.54905425      -2.40311930       0.07462675      -0.25910990      -0.64944562      -0.35337200       0.18440008      -8.72116365
Si      14.48278759       6.07655333       6.72036083      -0.67835945       0.85544216       0.48744781      -0.10894849      -0.53142303      -0.05059950      -8.73048675
Si      12.60467657       7.12066620       0.40956758      -0.36314041      -0.47084428       0.06817324      -0.62166240       0.77783021      -0.55052593      -8.68145346
Si      14.31836473       8.25530094       3.56788697      -1.06838045       0.40046527       0.83507113       0.37011073       0.59306106       0.32485049      -8.73264613
Si      16.39487602       9.38014415       6.72560142      -0.01028386      -0.13910412       0.29805572      -1.34687729       0.33272734      -0.63080246      -8.76895000
P        0.97670291       0.61692739       0.42871848      -2.32044718       1.37095039       0.48535715       0.66864590      -0.64571515      -0.23876778      -9.84109303
54
Lattice="11.5478352 0.0 0.0 5.773917198490155 10.000722372470358 0.0 5.773916394327279 3.333571176804646 9.428767828939895" Properties=species:S:1:pos:R:3:momenta:R:3:forces:R:3:energies:R:1 spacegroup="_JSON {\"number\": 1, \"setting\": 1}" unit_cell=conventional occupancy="_JSON {\"0\": {\"Si\": 1.0}, \"1\": {\"Si\": 1.0}, \"2\": {\"Si\": 1.0}, \"3\": {\"Si\": 1.0}, \"4\": {\"Si\": 1.0}, \"5\": {\"Si\": 1.0}, \"6\": {\"Si\": 1.0}, \"7\": {\"Si\": 1.0}, \"8\": {\"Si\": 1.0}, \"9\": {\"Si\": 1.0}, \"10\": {\"Si\": 1.0}, \"11\": {\"Si\": 1.0}, \"12\": {\"Si\": 1.0}, \"13\": {\"Si\": 1.0}, \"14\": {\"Si\": 1.0}, \"15\": {\"Si\": 1.0}, \"16\": {\"Si\": 1.0}, \"17\": {\"Si\": 1.0}, \"18\": {\"Si\": 1.0}, \"19\": {\"Si\": 1.0}, \"20\": {\"Si\": 1.0}, \"21\": {\"Si\": 1.0}, \"22\": {\"Si\": 1.0}, \"23\": {\"Si\": 1.0}, \"24\": {\"Si\": 1.0}, \"25\": {\"Si\": 1.0}, \"26\": {\"Si\": 1.0}, \"27\": {\"Si\": 1.0}, \"28\": {\"Si\": 1.0}, \"29\": {\"Si\": 1.0}, \"30\": {\"Si\": 1.0}, \"31\": {\"Si\": 1.0}, \"32\": {\"Si\": 1.0}, \"33\": {\"Si\": 1.0}, \"34\": {\"Si\": 1.0}, \"35\": {\"Si\": 1.0}, \"36\": {\"Si\": 1.0}, \"37\": {\"Si\": 1.0}, \"38\": {\"Si\": 1.0}, \"39\": {\"Si\": 1.0}, \"40\": {\"Si\": 1.0}, \"41\": {\"Si\": 1.0}, \"42\": {\"Si\": 1.0}, \"43\": {\"Si\": 1.0}, \"44\": {\"Si\": 1.0}, \"45\": {\"Si\": 1.0}, \"46\": {\"Si\": 1.0}, \"47\": {\"Si\": 1.0}, \"48\": {\"Si\": 1.0}, \"49\": {\"Si\": 1.0}, \"50\": {\"Si\": 1.0}, \"51\": {\"Si\": 1.0}, \"52\": {\"Si\": 1.0}, \"53\": {\"P\": 1.0}}" energy=-471.31223826305694 stress="-0.0001245721542740276 -0.00017509718139480443 -5.285683767308886e-05 -0.00017509718139480443 -0.0011550733379801414 0.0007241174351502933 -5.285683767308886e-05 0.0007241174351502933 -0.0019464907592422205" free_energy=-471.31223826305694 pbc="T T T"
Si       6.65849745       3.91932063       2.75630101       1.85893705      -1.37805453       0.30800635       0.22800070      -0.13679811      -0.06817531      -8.72488772
Si       8.71787828       5.06928105       5.84831440       0.14491596      -0.55573009      -0.33472251       0.08368152      -0.61824948       0.59090722      -8.72353166
Si      10.61446856       6.11086750       8.96346473      -1.56534949       0.70873819      -0.86334315       0.44243260      -0.32736052       0.65331782      -8.74332722
Si       8.65115488       7.30931894       2.75548652       1.01397437      -1.41709630       0.09186939      -1.08311980      -0.28321558      -0.37162184      -8.68766579
Si      10.53345869       8.29893777       5.80885391       1.57478501       0.16578878      -1.95237424       1.21309834       0.51495762       0.08027011      -8.73279446
Si      12.47340642       9.43347057       9.08556554       0.64247070      -0.91893030       0.12733017      -0.06110521       0.44756759      -0.39292044      -8.74059398
Si      10.54388428      10.50331941       2.68918467       0.53210050      -1.04272182       1.77392199       0.42846768      -0.13748199      -0.59696626      -8.72768975
Si      12.49259552      11.68601447       5.80322269       0.97446593       0.62675700      -0.09111395      -0.36718526      -0.10198722       0.70648882      -8.74259750
Si      14.44881740      12.79301468       8.91417446      -1.13854053      -0.15195480      -0.57709055      -0.39471464       0.37670075       0.10735124      -8.46449587
Si      10.50027280       3.88008119       2.83536991      -1.00811601       1.31824776       0.98763350      -0.31630915       0.41045399      -0.76434759      -8.75482436
Si      12.56573265       4.93531214       5.88043363      -1.00780616       2.74661202      -0.79316284      -0.26134916       0.07729572       0.26060266      -8.69838335
Si      14.48724121       6.05554177       9.02872259       1.22190203      -1.99308568      -0.35080566      -0.01529678       0.88073992       0.64865163      -8.72821641
Si      12.50028415       7.15821549       2.76238213       0.12166149       0.54750479       0.04367147      -0.47595639      -0.40864734      -0.24468674      -8.75472513
Si      14.44096594       8.25355926       5.96916724      -0.31600230       0.62293874       0.55751400      -0.83203693       0.96592757      -0.10035036      -8.71889031
Si      16.40133397       9.49462379       9.04500503      -0.37638308       0.76343895       1.87973869      -0.76096099      -0.25759521       0.23978191      -8.71940524
Si      14.25761521      10.60766483       2.73857603      -0.24385466       0.53906510      -1.50968509       1.29445529      -1.23762937      -0.14791099      -8.66381055
Si      16.38814765      11.54011437       5.83163722       0.87147116       0.06768299      -2.00655499      -0.17608821       0.41532903      -0.37242425      -8.69433935
Si      18.35985384      12.71314399       8.91365944       0.89756893      -0.94069514       1.15354703      -0.03110693      -0.34920038       0.95756492      -8.70472382
Si      14.46640551       3.81280825       2.73662571       0.11424343       0.64007523      -0.34934434      -0.09430412       1.57325918       0.51633248      -8.68724736
Si      16.42520102       5.08701503       5.95121245      -1.44064452       0.72161198       0.53392738      -0.86990570      -1.16116811       0.11178909      -8.72348892
Si      18.33083334       6.14731689       9.14265436       0.66691179       1.98405411       0.31981134      -0.34035220       0.17352179      -1.11889669      -8.56165440
Si      16.28011086       7.26517420       2.80655462       0.62822334       2.70645453      -0.54593820       0.22778986       0.59247155       1.16417142      -8.73234706
Si      18.28144599       8.41579951       5.94613409       0.78096964      -0.89152927      -0.81419256       0.67973135      -0.45736767       0.02148335      -8.70701365
Si      20.25846840       9.37283490       9.01038911      -1.13758425      -0.49323198      -0.60141208       0.16583998       0.58720572       0.40238517      -8.71673687
Si      18.26372066      10.68969943       2.70248814       0.00519329      -0.88180072      -0.03167688       0.38509397      -0.20305665       0.41928395      -8.58082372
Si      20.26154565      11.61446340       5.90419372       1.34907875      -1.25147529      -0.07124841       0.11982249       0.43961904      -0.26155974      -8.74980267
Si      22.23070687      12.78253288       9.20645711       0.02323899      -1.12540147       0.11455158      -0.91367075      -0.16581987      -0.85443332      -8.56106515
Si       2.98032148       1.68275116       3.51144915      -0.28283546      -0.00949680       2.73758045      -0.80216383      -0.58881023       0.33710752      -8.71421245
Si       4.79197651       2.77382017       6.79063477       0.03362362       0.53960356       0.02595839       0.90250156       0.59586185      -0.43295018      -8.63029158
Si       2.97736902       3.85318390       0.41194381      -0.03173063      -1.44985949       0.34476222      -0.04251799      -0.15187112       0.01695963      -8.76216600
Si       4.80312048       5.08195125       3.61153282       0.83266843      -0.55857573      -1.82021077      -0.37057828      -0.62397214      -0.34253121      -8.73286102
Si       6.77844930       6.11066665       6.66777688       0.74923046      -1.15456527      -0.58658874       0.50844265       0.66530567       0.83179923      -8.69518616
Si       4.79195301       7.22754753       0.55856650       1.04340830      -0.39484595       0.84119255       0.33016023      -0.42101434      -1.34436796      -8.70396632
Si       6.67469854       8.51998089       3.58903109       0.17890245       0.19896547      -0.67450880       0.21647339      -1.20610824      -0.56704393      -8.65582184
Si       8.77434398       9.44963133       6.67591169      -1.97950151      -2.18101050      -0.38889623      -1.15410440      -0.35596832       0.09138944      -8.74492295
Si       4.86188133       0.50211076       0.28931779      -0.90015915       1.33715595      -0.45677662      -0.08399535       0.37914745       0.16640907      -8.71004406
Si       6.63654318       1.64672624       3.47450260      -1.25888262       0.82546116       1.31714470      -0.56713901       0.98380903       0.30408001      -8.75876742
Si       8.69345346       2.73560565       6.53430980       0.31959328      -0.44099685       0.41399353      -0.12563596       0.69301241       0.20924954      -8.72374424
Si       6.76282514       3.87962900       0.38419438       0.19504887      -0.80925225       0.85966451       0.00599658      -0.25671169       0.08862546      -8.73420830
Si       8.58515288       5.04226446       3.54982362      -0.63101465      -0.44461461      -1.05177707       0.05772931       0.26812286      -0.52541959      -8.74557868
Si      10.66619112       6.17590317       6.66568410      -0.02742513       0.65399488       0.29961028      -0.18605420      -1.01047634      -0.55513951      -8.72884570
Si       8.60731651       7.30968850       0.34757956       1.24593635      -0.52213447      -0.50396509       0.35147232      -0.71411443       0.52809560      -8.72901062
Si      10.57811113       8.30771035       3.47292516       0.82066560      -0.50176176       0.64690392       0.27362676       0.05302016       0.19758818      -8.75654500
Si      12.44762840       9.48026163       6.67721822       0.14918817       0.73305330      -0.89363500       0.32721114      -0.50973243      -0.00758819      -8.65747780
Si       8.69421095       0.55757814       0.39168466      -0.39387413       0.14764069      -0.63129642      -0.34159761      -0.44214819       0.13110983      -8.75269210
Si      10.50894451       1.66513230       3.40277828       0.48835210      -0.25698930       0.87809571      -0.39100431      -0.32681665       1.07815160      -8.70265293
Si      12.53753046       2.65627981       6.61340846      -0.99401638       0.23556189      -0.36641627      -0.24619012       0.50222211      -0.30730815      -8.76723220
Si      10.61943349       3.92353856       0.46259980       0.43113349       0.18986965       2.02320866      -0.51138619      -0.07714043      -0.07004618      -8.69662752
Si      12.42352356       4.91121518       3.53937436      -1.93432314      -0.13678065      -0.16938142       1.16616791       0.25911866      -0.04295190      -8.70165064
Si      14.44748022       6.09567692       6.73611376      -0.60856434      -0.12359061      -0.01063055       0.11942553      -0.52465706      -0.52682302      -8.76781819
Si      12.57032310       7.13017544       0.39475960      -0.75337922       0.85314657      -0.51368875       0.12339383       0.85259953      -0.09749436      -8.73558387
Si      14.28965390       8.30427214       3.61809502       0.12981380       1.49435014       0.93563987       0.98231257       0.70785984      -0.24167304      -8.69037066
Si      16.35022786       9.38495670       6.72274225      -1.38970813       0.28404016      -0.25573327      -0.20061654       0.19959743      -0.05783372      -8.78222558
P        0.90249963       0.65771761       0.44153653      -0.61998177       0.37436806       0.00089275       1.38311845      -0.55960738      -0.44748243      -9.78665220
54
Lattice="11.5478352 0.0 0.0 5.773917198490155 10.000722372470358 0.0 5.773916394327279 3.333571176804646 9.428767828939895" Properties=species:S:1:pos:R:3:momenta:R:3:forces:R:3:energies:R:1 spacegroup="_JSON {\"number\": 1, \"setting\": 1}" unit_cell=conventional occupancy="_JSON {\"0\": {\"Si\": 1.0}, \"1\": {\"Si\": 1.0}, \"2\": {\"Si\": 1.0}, \"3\": {\"Si\": 1.0}, \"4\": {\"Si\": 1.0}, \"5\": {\"Si\": 1.0}, \"6\": {\"Si\": 1.0}, \"7\": {\"Si\": 1.0}, \"8\": {\"Si\": 1.0}, \"9\": {\"Si\": 1.0}, \"10\": {\"Si\": 1.0}, \"11\": {\"Si\": 1.0}, \"12\": {\"Si\": 1.0}, \"13\": {\"Si\": 1.0}, \"14\": {\"Si\": 1.0}, \"15\": {\"Si\": 1.0}, \"16\": {\"Si\": 1.0}, \"17\": {\"Si\": 1.0}, \"18\": {\"Si\": 1.0}, \"19\": {\"Si\": 1.0}, \"20\": {\"Si\": 1.0}, \"21\": {\"Si\": 1.0}, \"22\": {\"Si\": 1.0}, \"23\": {\"Si\": 1.0}, \"24\": {\"Si\": 1.0}, \"25\": {\"Si\": 1.0}, \"26\": {\"Si\": 1.0}, \"27\": {\"Si\": 1.0}, \"28\": {\"Si\": 1.0}, \"29\": {\"Si\": 1.0}, \"30\": {\"Si\": 1.0}, \"31\": {\"Si\": 1.0}, \"32\": {\"Si\": 1.0}, \"33\": {\"Si\": 1.0}, \"34\": {\"Si\": 1.0}, \"35\": {\"Si\": 1.0}, \"36\": {\"Si\": 1.0}, \"37\": {\"Si\": 1.0}, \"38\": {\"Si\": 1.0}, \"39\": {\"Si\": 1.0}, \"40\": {\"Si\": 1.0}, \"41\": {\"Si\": 1.0}, \"42\": {\"Si\": 1.0}, \"43\": {\"Si\": 1.0}, \"44\": {\"Si\": 1.0}, \"45\": {\"Si\": 1.0}, \"46\": {\"Si\": 1.0}, \"47\": {\"Si\": 1.0}, \"48\": {\"Si\": 1.0}, \"49\": {\"Si\": 1.0}, \"50\": {\"Si\": 1.0}, \"51\": {\"Si\": 1.0}, \"52\": {\"Si\": 1.0}, \"53\": {\"P\": 1.0}}" energy=-470.76907551376723 stress="-0.0007202380409508167 -0.0028521532771885595 -0.0014481747469871035 -0.0028521532771885595 0.0014471830766822722 -0.00015708511255102254 -0.0014481747469871035 -0.00015708511255102254 -0.0034043647390947706" free_energy=-470.76907551376723 pbc="T T T"
Si       6.74621748       3.85034915       2.76566440       1.16218297      -1.07964845      -0.03467997      -1.03246230       0.53845250      -0.39310584      -8.75765500
Si       8.73071554       5.01800274       5.84812119       0.34197569      -1.31143951       0.19384833       0.06805746      -0.26884310       0.08500962      -8.71142738
Si      10.56372687       6.13306358       8.94791232      -0.16361179       0.12003523       0.25731298       1.24634026      -0.39528135       0.62027038      -8.74726712
Si       8.66280741       7.23652175       2.74378830      -0.47309773      -1.12403945      -0.53750128      -0.72797952       0.62657848      -0.37833258      -8.66856066
Si      10.64113994       8.32730240       5.73584258       2.09205382       0.84234525      -0.39618606      -0.49743195       0.24213611       1.73833306      -8.69961144
Si      12.50701431       9.40183585       9.07697655       0.69600266      -0.36285071      -0.43827515       0.15696910       0.16142784      -0.33304412      -8.71721463
Si      10.57278741      10.45796971       2.75089961       0.30421883      -0.43326800       0.48485703      -0.60288148       0.84437305      -0.98242763      -8.67408410
Si      12.52512003      11.71659079       5.82967228       0.23535802       0.56492188       1.11314140      -0.49313051      -0.00250286       0.76158235      -8.74713133
Si      14.38220026      12.79946006       8.89706072      -1.23100744       0.35950605       0.08852419       0.27592996       0.23626206       0.73961343      -8.48995102
Si      10.44054474       3.94234636       2.85965092      -1.07801797       0.68674749       0.03234353       0.43003643      -1.02214507      -0.40489084      -8.71914044
Si      12.50730384       5.06007037       5.85361296      -1.10843310       1.64476128      -0.19734127       0.17595875      -1.36627635       0.39827921      -8.70027718
Si      14.54392073       6.00096748       9.03374917       0.81796873       0.07309115       0.45998383      -0.49739573       1.50808331       0.34947940      -8.67435716
Si      12.49905615       7.17072968       2.75458909       0.07685304      -0.02077440      -0.34008379       0.46666712      -0.22427852      -0.24936142      -8.70942925
Si      14.39440947       8.31405345       5.99365196      -1.33622123       1.45469323       0.34381862      -0.34037986       0.09066201      -0.23517660      -8.76096798
Si      16.35884266       9.51643950       9.13265523      -1.00691113      -0.06026227       1.13868585       0.15500822      -0.76447273      -1.03891281      -8.72245730
Si      14.28166360      10.60076802       2.67200412       0.87988045      -0.52371900      -0.70585726       0.22910905      -0.16716780       1.09053433      -8.66231713
Si      16.41881747      11.55492573       5.73348082       0.18765436       0.40989081      -1.27263313      -0.60242780       0.08554737       1.43231585      -8.74250056
Si      18.38940897      12.66648007       8.99019918      -0.05702834      -0.50097746       1.34269338      -1.15747646       0.96973091      -0.67539864      -8.69800835
Si      14.46495570       3.88690008       2.74580542      -0.23213488       1.74947417       0.76918769      -0.34030329      -0.09919192       0.79071368      -8.70408159
Si      16.33352467       5.07982332       5.96900861      -1.64993980      -0.91945112      -0.09909166       0.66967134      -0.87352815      -0.85244097      -8.71293470
Si      18.34521650       6.24089874       9.11699061      -0.21806988       1.30856168      -1.21334172      -0.72313901      -0.90715560      -0.79066021      -8.54704165
Si      16.31647686       7.40652378       2.82584372       0.64791545       2.23884262       1.10743829      -0.20716060      -1.15810447       0.52961438      -8.72224318
Si      18.32175115       8.35232253       5.90530907       0.25161994      -1.52499676      -0.77731202      -1.27243136      -0.43191055      -0.09944136      -8.70857525
Si      20.21101752       9.36521809       9.00131259      -0.59635964       0.09823016       0.31148623       0.47291345       0.19069073       0.62883131      -8.63922714
Si      18.28026504      10.64538953       2.71716693       0.60366027      -0.66091663       0.56605254       0.30979552       0.36613875       0.32175207      -8.58038647
Si      20.32043899      11.56917044       5.90850133       0.65312525      -0.46155591       0.57313888      -0.84707746       0.51636110       1.03042251      -8.72072128
Si      22.19987249      12.72532412       9.18027338      -1.05851377      -0.90943479      -1.07014659      -0.38054391       0.39431344      -0.69633077      -8.56299652
Si       2.94317393       1.66513756       3.64107156      -0.94633595      -0.51237361       1.71140291      -0.08029528      -0.02122155      -1.55454284      -8.70029274
Si       4.82666707       2.81806784       6.77730711       1.17504278       0.97371912      -0.47854827       0.46804923      -0.07964917      -0.21750770      -8.68216881
Si       2.97241065       3.79067962       0.43103033      -0.19672409      -0.61060079       0.41801569      -0.19823991       1.10426643       0.14504978      -8.74604689
Si       4.83430420       5.04626408       3.51608183       0.41402396      -0.48746179      -1.56785153      -0.15464354       0.60767293       0.63942149      -8.65089919
Si       6.82343929       6.07771879       6.66928556       0.66981384      -0.14660504       0.57377326      -0.62213723       0.50157982       0.56765848      -8.69804065
Si       4.85058206       7.18991174       0.54510050       1.02522630      -0.99775881      -1.25183287      -0.32994054      -0.25955716      -0.99607232      -8.70171093
Si       6.69924154       8.48317593       3.53730649       0.88476012      -1.52516025      -1.15702650       0.72106593      -0.91154959      -0.02748882      -8.70599734
Si       8.65708830       9.33258750       6.65441483      -1.86602245      -2.01133982      -0.45211905       1.25841897       0.68151220       0.01371487      -8.73267300
Si       4.81606592       0.57302968       0.27791880      -0.77555058       1.10098373       0.12183443       0.19553585      -0.65721217       0.56523315      -8.61924678
Si       6.57109779       1.70801177       3.54387134      -0.84590587       1.09417801       1.14472518       0.93907760      -0.62857242      -0.39679547      -8.73383257
Si       8.71056816       2.73790180       6.55675408       0.40960283       0.44818393       0.32807254       0.17511218       0.38321666      -0.22424676      -8.71721249
Si       6.77493072       3.82513460       0.42260030       0.29281242      -1.24519800       0.43416624       0.11494421      -0.17665104      -0.58323958      -8.67829378
Si       8.55721954       5.03291455       3.49175737      -0.40712430       0.13260942      -0.82625287       0.16546645       0.43426663       0.77482147      -8.73757051
Si      10.65274036       6.17967685       6.65366364      -0.56872703      -0.29708327      -0.77341220      -0.51520816      -0.19813081      -0.61824347      -8.73956498
Si       8.67202760       7.26327426       0.34552171       0.90939429      -1.02142898       0.45329132      -0.86471499       0.15517890       0.64448388      -8.74891340
Si      10.62482072       8.27939412       3.49966077       0.79393702      -0.64500036       0.10043972      -0.36332516      -0.19390242      -0.82784045      -8.76655938
Si      12.46603150       9.50001342       6.63796606       0.49486270       0.10428901      -0.44488011       0.10065804      -0.17992188       0.62269757      -8.69362727
Si       8.66969800       0.53676621       0.36532602      -0.37270570      -1.04212852      -0.36173715       0.31373447      -0.82505814       0.18139205      -8.77841137
Si      10.51702812       1.64695226       3.46820789      -0.18184233      -0.29848497       1.12060102      -0.40849602       0.20280389      -0.83984402      -8.70340175
Si      12.49467211       2.69048581       6.58853916      -0.35032457       1.07619486      -0.43990590       0.88995018       0.53770801       0.22922919      -8.63696154
Si      10.62086904       3.93126405       0.55361567      -0.36203305       0.11239856       1.21371162      -0.46467965      -0.04814276      -0.98854054      -8.67572713
Si      12.37896153       4.92401573       3.52813617       0.31602509       0.74415681      -0.26120339       1.49515960       0.72575096      -0.05455368      -8.68819283
Si      14.41821837       6.08141493       6.71762369      -0.56847442      -0.16086229      -0.59028279      -0.10589524       0.47245914      -0.13728398      -8.77198814
Si      12.54193302       7.19630542       0.37385561      -0.27634394       1.36207362      -0.11568156       0.33823691      -0.33456681       0.55599581      -8.77921144
Si      14.32694478       8.40070865       3.64968076       1.09034445       1.96902490       0.15783449       0.21719871      -0.11890871      -0.66711870      -8.70562273
Si      16.29102232       9.40601685       6.71365114      -0.53931235       0.49301233      -0.00022560       1.08189819       0.08364231       0.30070341      -8.68533616
P        0.91677011       0.65901683       0.42385264       1.04045802      -0.26710436      -0.75697151       0.69883379      -0.34691243      -0.49431061      -9.79100591
54
Lattice="11.5478352 0.0 0.0 5.773917198490155 10.000722372470358 0.0 5.773916394327279 3.333571176804646 9.428767828939895" Properties=species:S:1:pos:R:3:momenta:R:3:forces:R:3:energies:R:1 spacegroup="_JSON {\"number\": 1, \"setting\": 1}" unit_cell=conventional occupancy="_JSON {\"0\": {\"Si\": 1.0}, \"1\": {\"Si\": 1.0}, \"2\": {\"Si\": 1.0}, \"3\": {\"Si\": 1.0}, \"4\": {\"Si\": 1.0}, \"5\": {\"Si\": 1.0}, \"6\": {\"Si\": 1.0}, \"7\": {\"Si\": 1.0}, \"8\": {\"Si\": 1.0}, \"9\": {\"Si\": 1.0}, \"10\": {\"Si\": 1.0}, \"11\": {\"Si\": 1.0}, \"12\": {\"Si\": 1.0}, \"13\": {\"Si\": 1.0}, \"14\": {\"Si\": 1.0}, \"15\": {\"Si\": 1.0}, \"16\": {\"Si\": 1.0}, \"17\": {\"Si\": 1.0}, \"18\": {\"Si\": 1.0}, \"19\": {\"Si\": 1.0}, \"20\": {\"Si\": 1.0}, \"21\": {\"Si\": 1.0}, \"22\": {\"Si\": 1.0}, \"23\": {\"Si\": 1.0}, \"24\": {\"Si\": 1.0}, \"25\": {\"Si\": 1.0}, \"26\": {\"Si\": 1.0}, \"27\": {\"Si\": 1.0}, \"28\": {\"Si\": 1.0}, \"29\": {\"Si\": 1.0}, \"30\": {\"Si\": 1.0}, \"31\": {\"Si\": 1.0}, \"32\": {\"Si\": 1.0}, \"33\": {\"Si\": 1.0}, \"34\": {\"Si\": 1.0}, \"35\": {\"Si\": 1.0}, \"36\": {\"Si\": 1.0}, \"37\": {\"Si\": 1.0}, \"38\": {\"Si\": 1.0}, \"39\": {\"Si\": 1.0}, \"40\": {\"Si\": 1.0}, \"41\": {\"Si\": 1.0}, \"42\": {\"Si\": 1.0}, \"43\": {\"Si\": 1.0}, \"44\": {\"Si\": 1.0}, \"45\": {\"Si\": 1.0}, \"46\": {\"Si\": 1.0}, \"47\": {\"Si\": 1.0}, \"48\": {\"Si\": 1.0}, \"49\": {\"Si\": 1.0}, \"50\": {\"Si\": 1.0}, \"51\": {\"Si\": 1.0}, \"52\": {\"Si\": 1.0}, \"53\": {\"P\": 1.0}}" energy=-470.6283570678126 stress="-0.0019523678499267652 -7.154932694062952e-05 -6.135673781477793e-05 -7.154932694062952e-05 -2.5429494175864167e-05 -0.00012040420478386759 -6.135673781477793e-05 -0.00012040420478386759 0.0007075385187422126" free_energy=-470.6283570678126 pbc="T T T"
Si       6.76237106       3.82133369       2.74743932      -0.54617549       0.04996115      -0.63834759      -1.05577662       0.83809825      -0.30598693      -8.75512792
Si       8.74406317       4.95207128       5.85626265       0.00429753      -0.92859034       0.04554752      -0.56223275       0.79336986      -0.19370769      -8.71757033
Si      10.59796473       6.12710205       8.97590758       1.25228123      -0.28134437       0.63139078       0.41280415      -0.14968970      -0.07225794      -8.75921645
Si       8.62295574       7.20641681       2.70640483      -0.76177994      -0.03225429      -0.76149348       0.40032967       0.59299695       0.11646948      -8.71880346
Si      10.71349701       8.37125360       5.77600852       0.39918769       0.65945879       1.62909764      -1.54977218      -0.43131424       0.63651180      -8.69248554
Si      12.55021314       9.38150497       9.04457739       0.92588486      -0.54052993      -0.71089332       0.05039438      -0.33429268       0.01221237      -8.70368476
Si      10.56263944      10.46977719       2.74189048      -0.67377696       0.83197035      -0.70590944      -0.54786820       0.65894401      -0.50484226      -8.69681710
Si      12.52380640      11.74469907       5.90790087      -0.14559286       0.45962980       1.64863009       0.05226358      -0.19004204      -0.09571852      -8.74595029
Si      14.33743073      12.82227399       8.93065850      -0.31543844       0.40189316       1.12699301       0.91352683      -0.19225578       0.49552875      -8.52532602
Si      10.41542909       3.93811069       2.85335871       0.32967542      -0.74168563      -0.15502507       1.24603103      -0.62420240       0.04175002      -8.69101601
Si      12.46305163       5.08804194       5.85480239      -0.47983641      -0.56250823       0.16344600       0.55944418      -1.31308428       0.09585182      -8.73668945
Si      14.56320497       6.04798895       9.06454914      -0.13656520       1.34250705       0.57518439      -0.70859894       0.06121042      -0.20692753      -8.70096296
Si      12.52920460       7.16911573       2.72895154       1.15148332       0.13454394      -0.58023704       0.77940332       0.46364384      -0.01595516      -8.70429533
Si      14.32987541       8.38238344       5.99793953      -0.75141695       0.97933178      -0.26855108       1.09151749      -0.58029151      -0.57245764      -8.73749236
Si      16.32825035       9.48532453       9.14812711       0.03902915      -1.01732533      -0.53071962       0.92092204      -0.33941374      -0.98136608      -8.71720320
Si      14.32682748      10.57879875       2.67789049       0.68755852      -0.12106793       0.81677257      -0.39351719       0.59332937       0.67239742      -8.68087196
Si      16.40924321      11.57926645       5.73584958      -0.42794027       0.53750064       1.40537204      -0.12044234       0.15044654       1.60696835      -8.74615067
Si      18.33693147      12.68762966       9.02221155      -1.94373912       1.35196684      -0.23203568      -1.15741360       1.14182523      -1.11789570      -8.69439110
Si      14.44095851       3.95775392       2.80845588      -0.60496381       0.70405604       1.42727286      -0.03079547      -1.09099467       0.05045891      -8.71737219
Si      16.28593529       5.01225546       5.92785184      -0.05045260      -1.33543597      -1.44871431       1.14260500       0.37639077      -0.77456862      -8.67324639
Si      18.31072871       6.27097034       9.03753948      -0.95428582      -0.16599866      -1.48622329      -0.18307022      -0.94799112       0.49907134      -8.55115161
Si      16.33850086       7.46340215       2.87994169       0.17243259      -0.25963853       0.54597525      -0.27534893      -1.91284419      -1.07366158      -8.63620849
Si      18.28103227       8.26163505       5.85925755      -1.67495146      -1.74482996      -0.94975417      -0.80220926       0.29758941       0.01159477      -8.70962797
Si      20.19815828       9.37381349       9.03468470       0.08762966       0.17716534       0.79470900       0.40519499      -0.01487221      -0.01255210      -8.66642984
Si      18.31729175      10.62327669       2.75353897       0.66424810      -0.26942807       0.68901076      -0.25426106       0.03922055      -0.19515235      -8.55377739
Si      20.32067712      11.56331995       5.97722584      -0.60844947       0.20720972       1.86694965      -0.71919356       0.39252168       0.36144604      -8.67277772
Si      22.14324020      12.69406388       9.10287038      -0.84270160      -0.31138274      -1.75892390       0.63022292       0.29798907      -0.21308365      -8.55286252
Si       2.89930377       1.64572514       3.66769726      -0.57535284      -0.08289312      -0.55450085       0.51642841       0.55618220      -1.05095785      -8.69665010
Si       4.89254431       2.85566063       6.74821292       1.05607899       0.29459540      -0.55188096      -0.63608441      -0.72210607       0.08363897      -8.74517376
Si       2.95320874       3.80314992       0.45949695      -0.53484549       1.01619943       0.65244766      -0.19378627       0.85222690       0.09024684      -8.74146625
Si       4.85166976       5.05046600       3.46656925       0.24754710       0.68474411      -0.23538664      -0.16116313       0.76292119       0.98031455      -8.62827752
Si       6.82651968       6.07864413       6.70908040      -0.62959713      -0.04950574       0.67192571      -0.94904341      -0.39550974      -0.49703306      -8.69058724
Si       4.88503543       7.13625139       0.46049531       0.20449887      -0.88398161      -1.64288346      -0.65810216       0.37530780       0.29970709      -8.68483069
Si       6.77279905       8.38355423       3.48361818       1.79109057      -1.94821322      -0.76074489       0.19054890       0.35750569       0.49028613      -8.73773575
Si       8.62111989       9.26425599       6.63780122       0.50237424      -0.50016737      -0.07756685       1.32278190       1.07069749       0.41594571      -8.68448329
Si       4.78392398       0.59808443       0.30720747      -0.45170367      -0.19776594       0.97751831       0.19141384      -0.86355366       0.49724791      -8.65743624
Si       6.56849771       1.72740198       3.58774983       0.77011021      -0.49950153       0.54422415       1.05683970      -1.20272115      -0.36068043      -8.68091789
Si       8.73740392       2.76628818       6.56809452       0.55627100       0.43896997       0.22037664      -0.04758468      -0.36832024       0.22125376      -8.71745995
Si       6.79532946       3.76191858       0.42012115       0.48968603      -0.98020360      -0.52880919       0.12922625       0.54890934      -0.58969424      -8.70335925
Si       8.54132534       5.05171449       3.48591744      -0.20400926       0.43817021       0.64065922       0.15549124      -0.13021748       0.93057727      -8.71003417
Si      10.60393173       6.16570431       6.60218367      -1.21331388      -0.11317498      -0.92052328      -0.20083295       0.28101504       0.41970491      -8.72427872
Si       8.67588232       7.22704380       0.38727301      -0.81638228      -0.22391993       0.94000847      -1.07245813       0.68844333      -0.14046107      -8.73449644
Si      10.64549288       8.24191837       3.47555457      -0.08387547      -0.66197427      -0.85301959      -0.67354624       0.27627506      -0.22184677      -8.73466855
Si      12.49076236       9.50918692       6.64603716       0.35486320       0.43804154       0.85186900      -0.25647948       0.54826240       1.00038911      -8.71644845
Si       8.66496627       0.46560175       0.35332481       0.17850051      -1.32445031      -0.08070410       0.25710229       0.50074584       0.24227170      -8.76469187
Si      10.49714733       1.64055219       3.48016083      -0.43612923       0.04582501      -0.70490434       0.14507496       0.17786431      -1.00300988      -8.70751272
Si      12.51064325       2.76148525       6.57920402       0.87036708       1.48260537       0.15002857       0.55800313      -0.04312503       0.50102871      -8.62726642
Si      10.58923972       3.93445674       0.57193715      -0.72710158      -0.01073017      -0.57256594      -0.00873977      -0.12811915      -1.21685186      -8.70858462
Si      12.43841800       4.98445856       3.51444413       1.61135447       1.38714530      -0.19843347       0.18699086       0.06235966       0.19348508      -8.72470780
Si      14.38465173       6.09740921       6.68869822      -0.65194110       0.80269419      -0.40627709       0.12208382       0.60800698       0.27978240      -8.73563553
Si      12.53640076       7.23900048       0.38936699      -0.01200042       0.09608239       0.61857563       0.04435880      -0.98807173       0.20470308      -8.77077029
Si      14.38149889       8.48637317       3.63666536       0.82141479       1.06205064      -0.51719679      -0.44238297      -1.05269970      -0.15304801      -8.70491658
Si      16.30353222       9.43086354       6.72377472       0.90038006       0.35470261       0.32591294       0.65931735      -0.30076959       0.06953352      -8.66575524
P        0.97683344       0.63681834       0.37571263       1.18607359      -0.59051899      -1.12767246      -0.47961712      -0.04779705       0.04933912      -9.77270268
54
Lattice="11.5478352 0.0 0.0 5.773917198490155 10.000722372470358 0.0 5.773916394327279 3.333571176804646 9.428767828939895" Properties=species:S:1:pos:R:3:momenta:R:3:forces:R:3:energies:R:1 spacegroup="_JSON {\"number\": 1, \"setting\": 1}" unit_cell=conventional occupancy="_JSON {\"0\": {\"Si\": 1.0}, \"1\": {\"Si\": 1.0}, \"2\": {\"Si\": 1.0}, \"3\": {\"Si\": 1.0}, \"4\": {\"Si\": 1.0}, \"5\": {\"Si\": 1.0}, \"6\": {\"Si\": 1.0}, \"7\": {\"Si\": 1.0}, \"8\": {\"Si\": 1.0}, \"9\": {\"Si\": 1.0}, \"10\": {\"Si\": 1.0}, \"11\": {\"Si\": 1.0}, \"12\": {\"Si\": 1.0}, \"13\": {\"Si\": 1.0}, \"14\": {\"Si\": 1.0}, \"15\": {\"Si\": 1.0}, \"16\": {\"Si\": 1.0}, \"17\": {\"Si\": 1.0}, \"18\": {\"Si\": 1.0}, \"19\": {\"Si\": 1.0}, \"20\": {\"Si\": 1.0}, \"21\": {\"Si\": 1.0}, \"22\": {\"Si\": 1.0}, \"23\": {\"Si\": 1.0}, \"24\": {\"Si\": 1.0}, \"25\": {\"Si\": 1.0}, \"26\": {\"Si\": 1.0}, \"27\": {\"Si\": 1.0}, \"28\": {\"Si\": 1.0}, \"29\": {\"Si\": 1.0}, \"30\": {\"Si\": 1.0}, \"31\": {\"Si\": 1.0}, \"32\": {\"Si\": 1.0}, \"33\": {\"Si\": 1.0}, \"34\": {\"Si\": 1.0}, \"35\": {\"Si\": 1.0}, \"36\": {\"Si\": 1.0}, \"37\": {\"Si\": 1.0}, \"38\": {\"Si\": 1.0}, \"39\": {\"Si\": 1.0}, \"40\": {\"Si\": 1.0}, \"41\": {\"Si\": 1.0}, \"42\": {\"Si\": 1.0}, \"43\": {\"Si\": 1.0}, \"44\": {\"Si\": 1.0}, \"45\": {\"Si\": 1.0}, \"46\": {\"Si\": 1.0}, \"47\": {\"Si\": 1.0}, \"48\": {\"Si\": 1.0}, \"49\": {\"Si\": 1.0}, \"50\": {\"Si\": 1.0}, \"51\": {\"Si\": 1.0}, \"52\": {\"Si\": 1.0}, \"53\": {\"P\": 1.0}}" energy=-470.98994073191363 stress="-0.000852403167495525 0.0025595351758947445 0.0018121958108295287 0.0025595351758947445 -0.0009620506213552127 0.0006418946832397792 0.0018121958108295287 0.0006418946832397792 0.0013773009642282148" free_energy=-470.98994073191363 pbc="T T T"
Si       6.70314572       3.85054034       2.70974419      -1.47850162       0.90548316      -0.64139937      -0.14633844       0.23278305       0.30186666      -8.73555885
Si       8.71682589       4.94143402       5.85414884      -1.09957780       0.55885706      -0.01801540      -0.78703692       0.94407674       0.22783826      -8.73875226
Si      10.65962121       6.10797217       9.00121100       0.73924147      -0.43075709       0.27333912      -0.98760717      -0.06790259      -0.31192975      -8.69357653
Si       8.61400337       7.21441120       2.67805554       0.65026356       0.06512778      -0.20997122       1.26896670      -0.43733922       0.54623794      -8.73872885
Si      10.67979994       8.38692797       5.86436031      -1.44059590      -0.04599764       1.38719658      -0.62436818      -0.38620064      -0.75765529      -8.71411510
Si      12.59258391       9.34066154       9.01581006       0.51733764      -0.95954826      -0.22103707      -0.61699234      -0.11295718       0.65579399      -8.71557082
Si      10.51581919      10.52735516       2.69840806      -0.89107016       1.13266514      -0.67346321       0.31091985      -0.23549893       0.58896812      -8.72605936
Si      12.52625471      11.75705732       5.97884279       0.35378967      -0.05721569       0.86901512       0.48935722      -0.45165421      -0.83471451      -8.72826872
Si      14.35854652      12.83092118       8.99866685       1.08164779      -0.13730326       1.27577660       0.75240371      -0.44268955      -0.24289498      -8.56678098
Si      10.47662142       3.89220836       2.84455922       1.85597228      -0.67418392      -0.26520058       0.69129350       0.66791609      -0.27525227      -8.68685172
Si      12.45744733       5.02586598       5.86454327       0.19630212      -1.38788395       0.16955848       0.30227219       0.31378425      -0.05716340      -8.76598889
Si      14.53283666       6.10115453       9.07902603      -0.88908098       0.37222757      -0.15129504      -0.19817579      -1.17043927      -0.70640704      -8.70311001
Si      12.61033470       7.20048219       2.70481507       1.69555463       1.12080626      -0.21067222      -0.18289425       0.68840539       0.47362430      -8.74937553
Si      14.33799567       8.41289927       5.96293631       1.01485291       0.28351972      -0.97987265       0.94524490      -0.21406759      -0.24003245      -8.73851420
Si      16.35721163       9.43227782       9.09452795       0.85082112      -0.76693166      -1.25628260       0.10957633       0.58174863       0.00811183      -8.72787615
Si      14.34517485      10.59493730       2.73095297       0.02815649       0.63001019       0.92259012      -0.31613380       0.17966637      -0.43145660      -8.74868590
Si      16.39277796      11.61382730       5.84717370       0.00324208       0.76210325       2.35288657       0.66877223       0.07847002      -0.26396004      -8.70809665
Si      18.20745936      12.78385768       8.97880760      -2.57743357       1.91406956      -1.13225944       0.45188001      -0.41045729       0.00038389      -8.71566140
Si      14.41777471       3.95278836       2.87507704      -0.11128791      -0.79346199       0.94316433       0.60868408      -0.70221600      -0.62313399      -8.72938214
Si      16.31766055       4.97005232       5.83541008       1.02142088      -0.11742099      -1.75823098       0.21380774       0.99198039       0.46879381      -8.67670023
Si      18.26217970       6.23048795       8.99387647      -0.75599118      -1.27179661       0.00188933       0.37564609      -0.53910420       1.19615166      -8.54867428
Si      16.34348271       7.38589004       2.86085214       0.13983324      -2.38223410      -1.31128910       0.18452527      -0.69677738      -1.24981523      -8.65684829
Si      18.18743853       8.19440769       5.81702826      -1.43610106      -0.64203943      -0.53489861       0.98385090       0.99184692       0.50596767      -8.67718500
Si      20.21472067       9.38378472       9.06760815       0.45340729       0.24646386       0.32454910       0.04981799       0.14983964      -0.55074358      -8.74281870
Si      18.33570833      10.60436231       2.77496257      -0.04621413      -0.53869974       0.01887182      -0.58043836      -0.29369503      -0.62264022      -8.51719300
Si      20.27023542      11.58651922       6.06918772      -1.10878309       0.60271255       1.29462460       0.07792210       0.09842356      -0.99389134      -8.64056383
Si      22.13021590      12.68569132       9.01215064       0.39374786      -0.05196520      -1.49407811       0.82332430       0.13359647       0.60044063      -8.54541274
Si       2.89078146       1.66589744       3.61881963       0.21240900       0.85120076      -0.93650529       0.36801972       0.54278855       0.40331245      -8.72019714
Si       4.91181689       2.84449856       6.72176775      -0.47242608      -0.62811400      -0.52988131      -1.22463246      -0.38207984      -0.20490886      -8.74436252
Si       2.92167411       3.87497044       0.49321150      -0.58284105       1.41933247       0.56390893       0.13285426      -0.33021279      -0.17976284      -8.70070334
Si       4.85405381       5.10516148       3.48590911      -0.23846268       1.12747429       0.79044770      -0.47459768      -0.30753220       0.27286422      -8.73609525
Si       6.76166059       6.05376912       6.71322929      -1.71652663      -0.95201279      -0.64989639      -0.45600176      -0.60167642      -1.01624118      -8.70388225
Si       4.87450781       7.10818180       0.39324703      -0.47127925      -0.15814095      -0.83790040      -0.14075455       0.49738376       0.64315517      -8.66699081
Si       6.85007721       8.30954150       3.46607404       0.71117596      -0.67662196       0.12200551      -1.49310214       1.11788879       0.59631489      -8.69730109
Si       8.67361293       9.27337995       6.65108052       0.98706468       0.72489675       0.60117388      -0.66409857       0.60295370       0.48802237      -8.67982867
Si       4.76519061       0.56544130       0.37026643      -0.32393889      -0.77391295       1.26088055      -0.04454871       0.18902293      -0.14283473      -8.77003940
Si       6.64052782       1.66634765       3.60253209       1.73113997      -1.52172919       0.02298338       0.09118651      -0.02165140      -0.33649725      -8.70272256
Si       8.75884221       2.77270069       6.59692482       0.15440690      -0.14553749       1.01345234      -0.45996203      -0.18478006       0.74496976      -8.72453647
Si       6.82280451       3.73982963       0.37695317       0.46199415       0.24812894      -0.94589066      -0.25058348       0.97718948       0.07418961      -8.75707785
Si       8.53920635       5.06030688       3.54216985       0.17246094      -0.25682932       1.18734298       0.34722678      -0.70707395      -0.29725669      -8.71385586
Si      10.54439912       6.16684591       6.57942149      -0.83900755       0.03745830       0.17537941       0.63533625      -0.17157383       0.91385265      -8.71408735
Si       8.60912280       7.23652205       0.41593017      -1.35926079       0.44352655      -0.08447657       0.35015129       0.14792810      -1.04641439      -8.70359104
Si      10.62010864       8.22656552       3.43442955      -0.73787658       0.22016968      -0.52252592      -0.10584832       0.84482355       0.54667895      -8.64428465
Si      12.49936799       9.54985337       6.72070849       0.01248258       0.93371624       1.72331996      -0.11667268      -0.13047199      -0.05093213      -8.74328624
Si       8.67481247       0.42798184       0.35960792       0.00690242       0.04057532       0.31379607      -0.46701406       1.10736595       0.21272917      -8.68423107
Si      10.48963767       1.64625715       3.42936727       0.31319908       0.10146916      -0.74873700       0.77906017      -0.09044607       0.85589357      -8.71696972
Si      12.56438707       2.82742404       6.60638280       0.90420395       0.85168050       0.86340170      -0.51124262      -0.74596462       0.41210890      -8.73421158
Si      10.55673319       3.92740665       0.50504418      -0.42002295      -0.29030447      -1.72721224       0.35171034      -0.25538434      -0.25538847      -8.75231591
Si      12.51445206       5.04961901       3.51611137       1.05525471       0.94197247       0.32527710      -0.72484910      -0.54779010       0.43207806      -8.70894223
Si      14.36217649       6.15333421       6.67756312      -0.09352659       1.11303471      -0.06297183       0.55878756      -0.22890317       0.11055793      -8.68623796
Si      12.53597172       7.21821529       0.41457055      -0.02350044      -0.60085207       0.06139376      -0.03312987       0.10674809      -0.86942261      -8.74065574
Si      14.40825012       8.49542798       3.60983972       0.28671585      -0.73617009      -0.44355527      -0.09962253      -1.12596890       0.09017069      -8.72719102
Si      16.36414728       9.43443100       6.73756214       1.19061603      -0.23783991       0.07924623      -0.20173881      -0.37357071      -0.40392720      -8.74114302
P        1.00633099       0.61149085       0.33156933      -0.08231038      -0.41317756      -0.58995276      -1.01421337       0.17944903       0.59419989      -9.73884985
54
Lattice="11.5478352 0.0 0.0 5.773917198490155 10.000722372470358 0.0 5.773916394327279 3.333571176804646 9.428767828939895" Properties=species:S:1:pos:R:3:momenta:R:3:forces:R:3:energies:R:1 spacegroup="_JSON {\"number\": 1, \"setting\": 1}" unit_cell=conventional occupancy="_JSON {\"0\": {\"Si\": 1.0}, \"1\": {\"Si\": 1.0}, \"2\": {\"Si\": 1.0}, \"3\": {\"Si\": 1.0}, \"4\": {\"Si\": 1.0}, \"5\": {\"Si\": 1.0}, \"6\": {\"Si\": 1.0}, \"7\": {\"Si\": 1.0}, \"8\": {\"Si\": 1.0}, \"9\": {\"Si\": 1.0}, \"10\": {\"Si\": 1.0}, \"11\": {\"Si\": 1.0}, \"12\": {\"Si\": 1.0}, \"13\": {\"Si\": 1.0}, \"14\": {\"Si\": 1.0}, \"15\": {\"Si\": 1.0}, \"16\": {\"Si\": 1.0}, \"17\": {\"Si\": 1.0}, \"18\": {\"Si\": 1.0}, \"19\": {\"Si\": 1.0}, \"20\": {\"Si\": 1.0}, \"21\": {\"Si\": 1.0}, \"22\": {\"Si\": 1.0}, \"23\": {\"Si\": 1.0}, \"24\": {\"Si\": 1.0}, \"25\": {\"Si\": 1.0}, \"26\": {\"Si\": 1.0}, \"27\": {\"Si\": 1.0}, \"28\": {\"Si\": 1.0}, \"29\": {\"Si\": 1.0}, \"30\": {\"Si\": 1.0}, \"31\": {\"Si\": 1.0}, \"32\": {\"Si\": 1.0}, \"33\": {\"Si\": 1.0}, \"34\": {\"Si\": 1.0}, \"35\": {\"Si\": 1.0}, \"36\": {\"Si\": 1.0}, \"37\": {\"Si\": 1.0}, \"38\": {\"Si\": 1.0}, \"39\": {\"Si\": 1.0}, \"40\": {\"Si\": 1.0}, \"41\": {\"Si\": 1.0}, \"42\": {\"Si\": 1.0}, \"43\": {\"Si\": 1.0}, \"44\": {\"Si\": 1.0}, \"45\": {\"Si\": 1.0}, \"46\": {\"Si\": 1.0}, \"47\": {\"Si\": 1.0}, \"48\": {\"Si\": 1.0}, \"49\": {\"Si\": 1.0}, \"50\": {\"Si\": 1.0}, \"51\": {\"Si\": 1.0}, \"52\": {\"Si\": 1.0}, \"53\": {\"P\": 1.0}}" energy=-470.8105033407917 stress="0.00017365654273949056 0.0003623118259620907 0.0009003076952637009 0.0003623118259620907 -0.0014622077873132204 0.0009571033201544822 0.0009003076952637009 0.0009571033201544822 -0.0017259952750372108" free_energy=-470.8105033407917 pbc="T T T"
Si       6.63325856       3.89700635       2.69281140      -0.95577186       0.68882023       0.05131391       0.76429680      -0.46953817       0.52774614      -8.65421610
Si       8.63621329       4.99573121       5.86951518      -1.77140130       1.25644517       0.68994364       0.00687853      -0.04532169       0.54524965      -8.75744677
Si      10.65393415       6.08600493       9.00620306      -0.97440596      -0.31793115       0.00704013      -1.08217449       0.28038518       0.03908458      -8.66178410
Si       8.68583269       7.19746060       2.68766557       1.74171006      -0.68868089       0.52060391      -0.03342570      -0.37542637       0.33467123      -8.78174098
Si      10.60068080       8.37454831       5.90164749      -1.25472423      -0.33162167       0.00576857       0.62071660      -0.01633368      -0.87742480      -8.70233394
Si      12.59022464       9.29612297       9.03324829      -0.66294297      -0.50562613       0.87021484      -0.84033937       0.80723306       0.58819131      -8.72257625
Si      10.49165737      10.57022280       2.69783819       0.11823833       0.42217957       0.80860793       0.89318712      -0.55071584       1.20217111      -8.71407474
Si      12.55839049      11.73853395       5.99032712       0.70964080      -0.58144215      -0.41249437      -0.12357297      -0.20041311      -0.77481453      -8.74597306
Si      14.42863013      12.80993034       9.05076451       1.25279091      -0.57038433       0.65036060      -0.54794338      -0.09205811      -0.48279776      -8.59029801
Si      10.58797569       3.88924725       2.81591041       2.14334601       0.56653172      -0.87244877      -0.27990587       0.69992344      -0.45493813      -8.69162543
Si      12.47566391       4.98348152       5.87164717       0.43932659      -0.00069652       0.13871631       0.06867864       1.20823362       0.09302298      -8.73511364
Si      14.48767587       6.07477255       9.04448897      -0.70537849      -1.26483071      -1.09164448       0.29241212      -0.73215776      -0.42668205      -8.75083912
Si      12.67362484       7.27564125       2.71088235       0.37363368       1.49371349       0.34893187      -1.52442265      -0.27077389       0.12994980      -8.74344811
Si      14.41283516       8.42579233       5.91256661       1.55537113       0.28445975      -0.76031905      -0.15918927       0.08214480       0.45547946      -8.73291879
Si      16.39592382       9.41760142       9.03825669       0.45955370       0.19463999      -0.77528834      -0.54839047       0.54784383       0.45954941      -8.70063465
Si      14.34686879      10.62024279       2.75628848       0.31248593       0.08141920      -0.01290873       0.73233594      -0.78950851      -0.65721313      -8.76946335
Si      16.42120805      11.65220543       5.94521026       1.02771875       0.61771510       1.18873340       0.45994928      -0.24545507      -1.06144970      -8.64526427
Si      18.11128641      12.85299814       8.93513818      -0.78116176       0.51834306      -0.25846535       1.66754591      -1.22285858       1.09171061      -8.61490881
Si      14.43415058       3.90136351       2.89629928       0.63898875      -0.80806994      -0.17855657       0.24451932       0.67919844      -0.80768919      -8.73134796
Si      16.36287842       4.99406788       5.77858350       0.36170856       0.79958560      -0.17187815      -1.13914225       0.09428444       1.37683921      -8.66556479
Si      18.24020491       6.14963150       9.02956637      -0.05267422      -1.67814438       1.07706886       0.49695666      -0.01324522       0.12751347      -8.56329304
Si      16.35826400       7.26025396       2.75195097       0.40082471      -1.94993651      -2.62257890       0.10955783       1.06888666      -0.37811760      -8.69276872
Si      18.16174811       8.19679785       5.81227514       0.58362217       0.63735833       0.40315692       1.50297384       0.63673397       0.70364288      -8.64877886
Si      20.23445350       9.40428753       9.06221030       0.19651773       0.54450275      -0.49187004      -0.34954698       0.18363533      -0.39671429      -8.78631915
Si      18.31489055      10.56860904       2.75268224      -0.63234580      -0.71606439      -0.81325869      -0.14320480       0.11607822      -0.41290960      -8.54104674
Si      20.22305160      11.61623131       6.09041694      -0.61454355       0.43180111      -0.57553589       0.36630149      -0.28391640      -1.36772349      -8.64595492
Si      22.17339500      12.69087769       8.96639898       1.02920293       0.31511911      -0.14645486      -0.04685065       0.38062003       0.99817086      -8.54972355
Si       2.90610546       1.71929906       3.59417099       0.17746995       0.89161555       0.09340175      -0.37956841      -0.58926383       0.79625727      -8.69291410
Si       4.84792855       2.80505239       6.67902802      -1.70339760      -0.73434136      -1.18005291      -0.21987771       0.17743182      -0.49632766      -8.74030335
Si       2.89944338       3.92367002       0.51347993      -0.22570115       0.25633627       0.16204390       0.28750427      -1.04461023      -0.37488183      -8.64850983
Si       4.82292876       5.13499143       3.52450877      -0.92110517      -0.25751497       0.45384210      -0.37041956      -1.33222854      -0.60913289      -8.74415577
Si       6.66579634       5.99243505       6.65248761      -1.68048250      -1.08518875      -1.32541796       0.56471662       0.57384275       0.29730742      -8.73936359
Si       4.85387788       7.11627137       0.37166538      -0.16216760       0.40329546      -0.08541549       0.45274857       0.25871726       0.24337392      -8.70277103
Si       6.83011550       8.30954917       3.48760732      -1.29272417       0.42850942       0.49615001      -0.84933214       0.18095880      -0.17461121      -8.72750622
Si       8.68329752       9.32926622       6.69873066      -0.78674056       1.28815588       1.10741518      -1.33042068       0.12809199       0.04960316      -8.67933759
Si       4.74508831       0.54537498       0.42417181      -0.43063368       0.19594331       0.72205901       0.00542049       0.92496716      -0.42679897      -8.76090147
Si       6.71591672       1.60421639       3.59339197       0.82292972      -0.54494802      -0.30585226      -1.13504833       1.16163318      -0.09473922      -8.65316646
Si       8.74896212       2.76866661       6.67581664      -0.48216578       0.17678223       1.86845159      -0.27801173       0.52791871       0.25339399      -8.73339689
Si       6.83003202       3.78402243       0.33895000      -0.29353880       1.20391383      -0.36796959      -0.66354366       0.06623857       0.61028202      -8.76996814
Si       8.56307527       5.01921964       3.57784889       0.76089369      -1.27440191      -0.02337128       0.44375731      -0.57745066      -1.05998984      -8.70348623
Si      10.52754269       6.15607303       6.62102569       0.17037013      -0.51870676       1.29326366       0.54785794      -0.44323881       0.45597066      -8.73494700
Si       8.56509125       7.25680705       0.37683074      -0.12115134       0.16255830      -1.18430747       1.14753069      -0.51727753      -0.20787939      -8.66049897
Si      10.58856424       8.27215707       3.43240753      -0.26453499       1.49485527       0.50040047       0.67001924       0.75201223       0.77132942      -8.63815010
Si      12.49888014       9.57828449       6.78967088       0.01659955      -0.10306050       0.60417001       0.07226745      -1.12550004      -1.22995140      -8.69431117
Si       8.65455379       0.46746229       0.37953888      -0.76206672       1.28735102       0.34878849      -0.41100821       0.41775129      -0.16069276      -8.63980588
Si      10.53530697       1.64788299       3.43427233       1.34421886       0.00064176       1.03452659       0.46547236       0.06811828       1.26929887      -8.69523372
Si      12.58297069       2.84117484       6.66175151      -0.28661790      -0.28331301       1.10334427      -0.86817940      -0.57708664      -0.15395615      -8.77837856
Si      10.54803823       3.90182624       0.41781234       0.05203598      -0.67595563      -1.39327149       0.21958726      -0.21971888       0.55676875      -8.75775925
Si      12.54296373       5.07716755       3.54572786       0.12849908       0.14985963       0.68080073      -0.36960427      -0.39202635      -0.04088477      -8.72846597
Si      14.37942077       6.19358899       6.67366101       0.73200198       0.29951819      -0.18263639       0.49198800      -0.71229856      -0.26804103      -8.65105254
Si      12.53416839       7.20244711       0.38339352      -0.02240886       0.17489580      -1.15137890       0.05089261       0.80721597      -0.50628833      -8.68787865
Si      14.43139481       8.42722511       3.58629471       0.83410727      -1.55297103      -0.53356497       0.81925468       0.06441459      -0.21231235      -8.72696724
Si      16.41230920       9.41401809       6.72253034       0.56695196      -0.38774484      -0.67534811      -0.51736314       0.21660603      -0.49185438      -8.78096113
P        0.97324007       0.59414655       0.32603630      -1.10997196      -0.43529050       0.36317036      -0.25484144      -0.27269722       0.63023826      -9.80085460
54
Lattice="11.5478352 0.0 0.0 5.773917198490155 10.000722372470358 0.0 5.773916394327279 3.333571176804646 9.428767828939895" Properties=species:S:1:pos:R:3:momenta:R:3:forces:R:3:energies:R:1 spacegroup="_JSON {\"number\": 1, \"setting\": 1}" unit_cell=conventional occupancy="_JSON {\"0\": {\"Si\": 1.0}, \"1\": {\"Si\": 1.0}, \"2\": {\"Si\": 1.0}, \"3\": {\"Si\": 1.0}, \"4\": {\"Si\": 1.0}, \"5\": {\"Si\": 1.0}, \"6\": {\"Si\": 1.0}, \"7\": {\"Si\": 1.0}, \"8\": {\"Si\": 1.0}, \"9\": {\"Si\": 1.0}, \"10\": {\"Si\": 1.0}, \"11\": {\"Si\": 1.0}, \"12\": {\"Si\": 1.0}, \"13\": {\"Si\": 1.0}, \"14\": {\"Si\": 1.0}, \"15\": {\"Si\": 1.0}, \"16\": {\"Si\": 1.0}, \"17\": {\"Si\": 1.0}, \"18\": {\"Si\": 1.0}, \"19\": {\"Si\": 1.0}, \"20\": {\"Si\": 1.0}, \"21\": {\"Si\": 1.0}, \"22\": {\"Si\": 1.0}, \"23\": {\"Si\": 1.0}, \"24\": {\"Si\": 1.0}, \"25\": {\"Si\": 1.0}, \"26\": {\"Si\": 1.0}, \"27\": {\"Si\": 1.0}, \"28\": {\"Si\": 1.0}, \"29\": {\"Si\": 1.0}, \"30\": {\"Si\": 1.0}, \"31\": {\"Si\": 1.0}, \"32\": {\"Si\": 1.0}, \"33\": {\"Si\": 1.0}, \"34\": {\"Si\": 1.0}, \"35\": {\"Si\": 1.0}, \"36\": {\"Si\": 1.0}, \"37\": {\"Si\": 1.0}, \"38\": {\"Si\": 1.0}, \"39\": {\"Si\": 1.0}, \"40\": {\"Si\": 1.0}, \"41\": {\"Si\": 1.0}, \"42\": {\"Si\": 1.0}, \"43\": {\"Si\": 1.0}, \"44\": {\"Si\": 1.0}, \"45\": {\"Si\": 1.0}, \"46\": {\"Si\": 1.0}, \"47\": {\"Si\": 1.0}, \"48\": {\"Si\": 1.0}, \"49\": {\"Si\": 1.0}, \"50\": {\"Si\": 1.0}, \"51\": {\"Si\": 1.0}, \"52\": {\"Si\": 1.0}, \"53\": {\"P\": 1.0}}" energy=-471.4023055853213 stress="0.0005181535702378693 -0.0027314339141980126 -0.00138851064082789 -0.0027314339141980126 -0.0001762528956323357 0.00029751621747310734 -0.00138851064082789 0.00029751621747310734 -0.002296810619368416" free_energy=-471.4023055853213 pbc="T T T"
Si       6.61811715       3.90981893       2.71321727       0.42440414      -0.25771124       0.65146047       0.95568944      -0.69575084       0.23898528      -8.68325663
Si       8.55998491       5.04697372       5.91749117      -0.83291213       0.48282287       0.91103649       1.18136568      -0.88787059      -0.32356076      -8.71974769
Si      10.57201748       6.08583151       9.01506515      -1.89489149       0.39318342       0.44279558      -0.08858754       0.59503664       0.46440461      -8.72622321
Si       8.75856453       7.15555126       2.72137424       0.80489881      -0.73110496       0.65309469      -0.94056417       0.31883827      -0.09766145      -8.69951997
Si      10.55933680       8.35960897       5.87923505      -0.38386780      -0.20436050      -0.58992759       0.40796272       0.11255061       0.17003191      -8.70536220
Si      12.52994532       9.31137651       9.08793085      -1.43053858       1.17726594       0.92480827      -0.03063704       1.13020156      -0.53210288      -8.74756075
Si      10.52844992      10.57712602       2.77906383       1.13493902       0.01581794       2.05330672       0.31815776       0.12556225       0.29979192      -8.76087029
Si      12.58225363      11.70453085       5.94578548       0.08789534      -0.64936414      -1.12522567      -0.56705293       0.05834855      -0.15057864      -8.74652119
Si      14.46234140      12.78157349       9.07047973      -0.07181856      -0.43287070       0.23793022      -0.97017039       0.21253962       0.04486239      -8.56995535
Si      10.67858372       3.93185254       2.75666211       1.14817817       0.75936892      -1.27623701      -0.92031587      -0.45202271      -0.02518726      -8.72153586
Si      12.49985332       5.02156588       5.88695048       0.45766152       1.20971824       0.50962962      -0.03459327       0.28701503       0.33427185      -8.74040653
Si      14.45984631       6.00132673       8.97999057      -0.42549378      -1.10448415      -1.20027388       0.03418097       0.93452999       0.22586510      -8.76372287
Si      12.63134321       7.33362523       2.72753666      -1.86382079       0.61515892       0.20458880      -1.05965964      -0.68706898      -0.19580440      -8.70762491
Si      14.47847688       8.43972121       5.89143435       0.81159161       0.13255789      -0.09614858      -0.69665430      -0.35869612       0.26421065      -8.72577394
Si      16.39690670       9.44149455       9.01187914      -0.39225058       0.55948459      -0.33788811      -0.42715545      -0.06351161       0.05197411      -8.72017790
Si      14.39559218      10.59551956       2.73824128       1.50812474      -0.88993049      -0.46437525       0.62068598      -0.28930424       0.14918392      -8.75858300
Si      16.47675654      11.67293864       5.96759294       0.75402383       0.15191397      -0.25184496      -0.84046269      -0.32512231      -0.73930932      -8.68191428
Si      18.13157985      12.83730795       8.96908667       1.38664454      -0.93848129       1.54277964       1.03316170      -0.53061316       1.04404363      -8.68407435
Si      14.46596593       3.89178169       2.85883360       0.34767495       0.40150923      -1.15570722      -0.64872508       0.53208888      -0.44845056      -8.75041293
Si      16.32582420       5.02552604       5.81328566      -1.83166299       0.19005036       1.21282828      -1.31211518      -0.72434518       0.31495456      -8.71156550
Si      18.25417464       6.06839997       9.07714572       0.51910098      -1.30090038       0.52959655       0.24166175       0.44841576      -0.69575593      -8.52751835
Si      16.38104002       7.20246610       2.62257153       0.42567574      -0.34568856      -1.85078628      -0.05415592       0.74914280       1.39103302      -8.71214953
Si      18.24179038       8.24717206       5.85744914       2.19778520       1.13917856       1.20217561       0.44028724       0.06434260       0.23899992      -8.71533865
Si      20.23034551       9.43599334       9.03176800      -0.33804465       0.57707568      -0.44719717      -0.30042730      -0.15267207       0.44976058      -8.75964693
Si      18.28294606      10.54074939       2.70233961      -0.47781464      -0.28448444      -0.91337720       0.28077875       0.35860484       0.35211624      -8.55094973
Si      20.19650799      11.62669926       6.01334213      -0.59503331      -0.02311596      -2.16851788      -0.37591359      -0.24812554      -0.59886378      -8.72797366
Si      22.21148411      12.72288075       8.98837922       0.16413585       0.88535152       0.75308602      -1.06643283       0.30854338       0.11458748      -8.50085844
Si       2.89705230       1.73202657       3.62279354      -0.53988646      -0.50535601       0.77037401      -0.45984656      -0.98403843      -0.10354926      -8.68928795
Si       4.77023088       2.77736099       6.60774451      -0.92117301      -0.27873484      -1.30536140       1.08749698       0.33940676       0.38809663      -8.70044498
Si       2.89656836       3.90026575       0.50414167       0.03736640      -1.00271500      -0.57226134      -0.02815435      -0.48448483      -0.58031551      -8.67824326
Si       4.76797087       5.07745574       3.52383283      -0.97804399      -1.66150568      -0.41562963       0.40528654      -0.29673543      -0.37276907      -8.74850099
Si       6.61167216       5.97450750       6.61372601      -0.26564055       0.62623582       0.11866521       1.00226814       1.43658394       1.34995199      -8.67671035
Si       4.86154195       7.14584748       0.36456715       0.35543557       0.72499533      -0.42800688       0.06697260       0.26815748      -0.68248230      -8.73787015
Si       6.74834144       8.32496252       3.49910852      -1.48316348      -0.04914676      -0.13698438       0.50098598      -0.63968928      -0.49123850      -8.69763907
Si       8.60557523       9.39347071       6.74472005      -1.79200397       1.03139161       0.38453572       0.15826283      -0.35680438      -0.94618916      -8.74740160
Si       4.72813312       0.58712513       0.45007586      -0.11927390       1.22400012       0.38831725       0.37482509       0.26306990       0.04301657      -8.74752352
Si       6.71894807       1.62143240       3.57440253      -0.47348713       1.11289031      -0.43177973      -0.25482667       0.83917012      -0.13099592      -8.71726273
Si       8.71887311       2.79878806       6.76830112      -0.57746453       0.91960875       1.34888327       0.05776937       0.33338216      -0.94962308      -8.70433261
Si       6.79124969       3.83044821       0.34409046      -1.11389259       0.28180116       0.53490057      -0.40173116      -1.01214684       0.50057387      -8.71916552
Si       8.61952100       4.93765429       3.54364114       1.36020774      -1.66449135      -1.04914544       0.32160890       0.09287155      -0.18292570      -8.71495225
Si      10.54882136       6.11750788       6.69321913       0.45721216      -0.79938423       1.20155032      -0.16499756       0.14131467      -0.54148907      -8.74427655
Si       8.60249323       7.23948659       0.32311911       1.45634800      -0.88324100      -0.59007675       0.79424810      -0.74690351       0.87122197      -8.68490527
Si      10.60133224       8.36777068       3.48605122       0.67640970       1.85676217       1.45765007       0.38923800      -0.39372653       0.43402322      -8.76013022
Si      12.50233496       9.52825395       6.77413792       0.09890151      -1.73723642      -1.10240698       0.00988316      -0.87298437      -0.88745218      -8.69053128
Si       8.60745756       0.53463057       0.38941741      -0.83904708       0.95867053       0.02269828       0.35264586      -0.80173670      -0.18295538      -8.66620362
Si      10.61359954       1.65685823       3.52693013       1.45162582       0.45121137       2.21113163      -0.27278230       0.48901190       0.14493174      -8.71094407
Si      12.54409117       2.81607227       6.70563909      -0.94358543      -0.42638542       0.47754930       0.09686013       0.37954166      -0.50377270      -8.76908148
Si      10.55598837       3.86140169       0.36865063       0.19789841      -0.79166482      -0.49070342       0.01220430       0.06539564       0.52981369      -8.73050552
Si      12.54351682       5.07746651       3.57187155       0.02217291       0.01794904       0.19267955       0.13097531       0.21362157      -0.52252298      -8.74105828
Si      14.43140097       6.18521500       6.65155572       1.10728848      -0.49066716      -0.66001060      -0.08345928      -0.21188173      -0.26083331      -8.70772817
Si      12.53492229       7.24217752       0.31851145       0.02285961       1.24218980      -1.02717482      -0.06299214       0.41522299       0.65362181      -8.72055726
Si      14.50759333       8.35872665       3.54797172       1.94392962      -0.95091177      -0.95752186       0.32466861       0.50765862      -0.32585857      -8.72958661
Si      16.42491282       9.40884560       6.67487081       0.01277558       0.28164756      -0.98536109      -0.13765304       0.57519656       0.10846577      -8.78068631
P        0.92293672       0.56027398       0.36261950      -0.78835452      -1.01587438       1.09187895       0.59993434      -0.37913088       0.29945325      -9.86753137
54
Lattice="11.5478352 0.0 0.0 5.773917198490155 10.000722372470358 0.0 5.773916394327279 3.333571176804646 9.428767828939895" Properties=species:S:1:pos:R:3:momenta:R:3:forces:R:3:energies:R:1 spacegroup="_JSON {\"number\": 1, \"setting\": 1}" unit_cell=conventional occupancy="_JSON {\"0\": {\"Si\": 1.0}, \"1\": {\"Si\": 1.0}, \"2\": {\"Si\": 1.0}, \"3\": {\"Si\": 1.0}, \"4\": {\"Si\": 1.0}, \"5\": {\"Si\": 1.0}, \"6\": {\"Si\": 1.0}, \"7\": {\"Si\": 1.0}, \"8\": {\"Si\": 1.0}, \"9\": {\"Si\": 1.0}, \"10\": {\"Si\": 1.0}, \"11\": {\"Si\": 1.0}, \"12\": {\"Si\": 1.0}, \"13\": {\"Si\": 1.0}, \"14\": {\"Si\": 1.0}, \"15\": {\"Si\": 1.0}, \"16\": {\"Si\": 1.0}, \"17\": {\"Si\": 1.0}, \"18\": {\"Si\": 1.0}, \"19\": {\"Si\": 1.0}, \"20\": {\"Si\": 1.0}, \"21\": {\"Si\": 1.0}, \"22\": {\"Si\": 1.0}, \"23\": {\"Si\": 1.0}, \"24\": {\"Si\": 1.0}, \"25\": {\"Si\": 1.0}, \"26\": {\"Si\": 1.0}, \"27\": {\"Si\": 1.0}, \"28\": {\"Si\": 1.0}, \"29\": {\"Si\": 1.0}, \"30\": {\"Si\": 1.0}, \"31\": {\"Si\": 1.0}, \"32\": {\"Si\": 1.0}, \"33\": {\"Si\": 1.0}, \"34\": {\"Si\": 1.0}, \"35\": {\"Si\": 1.0}, \"36\": {\"Si\": 1.0}, \"37\": {\"Si\": 1.0}, \"38\": {\"Si\": 1.0}, \"39\": {\"Si\": 1.0}, \"40\": {\"Si\": 1.0}, \"41\": {\"Si\": 1.0}, \"42\": {\"Si\": 1.0}, \"43\": {\"Si\": 1.0}, \"44\": {\"Si\": 1.0}, \"45\": {\"Si\": 1.0}, \"46\": {\"Si\": 1.0}, \"47\": {\"Si\": 1.0}, \"48\": {\"Si\": 1.0}, \"49\": {\"Si\": 1.0}, \"50\": {\"Si\": 1.0}, \"51\": {\"Si\": 1.0}, \"52\": {\"Si\": 1.0}, \"53\": {\"P\": 1.0}}" energy=-471.0254622688425 stress="-0.001668842239809306 -0.0004808220274835112 -0.0004894409371473435 -0.0004808220274835112 -0.0006838842867971217 -0.0006717218676739953 -0.0004894409371473435 -0.0006717218676739953 -0.0010009527373409345" free_energy=-471.0254622688425 pbc="T T T"
Si       6.67180497       3.87529273       2.75083683       1.48955364      -0.87602834       0.66861505       0.44947122       0.02166867      -0.21296140      -8.75846928
Si       8.56554072       5.03736193       5.94322507       0.98196707      -0.75889046      -0.05491183       0.95536773      -0.54028785      -0.82767095      -8.71813436
Si      10.48592816       6.12506953       9.05225990      -1.07765070       0.95005388       0.83042180       1.12124063       0.00316645      -0.08427224      -8.76790099
Si       8.76647171       7.13555158       2.74998238      -0.40770536       0.02967484       0.42899432      -0.58022571       0.56304128      -0.13532496      -8.62902679
Si      10.54874838       8.35052436       5.86858375      -0.13737524      -0.21301631       0.39199195      -0.05408853      -0.15846746       0.98734265      -8.68658577
Si      12.47246711       9.39788370       9.10499615      -0.42153113       1.69050673      -0.42225212       1.26907252      -0.49897770      -1.12200099      -8.72077683
Si      10.58701519      10.59248364       2.88073002       0.87142494       0.68680057       1.52504636      -0.55711217       0.57038954      -0.86370150      -8.73697169
Si      12.56778428      11.67377233       5.88957144      -0.54608707      -0.51988679      -0.88031101      -0.21288501       0.07322214       0.39284652      -8.71431472
Si      14.42958006      12.76661201       9.09244278      -0.96109082      -0.17962966       0.68926842      -0.13583515       0.05300526       0.38883271      -8.57612792
Si      10.70460274       3.94444597       2.69753996      -0.05459852      -0.38791206      -0.82038107      -0.53637513      -0.88878623       0.58742260      -8.74367122
Si      12.52069452       5.08212572       5.92249222       0.29385057       0.87637600       0.72461569      -0.21111526      -0.59046009      -0.12952793      -8.73138519
Si      14.43547502       5.99071642       8.93172042      -0.56230142       0.77267244      -0.53575829      -0.20101143       1.24347669       0.64971167      -8.71151533
Si      12.51811009       7.34270493       2.73119523      -1.96724261      -0.19087880      -0.05535893       0.82268082      -0.38984498      -0.15958677      -8.67804540
Si      14.49652634       8.42674873       5.88706156      -0.01056194      -0.70298627      -0.25864457      -0.26855046      -0.64960009      -0.46636127      -8.72183136
Si      16.37176269       9.46103062       8.99040563      -0.30149449       0.05817227      -0.56640931       0.59233156      -0.56766598      -0.28026669      -8.71460168
Si      14.48797593      10.55155489       2.72904269       1.82267167      -0.54047651       0.22732332      -0.12755137       0.67298624       0.60128126      -8.67035394
Si      16.47424918      11.67261172       5.93839723      -0.92244945      -0.02860477      -0.57934451      -1.14321467       0.20894398       0.35313187      -8.71484753
Si      18.22604994      12.78699704       9.07146930       1.85503286      -0.59742685       1.95297816      -0.37197574       0.94025340      -0.51843813      -8.72326600
Si      14.45109968       3.91579962       2.78785969      -0.98067649       0.21126870      -1.42625533      -0.89537891      -0.62649474       0.04404272      -8.73531993
Si      16.21158574       5.00787708       5.87214358      -1.80625908      -0.81887226       0.74181658       1.41194658      -0.55819242      -0.81819113      -8.71977029
Si      18.28571327       6.01901755       9.07746648       0.58186835      -0.59159278      -0.46301663      -0.16117905       0.41896365      -0.49130948      -8.53940242
Si      16.40071097       7.19805541       2.58691326       0.33142171      -0.11221620       0.43010254      -0.02886253      -0.37747759       1.19072760      -8.73987704
Si      18.34772328       8.30131816       5.91556339       1.33749254       0.77369224       0.73000438      -1.50089513      -0.51572604      -0.85542547      -8.70019749
Si      20.20410156       9.45677776       9.02931427      -0.60975673       0.17056212       0.33322883      -0.09715972      -0.32988531       0.38778198      -8.69653535
Si      18.26979200      10.53670462       2.68059073      -0.03496600       0.03988689       0.28851695       0.24112495       0.00705642       1.13864585      -8.54586238
Si      20.14812772      11.62119325       5.89802562      -1.21611798      -0.05802011      -1.80591607      -0.26090349       0.25583683       1.02137455      -8.74665707
Si      22.17378998      12.77648732       9.02039348      -1.59694247       1.07401480       0.28105413      -1.04905373      -0.01730477      -0.62667306      -8.47967291
Si       2.85606706       1.67811584       3.63814292      -0.91084218      -1.30891578      -0.56275768      -0.02572745      -0.05507833      -1.55118097      -8.68797602
Si       4.76430624       2.77105472       6.56357187       0.57850451      -0.09297054      -0.26062357       0.66175468      -0.16128275       0.86661405      -8.68014435
Si       2.88795361       3.84394336       0.45483871      -0.56555412      -0.84746829      -1.19932311      -0.79999562       0.67603630      -0.16843503      -8.69854562
Si       4.74480751       4.99713028       3.49766744       0.26218022      -1.14334710      -0.40707231       1.04139129       0.70288987       0.29644999      -8.70824393
Si       6.62456874       6.05195028       6.66516773       0.53023842       2.00407360       1.60355350       0.15835616       0.20460232       0.43706673      -8.71201105
Si       4.87009017       7.19794901       0.31602613      -0.26338511       1.32308202      -1.28002322      -0.82250026       0.48474136      -0.15353015      -8.74081153
Si       6.70195401       8.29890151       3.47887290      -0.10872059      -0.85895771      -0.48490838       1.20298730      -0.32369395       0.08359726      -8.64718060
Si       8.54249384       9.43681036       6.72913153      -0.17931271       0.73682236      -0.83374641       1.84429720       0.06320859      -0.41382239      -8.72897358
Si       4.73680452       0.64581197       0.47784926       0.42718258       0.74543258       0.75046894       0.29524476      -0.77682737       0.35676813      -8.67494270
Si       6.70507944       1.69728360       3.54790838       0.29120090       1.45837778      -0.51666883       1.10055366      -0.42713046       0.10786598      -8.74454955
Si       8.69008169       2.84979812       6.79362240      -0.55572702       0.80150507      -0.42851317      -0.07375495      -0.54817545      -1.13134332      -8.67993553
Si       6.72248477       3.81454722       0.38446823      -1.40303713      -0.62010466       0.86272798       0.01972236      -0.00578358      -0.04586506      -8.68973302
Si       8.69738729       4.86473235       3.49489893       1.47676490      -0.92335903      -0.59467064      -0.19438331       0.85477285       0.66603562      -8.68977333
Si      10.55994412       6.08943107       6.72933511      -0.11143861      -0.14675554       0.14697144      -0.47438230       0.62982571      -0.66817474      -8.71662922
Si       8.69320010       7.17306423       0.33074240       1.64714864      -1.41885503       0.91456191      -0.58040758       0.13647962       1.01845834      -8.73628822
Si      10.63962104       8.43378722       3.56983006       0.54689818       0.44740583       1.55032967      -0.53355454      -1.21945099      -0.29344909      -8.77120893
Si      12.50600467       9.41840794       6.69454894       0.01161508      -2.13352922      -1.68043174      -0.09672263       0.36036287       0.09274899      -8.71302550
Si       8.58791072       0.54939491       0.38761757       0.27749290      -0.33778339      -0.00564430       1.07330453      -0.58152853       0.15011626      -8.73132891
Si      10.67303754       1.69865205       3.62567295       0.73485431       1.08275742       1.13471672      -0.59513623       0.26409516      -1.48310254      -8.68334110
Si      12.50974064       2.81519128       6.71717770      -0.23702317       0.44618895       0.10249080       0.60264897       0.59896705       0.02190985      -8.71761380
Si      10.56617600       3.82578004       0.35745009       0.18876852      -0.51556259      -0.07056485       0.00244026       0.26886092       0.00934080      -8.69482339
Si      12.54872365       5.09085513       3.56242203       0.10958859       0.52327786      -0.49714281      -0.12033881       0.33626716      -0.31376843      -8.73784349
Si      14.47141701       6.16457127       6.61501907       0.12676311      -0.04141562      -0.54831830      -1.19003621       0.76021276       0.44288066      -8.72998745
Si      12.52915143       7.30440658       0.30140090      -0.32762692       0.72409416       0.53772494      -0.39191440      -1.14630256       1.29503262      -8.73020226
Si      14.59969518       8.32594430       3.48950597       1.14454452      -0.35430870      -1.14113007      -1.31870408       0.29921067       0.17583829      -8.70693542
Si      16.42627582       9.44250390       6.63404816       0.11285495       0.88827294      -0.48680404       0.14295904       0.13837677       0.44139673      -8.76086702
P        0.91002798       0.50444945       0.41708019       0.24559137      -1.19520065       1.01937871       0.60203538       0.14350468      -0.39087857      -9.89142589
54
Lattice="11.5478352 0.0 0.0 5.773917198490155 10.000722372470358 0.0 5.773916394327279 3.333571176804646 9.428767828939895" Properties=species:S:1:pos:R:3:momenta:R:3:forces:R:3:energies:R:1 spacegroup="_JSON {\"number\": 1, \"setting\": 1}" unit_cell=conventional occupancy="_JSON {\"0\": {\"Si\": 1.0}, \"1\": {\"Si\": 1.0}, \"2\": {\"Si\": 1.0}, \"3\": {\"Si\": 1.0}, \"4\": {\"Si\": 1.0}, \"5\": {\"Si\": 1.0}, \"6\": {\"Si\": 1.0}, \"7\": {\"Si\": 1.0}, \"8\": {\"Si\": 1.0}, \"9\": {\"Si\": 1.0}, \"10\": {\"Si\": 1.0}, \"11\": {\"Si\": 1.0}, \"12\": {\"Si\": 1.0}, \"13\": {\"Si\": 1.0}, \"14\": {\"Si\": 1.0}, \"15\": {\"Si\": 1.0}, \"16\": {\"Si\": 1.0}, \"17\": {\"Si\": 1.0}, \"18\": {\"Si\": 1.0}, \"19\": {\"Si\": 1.0}, \"20\": {\"Si\": 1.0}, \"21\": {\"Si\": 1.0}, \"22\": {\"Si\": 1.0}, \"23\": {\"Si\": 1.0}, \"24\": {\"Si\": 1.0}, \"25\": {\"Si\": 1.0}, \"26\": {\"Si\": 1.0}, \"27\": {\"Si\": 1.0}, \"28\": {\"Si\": 1.0}, \"29\": {\"Si\": 1.0}, \"30\": {\"Si\": 1.0}, \"31\": {\"Si\": 1.0}, \"32\": {\"Si\": 1.0}, \"33\": {\"Si\": 1.0}, \"34\": {\"Si\": 1.0}, \"35\": {\"Si\": 1.0}, \"36\": {\"Si\": 1.0}, \"37\": {\"Si\": 1.0}, \"38\": {\"Si\": 1.0}, \"39\": {\"Si\": 1.0}, \"40\": {\"Si\": 1.0}, \"41\": {\"Si\": 1.0}, \"42\": {\"Si\": 1.0}, \"43\": {\"Si\": 1.0}, \"44\": {\"Si\": 1.0}, \"45\": {\"Si\": 1.0}, \"46\": {\"Si\": 1.0}, \"47\": {\"Si\": 1.0}, \"48\": {\"Si\": 1.0}, \"49\": {\"Si\": 1.0}, \"50\": {\"Si\": 1.0}, \"51\": {\"Si\": 1.0}, \"52\": {\"Si\": 1.0}, \"53\": {\"P\": 1.0}}" energy=-471.1751045400612 stress="-0.0019076761276439786 0.0013282149715392005 0.0009522676667324723 0.0013282149715392005 -0.0017612521067156346 0.00036126484169034186 0.0009522676667324723 0.00036126484169034186 0.0013695337515874607" free_energy=-471.1751045400612 pbc="T T T"
Si       6.75952750       3.84525016       2.77263093       1.71986302      -0.03026576       0.09912448      -0.08723326       0.92977722      -0.45363938      -8.75771054
Si       8.63765479       4.99192753       5.91046065       1.44919861      -0.69467545      -1.10116740      -0.28309035       0.52663814      -0.46005728      -8.71842191
Si      10.47649186       6.16292386       9.08363062       0.62331535       0.30526379       0.25654876       0.76230990      -0.73181931      -0.51462735      -8.76098923
Si       8.73270136       7.15404360       2.76979808      -0.66682577       0.54947754       0.39122478       0.25852884       0.07789618       0.11549679      -8.68863819
Si      10.53663824       8.33093628       5.92423298      -0.33448756      -0.54546355       1.57249632      -0.08315120      -0.20155838       0.38224288      -8.74542486
Si      12.49829438       9.45495705       9.04385835       1.22445906       0.38629088      -1.74948896       0.60079767      -0.92435811      -0.51263922      -8.68340999
Si      10.61001444      10.64172468       2.92260522       0.06849639       0.96447631       0.06217989      -0.32516122      -0.29369075      -0.92145285      -8.72778033
Si      12.53761347      11.64777154       5.86116158      -0.49241796      -0.51541697      -0.18063039       0.22234170      -0.09983048       0.49123919      -8.70873472
Si      14.38729555      12.75490969       9.13704314      -0.41795755      -0.34544139       0.85521708       0.78026915      -0.25355899      -0.20384242      -8.55672177
Si      10.69130641       3.89713553       2.67915351      -0.27428180      -1.19187112       0.08290724       0.14899016      -0.00696023       0.44785866      -8.76193558
Si      12.52369326       5.10303155       5.94724151      -0.26310785      -0.05681108       0.08081236      -0.53397222      -0.51505003      -0.67459709      -8.72132500
Si      14.39747897       6.06667668       8.93265451      -0.88039359       1.85375425       0.61318022      -0.17554857       0.20799412       0.81449642      -8.69011196
Si      12.45933817       7.32228939       2.72411985      -0.16348632      -0.48384538      -0.13736721       1.27426043       0.02113393       0.15536584      -8.71187207
Si      14.49413783       8.37134770       5.85103608       0.04477682      -1.21828787      -1.14754386       0.21537775       0.08815916      -0.59993975      -8.72587681
Si      16.38541128       9.44062841       8.95351550       0.82512775      -0.81079168      -0.70391195       0.61286557      -0.47578216       0.25140799      -8.71491062
Si      14.57161522      10.55370776       2.75981678       1.25594981       0.62939339       0.82155804      -0.57378959       0.70188500       0.12539145      -8.65060684
Si      16.39240795      11.68927166       5.93069479      -1.94459948       0.81498030       0.33923894      -0.15545265       0.78567722       0.56993310      -8.74038500
Si      18.29591071      12.79583795       9.14094174       0.64848878       0.82956995       0.57875157      -1.00597881       0.56983752      -0.99662838      -8.70760383
Si      14.37808181       3.90180394       2.72073164      -1.51068742      -0.67899938      -1.03580432       0.21983733      -0.39289370       0.42578370      -8.71914515
Si      16.18771623       4.95432083       5.87756781       0.95768373      -0.94298680      -0.45179091       1.73010892       0.51429526      -0.51692193      -8.66984835
Si      18.30426086       6.00043957       9.04438900       0.02087312      -0.20415084      -0.58752109      -0.57428733       0.07851534       0.32173537      -8.54684209
Si      16.41775428       7.17232395       2.63561084       0.31476014      -0.86555094       1.07261687      -0.04955575      -0.36967080      -0.17929868      -8.75915319
Si      18.35504287       8.32307234       5.91561566      -0.91756666       0.17588248      -0.71255720      -0.99791657      -0.07750752      -0.81878965      -8.71999055
Si      20.16975727       9.45489440       9.05290280      -0.68021526      -0.17471877       0.39701418      -0.01688337      -0.06422749      -0.27065531      -8.68645110
Si      18.27278734      10.53166991       2.73530803       0.04124703      -0.37966420       1.59615201      -0.18028532      -0.57398047       0.37304949      -8.56516694
Si      20.08502417      11.63483250       5.84855719      -0.97058294       0.67545676      -0.14824637       0.59872057       0.63281291       0.80114977      -8.72301172
Si      22.06743049      12.82861237       9.00805725      -2.03265716       0.83619637      -0.77663673       0.60875372      -0.33595101      -0.73846820      -8.52948892
Si       2.81382570       1.62029558       3.55234051      -0.57741973      -0.66021788      -2.43892735       0.45964004       0.88099482      -0.54048829      -8.72569617
Si       4.80517752       2.75451621       6.58140511       0.69799793      -0.59154968       0.85295607      -0.43891323      -0.36965593       0.52309062      -8.69183302
Si       2.82634319       3.83420303       0.39310906      -1.66330407       0.54009802      -1.04586918      -0.33130045       0.93659800       0.26056025      -8.72569332
Si       4.79059385       4.96020740       3.48861696       1.25941445      -0.42264922       0.02877307       0.19781239       0.11270766       0.18361172      -8.72168293
Si       6.65576396       6.14296236       6.74520867       0.63836432       1.09674652       1.04355206       0.05791229      -1.24419306      -1.15217487      -8.64401747
Si       4.82684767       7.27783656       0.25862860      -1.22133763       1.48149205      -0.65965021      -0.21506108      -0.44286933       0.82649145      -8.73653673
Si       6.73975443       8.24971889       3.46447196       1.38427039      -0.87135731       0.05641234       0.55484691       0.24381447       0.56166827      -8.68884300
Si       8.60266572       9.47853455       6.68291800       2.19989595       0.78254413      -0.72160658       0.80665989      -0.18474928       0.40833450      -8.75288192
Si       4.76666431       0.65235490       0.52792335       0.63327958      -0.46505020       1.05715678      -0.00946888      -0.67846528      -0.04056990      -8.65142701
Si       6.76499699       1.74020316       3.53081771       1.92974173      -0.07143404      -0.05250344       0.87265618      -1.38158984       0.42080456      -8.70820278
Si       8.65601835       2.85924112       6.74177347      -0.78234058      -0.59459643      -1.23074017      -0.23363821      -1.13178826       0.09003820      -8.71185490
Si       6.65814010       3.79756171       0.42295068      -0.87976642       0.23186808       0.53640613       0.68685952       1.02622468      -0.32312262      -8.68588314
Si       8.75974750       4.85503412       3.49213483       0.79324910       0.61173709       0.47673169      -0.61180736       1.09051827       0.62310795      -8.69991169
Si      10.53987008       6.10427734       6.71885114      -0.53401089       0.61459134      -0.37631736      -0.01552610       0.24620580      -0.00768731      -8.73287108
Si       8.74483207       7.11566424       0.40967334       0.21552686      -0.62149386       1.85877749      -1.00917320       0.72278560       0.09008402      -8.75177361
Si      10.64067519       8.41714818       3.63250491      -0.57979704      -0.87475915       0.74898226      -0.82637421      -0.44376870      -0.65419274      -8.72433520
Si      12.50542740       9.33450314       6.62008245       0.05107449      -0.86632320      -1.02270186       0.23129538       1.15115692       0.63177533      -8.70315948
Si       8.64227248       0.52868567       0.39699733       1.63047668      -0.05434368       0.43648759       0.41733961       0.96106037       0.44289956      -8.75950838
Si      10.68903736       1.75689599       3.62346110      -0.08719510       0.94546348      -1.10424012      -0.45360795      -0.49926960      -1.05019142      -8.71446739
Si      12.51347396       2.85480042       6.72768332       0.19164620       0.91104943       0.35700624      -0.11671774       0.01182626       0.26360340      -8.71362539
Si      10.57665667       3.81012256       0.34878937       0.21683924      -0.07524076      -0.32653977       0.02250944       0.29591534      -0.25195097      -8.68787320
Si      12.54417348       5.12452569       3.53112038      -0.36494576       0.58801641      -0.55765091      -0.43615124      -0.33888502       0.22965245      -8.71144590
Si      14.43472842       6.18968191       6.60784311      -1.29734162       0.79764430       0.29035020      -0.34987773       0.00399029       0.52883972      -8.77831009
Si      12.49633979       7.29070333       0.37326593      -0.89126338      -1.18949145       1.95867038      -0.26445646      -0.95530148       0.34614546      -8.76238874
Si      14.59989939       8.31659171       3.44459727      -1.15945820      -0.05915056      -0.46838443      -1.42078556       0.07551368       0.57547165      -8.68579489
Si      16.43334495       9.48514564       6.62293172       0.04326519       0.58781916      -0.02988536      -0.29139542      -0.43730882       0.08386194      -8.76174744
P        0.93337713       0.45818865       0.44765909       0.50816600      -0.65321343       0.24639811      -0.27413233       0.53074987      -0.48325608      -9.85178241
54
Lattice="11.5478352 0.0 0.0 5.773917198490155 10.000722372470358 0.0 5.773916394327279 3.333571176804646 9.428767828939895" Properties=species:S:1:pos:R:3:momenta:R:3:forces:R:3:energies:R:1 spacegroup="_JSON {\"number\": 1, \"setting\": 1}" unit_cell=conventional occupancy="_JSON {\"0\": {\"Si\": 1.0}, \"1\": {\"Si\": 1.0}, \"2\": {\"Si\": 1.0}, \"3\": {\"Si\": 1.0}, \"4\": {\"Si\": 1.0}, \"5\": {\"Si\": 1.0}, \"6\": {\"Si\": 1.0}, \"7\": {\"Si\": 1.0}, \"8\": {\"Si\": 1.0}, \"9\": {\"Si\": 1.0}, \"10\": {\"Si\": 1.0}, \"11\": {\"Si\": 1.0}, \"12\": {\"Si\": 1.0}, \"13\": {\"Si\": 1.0}, \"14\": {\"Si\": 1.0}, \"15\": {\"Si\": 1.0}, \"16\": {\"Si\": 1.0}, \"17\": {\"Si\": 1.0}, \"18\": {\"Si\": 1.0}, \"19\": {\"Si\": 1.0}, \"20\": {\"Si\": 1.0}, \"21\": {\"Si\": 1.0}, \"22\": {\"Si\": 1.0}, \"23\": {\"Si\": 1.0}, \"24\": {\"Si\": 1.0}, \"25\": {\"Si\": 1.0}, \"26\": {\"Si\": 1.0}, \"27\": {\"Si\": 1.0}, \"28\": {\"Si\": 1.0}, \"29\": {\"Si\": 1.0}, \"30\": {\"Si\": 1.0}, \"31\": {\"Si\": 1.0}, \"32\": {\"Si\": 1.0}, \"33\": {\"Si\": 1.0}, \"34\": {\"Si\": 1.0}, \"35\": {\"Si\": 1.0}, \"36\": {\"Si\": 1.0}, \"37\": {\"Si\": 1.0}, \"38\": {\"Si\": 1.0}, \"39\": {\"Si\": 1.0}, \"40\": {\"Si\": 1.0}, \"41\": {\"Si\": 1.0}, \"42\": {\"Si\": 1.0}, \"43\": {\"Si\": 1.0}, \"44\": {\"Si\": 1.0}, \"45\": {\"Si\": 1.0}, \"46\": {\"Si\": 1.0}, \"47\": {\"Si\": 1.0}, \"48\": {\"Si\": 1.0}, \"49\": {\"Si\": 1.0}, \"50\": {\"Si\": 1.0}, \"51\": {\"Si\": 1.0}, \"52\": {\"Si\": 1.0}, \"53\": {\"P\": 1.0}}" energy=-471.0607016019105 stress="0.00010306065242498188 0.001038301915719718 0.0010322650776286157 0.001038301915719718 -0.0005243705048554169 0.00040363804952069354 0.0010322650776286157 0.00040363804952069354 -4.098171209625615e-05" free_energy=-471.0607016019105 pbc="T T T"
Si       6.84073022       3.87385032       2.76459705       1.29181080       0.91042225      -0.28773476      -0.42269899       0.14939272      -0.01108300      -8.75122953
Si       8.69146224       4.97809941       5.84851537       0.44439383       0.11882867      -0.96180334      -0.91545538       0.36278333       0.70447769      -8.69926687
Si      10.51879585       6.15050352       9.08083354       0.65630336      -0.72445736      -0.25378806      -0.51489480      -0.52758769      -0.09221136      -8.72159831
Si       8.71750349       7.17841125       2.79694016       0.21508627       0.26306339       0.64935108       0.74400356      -0.37188221       0.12734384      -8.75525746
Si      10.52414458       8.29993804       6.00402713       0.04480707      -0.50802583       1.15034735       0.62608910       0.29714618      -0.85817606      -8.76115327
Si      12.56695553       9.44734002       8.94744967       1.07532673      -0.49116351      -1.63458063      -0.64825682      -0.20249164       0.63237542      -8.65964614
Si      10.61112965      10.66980254       2.89826384       0.15884283      -0.05385912      -0.80373366       0.38688826      -0.92825151      -0.19967701      -8.69427636
Si      12.52085938      11.61459652       5.86904827      -0.18617506      -0.77772796       0.42895387       0.06845738      -0.20348522       0.28474837      -8.73936129
Si      14.39876673      12.72689082       9.16783252       0.83284477      -0.68561650       0.23933952       0.70266635      -0.10856014      -0.52741009      -8.53084907
Si      10.68363955       3.85382106       2.69065496      -0.05407798      -0.12702581       0.15854852       0.01965225       1.25982362      -0.30310653      -8.72286919
Si      12.48915169       5.08754124       5.92432527      -1.00755381      -0.38840594      -0.91823062      -0.35663502       0.03967360      -0.53354748      -8.73725516
Si      14.34927487       6.16064773       8.99139117      -0.84734160       1.55953623       1.49156178       0.25439790      -0.46720075       0.29328080      -8.69412796
Si      12.48794163       7.30304934       2.73194907       0.93935691      -0.19021684       0.58863421       0.05309161       0.23851401       0.72647449      -8.77101819
Si      14.50279877       8.32277786       5.77563238       0.21227039      -0.47569092      -1.51679341      -0.05756554       0.69731285       0.22712369      -8.73541635
Si      16.43807388       9.38712740       8.93706443       0.89279732      -1.07986702       0.21996462      -0.51275507       0.10870816       0.79651763      -8.71913836
Si      14.61196846      10.60132326       2.79937141       0.25005993       0.88315999       0.53987793      -0.70151894      -0.47592210      -0.45348611      -8.71460209
Si      16.30151988      11.75590531       5.95913164      -1.20437598       1.51296941       0.51515962       1.08131875      -0.02428600      -0.31135560      -8.70596017
Si      18.29720838      12.84418226       9.14225846      -0.41252367       0.72835824      -0.29977933      -0.30079521      -0.54703413      -0.12140108      -8.70168319
Si      14.31843914       3.86167558       2.68409853      -0.61290273      -0.62568734      -0.37391399       0.83060936       0.49530350       0.38184111      -8.68850852
Si      16.28759682       4.93500240       5.84748538       2.50314202       0.28573507      -0.44676051       0.37051947       0.83992948       0.44422443      -8.67600385
Si      18.28148713       5.98898550       9.03093263      -0.87110172      -0.27966122       0.07818341      -0.50123532      -0.10159086       0.33824662      -8.55581259
Si      16.42883511       7.12531640       2.67780614       0.03790468      -0.68452433       0.47003411      -0.31967671       0.55440630      -0.45663402      -8.71810193
Si      18.29260513       8.33673698       5.85900091      -1.04079759       0.42113281      -1.17829047       0.64463566       0.23096928       0.23366395      -8.72284157
Si      20.13473856       9.45009062       9.05833790      -0.62722020       0.12732127      -0.24909080       0.09489519       0.46445828      -0.51063317      -8.69861546
Si      18.26393699      10.48661304       2.81585439      -0.39477103      -1.31919979       1.18582791      -0.23291526      -0.49139559      -0.76070608      -8.55197540
Si      20.06586785      11.69070515       5.85705342       0.34231005       1.33038830       0.22484231       0.99574727       0.16321978      -0.16221698      -8.66860680
Si      22.00512849      12.85365167       8.94428524      -0.09595185       0.04550087      -1.45207561       1.56367851      -0.60520459       0.08723615      -8.54017798
Si       2.80457784       1.62552888       3.42966022       0.22943710       0.86889716      -1.81146879       0.47887642       0.90736574       1.13647464      -8.72856196
Si       4.81763131       2.71591203       6.63373236      -0.28039767      -0.71275360       0.85103064      -0.66796376       0.27575120      -0.62110159      -8.72081695
Si       2.74644101       3.88810653       0.34973635      -1.04104266       1.26100413      -0.59231364       0.98922512      -0.04881396       0.32674719      -8.74283475
Si       4.85259278       4.93309477       3.49252709       0.91729997      -0.74745271       0.03335215      -0.54955594      -0.41782593      -0.15458212      -8.72097642
Si       6.69162605       6.14794948       6.74355793       0.74125002      -0.87684172      -1.20206348       0.11001240      -1.14844927      -1.53245590      -8.63934009
Si       4.76878597       7.32384135       0.25857241      -0.76120022       0.06653410       0.64168572       0.69792868      -1.25486211       0.77658038      -8.65486115
Si       6.81300313       8.21683626       3.48924252       1.01630833      -0.35548044       0.84411687      -0.95738463       0.34879441       0.38899549      -8.73767150
Si       8.71523818       9.50838165       6.66456032       1.48661799       0.35378974       0.05600317      -1.54723238      -0.20983315       0.54295344      -8.69822765
Si       4.79600860       0.61004287       0.57165132       0.42877392      -0.98550525       0.41517972      -0.23503445      -0.04842186      -0.80260751      -8.71455884
Si       6.88393063       1.69251652       3.54122848       2.25361028      -1.43526916       0.36413839      -0.50818200      -0.20503126       0.10985132      -8.72165096
Si       8.60477193       2.79450084       6.69401045      -1.18645423      -1.57251891      -0.38894514      -0.28445144       0.01557806       0.89731100      -8.72855796
Si       6.64296194       3.85295269       0.43742469       0.29851177       1.87144324      -0.00112568       0.67472691       0.99920733      -0.39297952      -8.73461393
Si       8.77990530       4.92320118       3.53157093       0.06264174       1.81752108       0.80589596      -0.28688975       0.43241246      -0.23043852      -8.73899222
Si      10.51846851       6.13355143       6.70662155      -0.17511828       0.25542803       0.02846033       0.40298466      -0.70460150       0.45731447      -8.74024447
Si       8.72699794       7.10763308       0.49177870      -0.67938739       0.20844897       0.95209618      -0.18373430       0.31929068      -1.15002826      -8.71127335
Si      10.58543917       8.36582523       3.64867420      -1.32502040      -0.88270296      -0.05317096      -0.04100557       0.35151363      -0.35080904      -8.66695765
Si      12.52226750       9.33158393       6.58894358       0.65875291       0.63434755      -0.25285001       0.49593242       0.69181213       0.30187250      -8.71922775
Si       8.72035142       0.57377609       0.43742965       0.95253402       1.84725878       1.04741500      -1.07835684       1.25116621       0.19792788      -8.71587123
Si      10.67220694       1.77676033       3.55141417      -0.43152583      -0.32383272      -1.14223220       0.02910699      -1.00793884       0.87884493      -8.70908907
Si      12.50946479       2.89642289       6.75591903      -0.48186184       0.57655902       0.67627013      -0.65242785      -0.38443457       0.08992762      -8.74769296
Si      10.58745538       3.81597374       0.32530591       0.15386604       0.25045522      -0.47242480      -0.13898416       0.10893865       0.11915802      -8.71372152
Si      12.51105058       5.13189633       3.51599836      -0.80097592      -0.45860293       0.04437024      -0.06259875      -0.92397467       0.47714087      -8.69607226
Si      14.37202876       6.21326108       6.63896525      -0.80801048      -0.16638782       0.79720603       0.78228040      -1.04043242       0.13495943      -8.74514228
Si      12.44732663       7.21206531       0.46568193      -0.81250720      -1.42458197       1.15510670       0.37702943       0.54366347      -1.23032396      -8.72833827
Si      14.50345444       8.31424206       3.43821393      -2.07677329      -0.03880390       0.10293835       0.29068853       0.04866671       0.11160503      -8.71650882
Si      16.41918048       9.50015967       6.61789189      -0.65001469       0.06136615      -0.26443509      -0.55265092      -0.15664900      -0.30708744      -8.75755305
P        0.94147429       0.44654147       0.44673623      -0.23177773       0.13239397      -0.19828685      -0.53458678       0.41035920      -0.15115994      -9.77599143
54
Lattice="11.5478352 0.0 0.0 5.773917198490155 10.000722372470358 0.0 5.773916394327279 3.333571176804646 9.428767828939895" Properties=species:S:1:pos:R:3:momenta:R:3:forces:R:3:energies:R:1 spacegroup="_JSON {\"number\": 1, \"setting\": 1}" unit_cell=conventional occupancy="_JSON {\"0\": {\"Si\": 1.0}, \"1\": {\"Si\": 1.0}, \"2\": {\"Si\": 1.0}, \"3\": {\"Si\": 1.0}, \"4\": {\"Si\": 1.0}, \"5\": {\"Si\": 1.0}, \"6\": {\"Si\": 1.0}, \"7\": {\"Si\": 1.0}, \"8\": {\"Si\": 1.0}, \"9\": {\"Si\": 1.0}, \"10\": {\"Si\": 1.0}, \"11\": {\"Si\": 1.0}, \"12\": {\"Si\": 1.0}, \"13\": {\"Si\": 1.0}, \"14\": {\"Si\": 1.0}, \"15\": {\"Si\": 1.0}, \"16\": {\"Si\": 1.0}, \"17\": {\"Si\": 1.0}, \"18\": {\"Si\": 1.0}, \"19\": {\"Si\": 1.0}, \"20\": {\"Si\": 1.0}, \"21\": {\"Si\": 1.0}, \"22\": {\"Si\": 1.0}, \"23\": {\"Si\": 1.0}, \"24\": {\"Si\": 1.0}, \"25\": {\"Si\": 1.0}, \"26\": {\"Si\": 1.0}, \"27\": {\"Si\": 1.0}, \"28\": {\"Si\": 1.0}, \"29\": {\"Si\": 1.0}, \"30\": {\"Si\": 1.0}, \"31\": {\"Si\": 1.0}, \"32\": {\"Si\": 1.0}, \"33\": {\"Si\": 1.0}, \"34\": {\"Si\": 1.0}, \"35\": {\"Si\": 1.0}, \"36\": {\"Si\": 1.0}, \"37\": {\"Si\": 1.0}, \"38\": {\"Si\": 1.0}, \"39\": {\"Si\": 1.0}, \"40\": {\"Si\": 1.0}, \"41\": {\"Si\": 1.0}, \"42\": {\"Si\": 1.0}, \"43\": {\"Si\": 1.0}, \"44\": {\"Si\": 1.0}, \"45\": {\"Si\": 1.0}, \"46\": {\"Si\": 1.0}, \"47\": {\"Si\": 1.0}, \"48\": {\"Si\": 1.0}, \"49\": {\"Si\": 1.0}, \"50\": {\"Si\": 1.0}, \"51\": {\"Si\": 1.0}, \"52\": {\"Si\": 1.0}, \"53\": {\"P\": 1.0}}" energy=-470.71843779136543 stress="0.0003855145453093825 -0.0011447713241338967 -0.000636953293829081 -0.0011447713241338967 0.00031508732186004754 -0.0002521211825751458 -0.000636953293829081 -0.0002521211825751458 -0.002191020204301422" free_energy=-470.71843779136543 pbc="T T T"
Si       6.89022104       3.91506442       2.75371361       0.57227791       0.48139543      -0.07855420      -0.52621159      -0.56429122       0.18447244      -8.70956399
Si       8.68114657       4.98914839       5.83652569      -0.72232769       0.11810804       0.60505047      -0.45685380      -0.36589205       1.09408495      -8.70527954
Si      10.53215545       6.10174595       9.07190593      -0.08717572      -0.93145641       0.05080583      -0.31062485       0.26450635       0.44237599      -8.67882098
Si       8.74850691       7.18014267       2.82805617       0.70458275      -0.08380493       0.35147019      -0.25335525       0.06714204      -0.58922625      -8.75675466
Si      10.55328816       8.29089479       6.02552006       1.01825059       0.23849862      -0.33346063       0.44773507       0.58915082      -0.88574682      -8.73889535
Si      12.59162169       9.42557921       8.89617658      -0.20197946      -0.10206559      -0.21433438      -0.93211093       0.73682118       1.05104851      -8.66813815
Si      10.63586704      10.63317241       2.85750894       0.74854589      -1.23692246      -0.62048967       0.25825247      -0.52109063       0.30584603      -8.67742802
Si      12.50708402      11.57055681       5.89668465      -0.46126074      -0.76729793       0.50248251      -0.39782458       0.32473843      -0.19051036      -8.74514859
Si      14.45820958      12.69345616       9.16009942       1.19206346      -0.46123640      -0.51728179      -0.23742877       0.38683871      -0.46544350      -8.53414789
Si      10.67545196       3.89113230       2.68501646      -0.37484632       1.30400387      -0.35289987      -0.43179124       0.34377274      -0.23740099      -8.70181490
Si      12.43126410       5.07088201       5.86645651      -1.01632282      -0.25724637      -1.04046516       0.36283781       0.00739863       0.43356483      -8.75454413
Si      14.32045724       6.22228546       9.06996222      -0.17628727       0.80622334       1.29171715       0.54476521      -0.41071986      -0.54828170      -8.72711759
Si      12.51958974       7.29554871       2.78531279      -0.04961714      -0.26244038       1.25375105      -1.16630260      -0.38557959       0.00546976      -8.74448373
Si      14.50742276       8.31953895       5.72005331      -0.09403508       0.19502485      -0.35811276      -0.28343342       0.10103101       1.17213372      -8.74679734
Si      16.45458106       9.34255335       8.97192302      -0.40434386      -0.47296655       0.89830449      -1.07153964       0.69456424      -0.00364998      -8.69555780
Si      14.60230062      10.61427732       2.80677849      -0.49850732      -0.58046341      -0.27597943      -0.24827910      -1.21078521      -0.52578604      -8.73128928
Si      16.28537392      11.81988246       5.96849393       0.54542020       0.70432308      -0.19962955       0.92169412      -0.90391391      -0.48349509      -8.69456014
Si      18.27494009      12.85682090       9.13167213      -0.25557777      -0.26882612       0.02963707       0.41490156      -0.64878656       0.40123047      -8.65824762
Si      14.31895897       3.85846742       2.67553909       0.60832848       0.64579725      -0.02647783       0.74609976       1.04084992       0.09958854      -8.70976432
Si      16.41389526       4.97147176       5.84405715       1.93533204       0.84266099       0.27234175      -1.12867542      -0.17406845       0.28287443      -8.67817541
Si      18.22577551       5.97323050       9.03738402      -1.04655453      -0.24962492      -0.04963689       0.29932380       0.17026204      -0.49759376      -8.55261912
Si      16.41684426       7.11371298       2.68921802      -0.50531267       0.21014842       0.08554941      -0.36348915       0.44581563       0.00837860      -8.68514655
Si      18.26983479       8.36400694       5.82094767       0.19925017       0.53751313      -0.02566703       0.77085451      -0.08257205       1.19694236      -8.67733684
Si      20.10820264       9.47716491       9.02848646      -0.32781284       0.88969010      -0.79091497       0.32259260       0.40220256      -0.12555990      -8.74727535
Si      18.24285719      10.41223587       2.84352185      -0.23706272      -1.22102756      -0.17415801       0.42466842       0.65195400      -0.94872690      -8.53618854
Si      20.11363599      11.75821102       5.85881971       1.21806559       1.09542293      -0.18919442      -0.01911864      -0.42940743      -0.30385099      -8.65948663
Si      22.04797933      12.83756908       8.89517670       1.42194513      -0.54910355      -0.02548354       0.39871039      -0.20124030       1.58007580      -8.56873086
Si       2.82913384       1.68965935       3.38580870       0.60653027       1.21527876       0.18804596       0.09955622      -0.47307964       1.35087238      -8.71109050
Si       4.78652216       2.69820905       6.64049810      -0.67024165       0.18533020      -0.73832167       0.24599552       0.86596272      -1.15862565      -8.73718351
Si       2.73288129       3.93851564       0.33077892       0.48488279       0.45085778      -0.16243231       0.86475264      -0.87003226       0.20197109      -8.71102180
Si       4.87528106       4.88154409       3.48713408      -0.08954863      -1.08188628      -0.22560527      -0.70069558       0.10890743      -0.10319256      -8.70916333
Si       6.73613328       6.07360464       6.63805015       0.98269075      -1.58045490      -2.40416921       0.20411770       0.33369333       0.08330751      -8.72070276
Si       4.75953749       7.28230709       0.31300405       0.42741358      -1.50497448       1.22296634       0.78479890      -0.70457581      -0.04358565      -8.63424250
Si       6.82312824       8.20678028       3.53883159      -0.62131844      -0.15246244       0.83767842      -0.95646120      -0.12212257      -0.41484627      -8.74808200
Si       8.72464243       9.52256824       6.68255652      -1.10277898       0.23187510       0.45835579      -1.48314657      -0.03064366      -0.12670486      -8.69116378
Si       4.80838032       0.56232327       0.55813110       0.04313952      -0.74992206      -0.93334364      -0.23519565       0.28987166      -0.81483659      -8.77552517
Si       6.96290723       1.62903689       3.56220026       0.45256926      -0.68385172       0.41056556      -1.69379004       0.97518871      -0.00664404      -8.65212796
Si       8.53736522       2.72998268       6.70967186      -1.21350099      -0.64045223       0.94156418       0.37711565       0.99062298       0.72523195      -8.68470457
Si       6.67282207       3.97575770       0.42329343       0.59534073       2.47193748      -0.47951258      -0.26240546      -0.33410651      -0.15841088      -8.75324838
Si       8.77755239       5.02059831       3.55690574      -0.06816190       1.60548964       0.09975837       0.04138447      -0.71321581      -0.46289955      -8.73839811
Si      10.52382745       6.11611342       6.72462540       0.32033814      -0.87748841       0.58901052       0.17909771      -0.54497333       0.19706370      -8.75946606
Si       8.69277731       7.12374142       0.49548150      -0.49382024       0.27899381      -0.73446795       0.34201348      -0.17537604      -0.87849707      -8.66801628
Si      10.53042864       8.33973462       3.63916009      -0.48427734      -0.01872988      -0.17994246       1.07825438       0.71747140       0.15065465      -8.65601905
Si      12.57248269       9.37739003       6.58171745       1.15418636       0.82657914      -0.09511526       0.10038056      -0.42132537       0.02835032      -8.73116198
Si       8.72945014       0.70062294       0.48602074      -0.49803997       2.55930044       0.54136525      -0.70583888      -0.41769442      -0.80930450      -8.69380050
Si      10.65717369       1.73115992       3.53504332      -0.05689506      -1.14100831       0.56008496       0.35160673       0.01861806       1.07110259      -8.69502515
Si      12.46324190       2.91080122       6.78783967      -1.12497424      -0.01970058       0.40168364      -0.04973473      -0.35794633      -0.44531949      -8.75977510
Si      10.58725637       3.82944037       0.31142008      -0.20348582       0.19398194       0.04399126      -0.29842192      -0.15722199       0.51429607      -8.74897823
Si      12.47529640       5.07731695       3.53276532      -0.40035574      -1.44712722       0.47641101       0.57007904      -0.25835065       0.01974945      -8.72986896
Si      14.36309939       6.16770938       6.67897209       0.47571897      -1.43292835       0.60006931       0.83187960      -0.52888376      -0.36392141      -8.64681454
Si      12.42562495       7.17044400       0.47782640       0.05987047       0.00171973      -0.56271086       0.66735137       1.20022955      -0.76952920      -8.69448582
Si      14.42790167       8.31819164       3.44107031      -0.47740874       0.25508804      -0.09535353       1.56124749       0.27971173      -0.28420659      -8.68369720
Si      16.36801216       9.50277148       6.59489758      -1.17075279       0.11648236      -0.51458640      -0.04734293       0.15012573       0.06699526      -8.72947339
P        0.91735652       0.46061771       0.43380536      -0.63215859       0.31374498      -0.31435925       0.04800476      -0.14955619      -0.02188482      -9.77188783
54
Lattice="11.5478352 0.0 0.0 5.773917198490155 10.000722372470358 0.0 5.773916394327279 3.333571176804646 9.428767828939895" Properties=species:S:1:pos:R:3:momenta:R:3:forces:R:3:energies:R:1 spacegroup="_JSON {\"number\": 1, \"setting\": 1}" unit_cell=conventional occupancy="_JSON {\"0\": {\"Si\": 1.0}, \"1\": {\"Si\": 1.0}, \"2\": {\"Si\": 1.0}, \"3\": {\"Si\": 1.0}, \"4\": {\"Si\": 1.0}, \"5\": {\"Si\": 1.0}, \"6\": {\"Si\": 1.0}, \"7\": {\"Si\": 1.0}, \"8\": {\"Si\": 1.0}, \"9\": {\"Si\": 1.0}, \"10\": {\"Si\": 1.0}, \"11\": {\"Si\": 1.0}, \"12\": {\"Si\": 1.0}, \"13\": {\"Si\": 1.0}, \"14\": {\"Si\": 1.0}, \"15\": {\"Si\": 1.0}, \"16\": {\"Si\": 1.0}, \"17\": {\"Si\": 1.0}, \"18\": {\"Si\": 1.0}, \"19\": {\"Si\": 1.0}, \"20\": {\"Si\": 1.0}, \"21\": {\"Si\": 1.0}, \"22\": {\"Si\": 1.0}, \"23\": {\"Si\": 1.0}, \"24\": {\"Si\": 1.0}, \"25\": {\"Si\": 1.0}, \"26\": {\"Si\": 1.0}, \"27\": {\"Si\": 1.0}, \"28\": {\"Si\": 1.0}, \"29\": {\"Si\": 1.0}, \"30\": {\"Si\": 1.0}, \"31\": {\"Si\": 1.0}, \"32\": {\"Si\": 1.0}, \"33\": {\"Si\": 1.0}, \"34\": {\"Si\": 1.0}, \"35\": {\"Si\": 1.0}, \"36\": {\"Si\": 1.0}, \"37\": {\"Si\": 1.0}, \"38\": {\"Si\": 1.0}, \"39\": {\"Si\": 1.0}, \"40\": {\"Si\": 1.0}, \"41\": {\"Si\": 1.0}, \"42\": {\"Si\": 1.0}, \"43\": {\"Si\": 1.0}, \"44\": {\"Si\": 1.0}, \"45\": {\"Si\": 1.0}, \"46\": {\"Si\": 1.0}, \"47\": {\"Si\": 1.0}, \"48\": {\"Si\": 1.0}, \"49\": {\"Si\": 1.0}, \"50\": {\"Si\": 1.0}, \"51\": {\"Si\": 1.0}, \"52\": {\"Si\": 1.0}, \"53\": {\"P\": 1.0}}" energy=-470.8470738872501 stress="-0.0011711255965144158 -0.0013411521288544286 -0.001226874264923128 -0.0013411521288544286 -0.0001559919694634434 -0.0001125539857363497 -0.001226874264923128 -0.0001125539857363497 1.2606582549014066e-05" free_energy=-470.8470738872501 pbc="T T T"
Si       6.89837297       3.91825615       2.75434615      -0.29069654      -0.31758070       0.04896576      -0.64159263      -0.41022609      -0.01714597      -8.69075429
Si       8.64341996       4.97320684       5.89730743      -0.34827538      -0.84266946       1.40778126       0.94706699      -0.80608107      -0.06637826      -8.70356550
Si      10.52369168       6.07158795       9.09234622      -0.07815735      -0.10220847       0.68936298       0.30878286       0.72246912       0.29356141      -8.68603657
Si       8.76340849       7.18873636       2.81735829      -0.27578318       0.56861982      -0.79982752      -0.80802317       0.65938581      -0.74600445      -8.72108682
Si      10.61109425       8.32164175       5.98541621       0.93174437       0.80803231      -0.94498308      -0.54321569       0.10788238       0.08612265      -8.68839133
Si      12.54921520       9.45724139       8.91759877      -1.28139420       1.37688301       0.83012489      -0.39790123       0.96952821       0.28925940      -8.71847899
Si      10.67696057      10.56118640       2.83479900       0.65637919      -1.23916232      -0.32828326      -0.37508441       0.53193548      -0.00528168      -8.69629929
Si      12.46853676      11.55272572       5.91173098      -0.92253589       0.23242218       0.03605905      -0.06301480       0.87852388      -0.33283985      -8.74129552
Si      14.50097826      12.68683233       9.11894310       0.27905267       0.21875290      -0.94207944      -0.87126638       0.43499537      -0.02612078      -8.53191263
Si      10.63871889       3.95282580       2.66478792      -0.96916581       0.71394511      -0.25195888      -0.20992392      -0.97554119       0.41743468      -8.67441941
Si      12.40080277       5.05314666       5.84018648      -0.00502459      -0.49502416       0.18971363       0.91820148      -0.28082769       1.02256979      -8.73587268
Si      14.32866249       6.25484468       9.10713586       0.38307523       0.54719204      -0.01886438       0.14482978      -0.00235335      -1.11903872      -8.73724935
Si      12.47768782       7.26412385       2.83958893      -1.28106818      -0.91749556       0.63404393      -0.15775208      -0.33352348      -0.72447938      -8.70613382
Si      14.49417808       8.32382070       5.74413133      -0.31882237      -0.20732689       1.12384918       0.07701253      -0.59168583       0.60055302      -8.74483348
Si      16.39727644       9.34947991       9.00765167      -1.58954794       0.77882089       0.29595813      -0.32630984       0.85179388      -0.67074385      -8.70241188
Si      14.57139059      10.54954673       2.77839315      -0.63079597      -1.51884989      -0.66211395      -0.04708716       0.20559017       0.02316461      -8.77736988
Si      16.33170366      11.81974081       5.94579369       0.87069186      -0.69808585      -0.50752990      -0.42782970      -0.86810807       0.13415626      -8.72723931
Si      18.28035190      12.82457818       9.14470227       0.46965232      -0.78138989       0.32912151       0.45136513       0.05567547      -0.13015461      -8.69123852
Si      14.37407753       3.92342619       2.67651112       1.35569179       1.54486055       0.04663909       0.19978143      -0.06294117       0.02178741      -8.77169133
Si      16.45754385       4.99756013       5.85805251      -0.40024900       0.03246373       0.06377883      -1.61508960      -0.62853849      -0.47719700      -8.70222602
Si      18.19125725       5.96979678       9.01082803      -0.14992499       0.16101185      -0.98709749       0.77521289       0.34200907      -0.59968393      -8.48592583
Si      16.37929051       7.13208666       2.70037748      -0.84680406       0.28791295       0.42213436      -0.04669107      -0.34404317       0.32033695      -8.71669868
Si      18.29916205       8.38457507       5.86447876       0.65684913       0.15923814       1.52938610      -0.25512927      -0.43120464       0.59825116      -8.68673397
Si      20.10700467       9.52923447       8.99113553       0.34203951       0.87941854      -0.47956081       0.55434115      -0.43447383       0.46443388      -8.76288702
Si      18.25044176      10.38384545       2.80270636       0.55031757       0.25647928      -1.23616927       0.52949967       1.12628672      -0.37587899      -8.53152691
Si      20.15808200      11.79373284       5.83973635       0.18877035       0.19258209      -0.45494048      -1.12359090      -0.68434980       0.03593210      -8.68443272
Si      22.12252936      12.80346800       8.94870239       1.14784200      -0.72343341       1.80212513      -0.68452373      -0.08020302       0.60203388      -8.52230384
Si       2.86419276       1.72479860       3.43848474       0.73503507       0.03941548       1.56522969       0.10809682      -0.83151822       0.35176313      -8.69132963
Si       4.77296891       2.74249335       6.57510887       0.30348833       1.44655171      -1.32107121       0.81046668       0.62756438       0.49364256      -8.75375345
Si       2.78166373       3.93020185       0.32654358       1.16201036      -0.66080504      -0.06149679       0.03035716      -0.46837484      -0.03545277      -8.69617212
Si       4.84898655       4.84118354       3.47626766      -0.75543104      -0.23582380      -0.08813167      -0.08262474       0.97683468       0.28749857      -8.69071757
Si       6.78991050       6.02530610       6.53916044       0.87108170       0.06941915      -0.99296480      -0.56018789       1.60645288       1.54316808      -8.66468998
Si       4.80603825       7.19051247       0.36519431       1.17471103      -1.70730616       0.62959681       0.10267997       0.43442439      -0.57228227      -8.69721826
Si       6.76508428       8.19142378       3.56131362      -1.36027512      -0.41157621      -0.00179779      -0.05312639      -0.03482860      -0.51148592      -8.75521952
Si       8.63185632       9.53398697       6.69050215      -1.95009990       0.23600252      -0.31524788       0.40993685       0.10241502      -0.73749696      -8.73437736
Si       4.80455379       0.53512849       0.48925732      -0.11462734      -0.29051251      -1.43874271       0.05458886       0.28270226       0.16430530      -8.78476157
Si       6.92545571       1.62954357       3.58044198      -1.66467205       0.57819129       0.20267389      -0.88683212       0.51391575      -0.32301049      -8.68458159
Si       8.49858451       2.73245028       6.77415930      -0.13506054       0.60911023       1.22129281       0.88967078       0.51225784      -0.43345920      -8.67540363
Si       6.68757470       4.07040568       0.39968751      -0.09069720       0.78621927      -0.28674648      -0.50459730      -1.68434932       0.34762021      -8.68224575
Si       8.77512314       5.06649023       3.55383377      -0.06326076       0.03815285      -0.02182101      -0.10820748      -1.12171736       0.27303982      -8.73609300
Si      10.54168197       6.06369464       6.75647208       0.25908881      -0.83262678       0.51312567      -0.21008293       0.57316213      -0.24002971      -8.74606925
Si       8.68140224       7.13013925       0.43599031       0.03671730      -0.00946187      -1.28291771       0.24597100      -0.07256046       0.10142203      -8.69457630
Si      10.54853900       8.36254004       3.63747193       1.08268477       0.73960305       0.10503961       0.73392488       0.14273901       0.11615895      -8.75362246
Si      12.62758325       9.39632769       6.58178239       0.75452695      -0.15346340       0.19952941      -0.66047532      -0.60959043       0.41397860      -8.72965068
Si       8.68531108       0.79514345       0.48065169      -1.00890255       0.66293481      -0.70652289      -0.00887179      -1.91262321      -0.68087727      -8.63258655
Si      10.66340785       1.68248344       3.59084400       0.17480649      -0.59210510       1.20967453      -0.10041254       0.52102028      -0.32494911      -8.67678179
Si      12.41645309       2.89855500       6.78949117      -0.40702979      -0.40314809      -0.32583473       0.92946612      -0.19583681      -0.40590013      -8.71749853
Si      10.56761229       3.83361740       0.33289196      -0.46016299       0.00625449       0.71244535       0.03326438       0.00319435       0.27320901      -8.77642310
Si      12.47902259       5.00384941       3.55062712       0.52379381      -1.15543549       0.08311875       0.49949738       0.52231578      -0.44837138      -8.75065187
Si      14.41429030       6.08365709       6.69382816       1.32536378      -1.55562418      -0.04314455       0.23638326       0.32664870      -0.40783172      -8.59450902
Si      12.44860076       7.21268537       0.43416550       0.64677545       1.43297427      -0.81680510       0.02100323       0.51429466       0.35099049      -8.73208735
Si      14.45576107       8.33583409       3.42714618       1.23733650       0.22050470      -0.33991030       0.41196204      -0.47171558       0.09232507      -8.73690276
Si      16.31512301       9.51359177       6.57838247      -0.66711240       0.24736544       0.02529282       0.65023559      -0.04095067       0.61807403      -8.69872461
P        0.89714023       0.46767753       0.41954135      -0.05394919      -0.02021943      -0.25949908       0.69584516      -0.16785129       0.07530134      -9.82141057
54
Lattice="11.5478352 0.0 0.0 5.773917198490155 10.000722372470358 0.0 5.773916394327279 3.333571176804646 9.428767828939895" Properties=species:S:1:pos:R:3:momenta:R:3:forces:R:3:energies:R:1 spacegroup="_JSON {\"number\": 1, \"setting\": 1}" unit_cell=conventional occupancy="_JSON {\"0\": {\"Si\": 1.0}, \"1\": {\"Si\": 1.0}, \"2\": {\"Si\": 1.0}, \"3\": {\"Si\": 1.0}, \"4\": {\"Si\": 1.0}, \"5\": {\"Si\": 1.0}, \"6\": {\"Si\": 1.0}, \"7\": {\"Si\": 1.0}, \"8\": {\"Si\": 1.0}, \"9\": {\"Si\": 1.0}, \"10\": {\"Si\": 1.0}, \"11\": {\"Si\": 1.0}, \"12\": {\"Si\": 1.0}, \"13\": {\"Si\": 1.0}, \"14\": {\"Si\": 1.0}, \"15\": {\"Si\": 1.0}, \"16\": {\"Si\": 1.0}, \"17\": {\"Si\": 1.0}, \"18\": {\"Si\": 1.0}, \"19\": {\"Si\": 1.0}, \"20\": {\"Si\": 1.0}, \"21\": {\"Si\": 1.0}, \"22\": {\"Si\": 1.0}, \"23\": {\"Si\": 1.0}, \"24\": {\"Si\": 1.0}, \"25\": {\"Si\": 1.0}, \"26\": {\"Si\": 1.0}, \"27\": {\"Si\": 1.0}, \"28\": {\"Si\": 1.0}, \"29\": {\"Si\": 1.0}, \"30\": {\"Si\": 1.0}, \"31\": {\"Si\": 1.0}, \"32\": {\"Si\": 1.0}, \"33\": {\"Si\": 1.0}, \"34\": {\"Si\": 1.0}, \"35\": {\"Si\": 1.0}, \"36\": {\"Si\": 1.0}, \"37\": {\"Si\": 1.0}, \"38\": {\"Si\": 1.0}, \"39\": {\"Si\": 1.0}, \"40\": {\"Si\": 1.0}, \"41\": {\"Si\": 1.0}, \"42\": {\"Si\": 1.0}, \"43\": {\"Si\": 1.0}, \"44\": {\"Si\": 1.0}, \"45\": {\"Si\": 1.0}, \"46\": {\"Si\": 1.0}, \"47\": {\"Si\": 1.0}, \"48\": {\"Si\": 1.0}, \"49\": {\"Si\": 1.0}, \"50\": {\"Si\": 1.0}, \"51\": {\"Si\": 1.0}, \"52\": {\"Si\": 1.0}, \"53\": {\"P\": 1.0}}" energy=-470.9324604158536 stress="-0.0018672988449515366 0.0009923814922075493 0.0007408330654398113 0.0009923814922075493 3.317176355235746e-05 -0.0008242599726562937 0.0007408330654398113 -0.0008242599726562937 0.001507126510910774" free_energy=-470.9324604158536 pbc="T T T"
Si       6.85876553       3.89214585       2.75513656      -1.18261835      -0.54451069      -0.02167853      -0.49508615       0.11366323      -0.03045149      -8.70804836
Si       8.66472994       4.90750876       5.95739177       1.04203168      -1.33729428       0.73108359       0.52594831       0.45367801      -0.68801254      -8.74255700
Si      10.53665850       6.09098216       9.13173224       0.62736678       0.72248665       0.64146594       0.51452310       0.26275969      -0.37562923      -8.74015455
Si       8.72418773       7.23814992       2.75711551      -1.05052843       1.13315219      -1.25342879      -0.15944331      -0.02914277       0.19804016      -8.70964831
Si      10.63040251       8.36067272       5.94933320      -0.30852943       0.55782981      -0.29036625      -0.99343127      -0.37363907       0.63783819      -8.64445204
Si      12.48292680       9.54749508       8.96283583      -0.89562077       1.59363823       0.74013607       0.94814027      -0.82785171      -0.32048679      -8.70808076
Si      10.69097435      10.52694212       2.81208429      -0.20411278       0.04719919      -0.61408675      -0.70139235       0.96988367      -0.30033952      -8.71369240
Si      12.42911051      11.59414595       5.90358725      -0.36502264       1.19299957      -0.28896837       0.77239079       0.29548600      -0.11570086      -8.72360747
Si      14.48200653      12.71162097       9.07829351      -0.94516981       0.65552902      -0.43714608      -0.65219559       0.16281581       0.62318147      -8.54497836
Si      10.59000175       3.94663926       2.67551794      -0.69664097      -0.98523522       0.76615557       0.52824294      -1.12183250       0.82295600      -8.70342356
Si      12.43625931       5.01823486       5.88367674       1.30206602      -0.75590413       1.28514908       0.70331978       0.02947500       0.31958887      -8.73874273
Si      14.34930250       6.27889899       9.06433543       0.34205680       0.21183429      -1.51165585      -0.09714832      -0.59937424      -0.72327412      -8.74430575
Si      12.42536479       7.20966367       2.84135251      -0.37979676      -1.03345885      -0.59281455       1.14844239       0.16316466      -0.82587997      -8.67227419
Si      14.48754911       8.28734590       5.81236998       0.16262269      -1.16396198       1.24918060       0.43597505      -0.50770870      -0.28992942      -8.72276521
Si      16.31990709       9.41487518       8.99720097      -1.00730063       1.50797098      -0.63434320       1.04525351       0.06053255      -0.42863341      -8.69702997
Si      14.53501600      10.49878598       2.74957016      -0.79077505      -0.13971489      -0.36850013      -0.18035327       1.27995443       0.30224610      -8.73600185
Si      16.35307329      11.75740664       5.93279816      -0.10822457      -1.49211998       0.12372690      -0.64978855      -0.14243444       0.55438398      -8.72363818
Si      18.31657891      12.79765198       9.14657141       0.76906785      -0.06103974      -0.43398184      -0.10984502       0.75178261      -0.81675014      -8.73871649
Si      14.44216375       3.98188633       2.67839389       1.04627818       0.35343640      -0.00361809      -0.54720260      -1.35596178      -0.07859508      -8.73414011
Si      16.39301681       4.98638232       5.84102418      -1.61117896      -0.18709535      -0.69720422       0.10485567       0.39449420      -0.41692762      -8.75831288
Si      18.21124527       5.99156025       8.94452069       0.82569178       0.66501419      -1.32371175       0.44424364       0.33049717       0.25855693      -8.48477543
Si      16.34027198       7.12708455       2.72984009      -0.50111548      -0.54561721       0.56515326       0.49428933      -0.59057153      -0.19537563      -8.74583551
Si      18.30988995       8.37419937       5.94834165      -0.43436008      -0.52800111       1.31604421      -0.96000093      -0.30180314      -0.77074084      -8.69515806
Si      20.14468742       9.55088420       8.98381524       1.01027818      -0.14732003       0.14440565       0.22037059      -0.80872727       0.26091677      -8.72014054
Si      18.29548806      10.43509546       2.73592387       1.06488335       1.54115832      -1.07345048       0.13031755       0.52580817       0.54642479      -8.53846944
Si      20.13020470      11.78189308       5.82649446      -1.02437171      -0.51578191       0.11416874      -0.25846776      -0.19822067       0.65374463      -8.73119971
Si      22.14924854      12.76418477       9.04787703      -0.18339038      -0.72167761       1.67085758      -0.89933547       0.13338628      -0.61725620      -8.45751072
Si       2.90665645       1.70198187       3.51532221       0.86812356      -0.74280775       1.03013012       0.04290248      -0.18400086      -0.94631845      -8.67090033
Si       4.80911550       2.82544455       6.54254619       0.78757413       1.34424276       0.33470264      -0.27532276      -0.79992534       1.51727082      -8.69134961
Si       2.83375266       3.88829356       0.32208955       0.66856872      -0.73555236      -0.08607786      -0.57695686       0.31797863       0.04386384      -8.68212517
Si       4.81811904       4.87061694       3.48541712      -0.22252116       1.35303711       0.44847577       0.67907975       0.94859920       0.32458864      -8.70283807
Si       6.80369841       6.08189566       6.54541248      -0.41304703       1.72684672       1.07547137      -0.83672458       0.22255758       0.95805125      -8.72040836
Si       4.85493949       7.13197377       0.38209896       0.35097448      -0.28850075       0.20030097      -1.20011365       1.35333831       0.12486970      -8.71181803
Si       6.70115201       8.17864185       3.54829328      -0.93260514       0.12778901      -0.36115516       0.51939913       0.75206822       0.00276153      -8.70985859
Si       8.56726594       9.55349557       6.65132022      -0.20113160       0.52696979      -0.99991753       1.61960245       0.14838099      -0.06248962      -8.72249159
Si       4.80445725       0.52945583       0.42983216       0.16288154       0.05420863      -0.70503783       0.25489222       0.20935378       0.64990892      -8.73461750
Si       6.82217801       1.66777175       3.57517178      -1.95373049       0.67280520      -0.43311468       0.37059957      -0.29487821      -0.43925330      -8.72648870
Si       8.52215226       2.76996089       6.80669749       0.92685976       0.52703513      -0.18694873       0.48723070      -0.64129967      -1.22942642      -8.66972012
Si       6.66760796       4.05144098       0.39715761      -0.55507188      -1.27156989       0.12839658      -0.04505138      -0.79615074       0.12578703      -8.70244977
Si       8.76302797       5.03626228       3.56573112      -0.48411980      -0.92800980       0.46270615      -0.44109193      -0.12461020       0.23499363      -8.73681488
Si      10.54765451       6.05015117       6.77253913       0.02875764       0.39824312       0.09389575       0.02148844       0.90515460      -0.27020463      -8.70338582
Si       8.68412981       7.13515726       0.38152484      -0.12403756       0.37371050      -0.66433713      -0.48353280       0.59126438       0.61660782      -8.72406833
Si      10.61720737       8.39480404       3.64232887       1.22715754       0.29569351      -0.02461923      -0.46296372      -0.61464338      -0.29409019      -8.78343198
Si      12.63369045       9.37694017       6.61118340      -0.60940275      -0.33220524       0.93121365      -0.99434831       0.35360399       0.44831102      -8.72622057
Si       8.64008897       0.75698052       0.42559847      -0.56720297      -1.93460855      -1.23308861       0.58476896      -1.21665886      -0.04973649      -8.66897670
Si      10.66355662       1.66971981       3.62307179      -0.23653689       0.04422062      -0.25038436      -0.37015591       0.28515813      -1.36754296      -8.65818238
Si      12.43312839       2.86861761       6.76223522       0.97975569      -0.78357847      -0.60715669       0.68680835      -0.36216568       0.00838412      -8.72397386
Si      10.55131410       3.83987829       0.37243708      -0.05769051       0.33644565       0.63374206       0.43303871       0.40329898      -0.35282368      -8.75677699
Si      12.51637998       4.96553938       3.53999041       0.71097719      -0.31864743      -0.39005122      -0.23068730       0.47795932      -0.07377371      -8.75603005
Si      14.48058401       6.02354499       6.67993024       0.95874006      -0.59552302      -0.39245200      -0.71541815       0.88499083      -0.04390379      -8.65089580
Si      12.47480088       7.28885072       0.41288438       0.24277165       1.10938271       0.09292916      -0.40902198      -0.88592089       0.69337763      -8.71568363
Si      14.51253670       8.32079383       3.42275169       0.51695983      -0.85253926       0.33990077      -1.19217255      -0.69776629       0.73635862      -8.70909359
Si      16.30717014       9.51899487       6.60564770       0.33759260      -0.16977512       1.00245531       0.55509008      -0.54368909       0.57031981      -8.72504854
P        0.92182595       0.46563453       0.40874964       1.08581688       0.03917132      -0.24255156       0.66603874       0.23788864      -0.10978619      -9.87115185
54
Lattice="11.5478352 0.0 0.0 5.773917198490155 10.000722372470358 0.0 5.773916394327279 3.333571176804646 9.428767828939895" Properties=species:S:1:pos:R:3:momenta:R:3:forces:R:3:energies:R:1 spacegroup="_JSON {\"number\": 1, \"setting\": 1}" unit_cell=conventional occupancy="_JSON {\"0\": {\"Si\": 1.0}, \"1\": {\"Si\": 1.0}, \"2\": {\"Si\": 1.0}, \"3\": {\"Si\": 1.0}, \"4\": {\"Si\": 1.0}, \"5\": {\"Si\": 1.0}, \"6\": {\"Si\": 1.0}, \"7\": {\"Si\": 1.0}, \"8\": {\"Si\": 1.0}, \"9\": {\"Si\": 1.0}, \"10\": {\"Si\": 1.0}, \"11\": {\"Si\": 1.0}, \"12\": {\"Si\": 1.0}, \"13\": {\"Si\": 1.0}, \"14\": {\"Si\": 1.0}, \"15\": {\"Si\": 1.0}, \"16\": {\"Si\": 1.0}, \"17\": {\"Si\": 1.0}, \"18\": {\"Si\": 1.0}, \"19\": {\"Si\": 1.0}, \"20\": {\"Si\": 1.0}, \"21\": {\"Si\": 1.0}, \"22\": {\"Si\": 1.0}, \"23\": {\"Si\": 1.0}, \"24\": {\"Si\": 1.0}, \"25\": {\"Si\": 1.0}, \"26\": {\"Si\": 1.0}, \"27\": {\"Si\": 1.0}, \"28\": {\"Si\": 1.0}, \"29\": {\"Si\": 1.0}, \"30\": {\"Si\": 1.0}, \"31\": {\"Si\": 1.0}, \"32\": {\"Si\": 1.0}, \"33\": {\"Si\": 1.0}, \"34\": {\"Si\": 1.0}, \"35\": {\"Si\": 1.0}, \"36\": {\"Si\": 1.0}, \"37\": {\"Si\": 1.0}, \"38\": {\"Si\": 1.0}, \"39\": {\"Si\": 1.0}, \"40\": {\"Si\": 1.0}, \"41\": {\"Si\": 1.0}, \"42\": {\"Si\": 1.0}, \"43\": {\"Si\": 1.0}, \"44\": {\"Si\": 1.0}, \"45\": {\"Si\": 1.0}, \"46\": {\"Si\": 1.0}, \"47\": {\"Si\": 1.0}, \"48\": {\"Si\": 1.0}, \"49\": {\"Si\": 1.0}, \"50\": {\"Si\": 1.0}, \"51\": {\"Si\": 1.0}, \"52\": {\"Si\": 1.0}, \"53\": {\"P\": 1.0}}" energy=-471.37438198911394 stress="-0.00040642324787131456 0.00131259008470587 0.0015761535793672595 0.00131259008470587 -0.0010677373768076589 -8.399184356836094e-07 0.0015761535793672595 -8.399184356836094e-07 -0.0006042586355548297" free_energy=-471.37438198911394 pbc="T T T"
Si       6.78419412       3.87383625       2.75462178      -1.51382358      -0.06734018       0.03655393       0.08153009       0.44926582       0.09960277      -8.73426223
Si       8.72327422       4.87682751       5.96828960       0.91496692       0.46654408      -0.28353436      -0.55835677       1.60378935      -0.55688515      -8.72213782
Si      10.58162463       6.12876407       9.14344107       0.87214609       0.53657969      -0.30724682      -0.31010197      -0.44000962      -0.81695522      -8.75831013
Si       8.67243395       7.28587680       2.71098373      -0.76722849       0.51847593      -0.31413811       0.45042947      -0.69594663       0.95270267      -8.67518105
Si      10.57995387       8.37406578       5.95520416      -1.45621748      -0.04387931       0.37709236      -0.36344979      -0.36927385       0.10615358      -8.74133264
Si      12.47700594       9.58262977       8.98976678       0.55366866      -0.41569930       0.38196170       0.52139385      -1.48613397       0.04018240      -8.69957857
Si      10.65542436      10.55711428       2.77049707      -1.05393337       0.83783539      -0.89871163      -0.31574345      -0.05194697      -0.02347779      -8.76957043
Si      12.44288654      11.65771898       5.88545428       0.86073238       1.05051818      -0.37704797       0.65669062      -0.41710300      -0.00734557      -8.72154940
Si      14.41765852      12.74964678       9.07723442      -1.26436258       0.74815146       0.26061983       0.31038959      -0.02406977       0.10311831      -8.58362246
Si      10.57640588       3.86313293       2.74174756       0.15878193      -1.87992154       1.57291694       0.46077818       0.13807995       0.09822850      -8.78210255
Si      12.52028019       4.98674563       5.95026919       1.64410475      -0.33635542       1.01481644      -0.30598700       0.44293444      -0.62198325      -8.71168450
Si      14.36589497       6.25874952       8.97211748       0.35964797      -1.07344664      -1.67396219       0.16851452      -0.96946175       0.57435259      -8.70446079
Si      12.45008257       7.16727451       2.78532801       1.21664331      -0.49993483      -1.34882749       0.74826028       0.48022143      -0.06390670      -8.75837730
Si      14.50652238       8.21974020       5.86429713       0.37711803      -1.11274011       0.73333125      -0.26953883       0.66552092      -0.29645360      -8.70643817
Si      16.31343861       9.48724339       8.96129874       0.74231247       1.13124794      -0.40358939       0.98651559      -0.42113963       0.85688318      -8.70058840
Si      14.48557552      10.53178200       2.74185156      -1.10535782       1.12510689       0.04342665      -0.22308401       0.23946937       0.17982824      -8.71518123
Si      16.33068838      11.68310652       5.95342887      -0.54679426      -1.21289361       0.45483503       0.12456459       0.34886525      -0.24115484      -8.71274296
Si      18.34324417      12.81648662       9.09224940       0.08510722       0.53898736      -1.55648055      -0.73332441      -0.15214251      -0.49900713      -8.75918997
Si      14.47431683       3.94702893       2.67721197       0.21229321      -1.58217030       0.02722772      -0.44267742      -0.97434996       0.18006924      -8.71474403
Si      16.33128549       4.99725847       5.79865821      -0.48857915       0.58985478      -0.64953227       1.10874239       0.36796131       0.63423150      -8.71605013
Si      18.26325377       6.03791328       8.90080603       0.98907546       1.06685063      -0.05730102      -0.21671492       0.18995432       1.36473912      -8.50513436
Si      16.33491501       7.08834847       2.74622211       0.26572870      -0.57214862      -0.00570184       0.37719155       0.80381478      -0.45130899      -8.75025497
Si      18.26078588       8.34823166       5.98000084      -1.12942734      -0.20480383      -0.18487129       0.21693068       0.65573019      -1.08724151      -8.71034035
Si      20.19560944       9.51526726       8.99567072       0.72373959      -1.10499259       0.20714142      -0.58391835      -0.39810033      -0.13117187      -8.69056915
Si      18.34960482      10.52571211       2.70594547       0.86652524       1.71760675      -0.04534950      -0.39291690      -0.24900791       0.64718820      -8.54380683
Si      20.08644150      11.75333319       5.85447606      -0.25803211      -0.49534397       0.79908944       1.25678224       0.10633713       0.07719520      -8.71323993
Si      22.11425094      12.73698931       9.10506523      -0.91793452      -0.21298264       0.43776190       0.00792529       0.52749984      -0.91112944      -8.50379896
Si       2.95033069       1.66529663       3.52981504       0.71181859      -0.48305287      -0.40952074      -0.29292592       0.49543271      -0.69658884      -8.71322071
Si       4.82880371       2.85572851       6.61713212      -0.16063785      -0.23281058       2.36633329      -0.76622811      -0.99268539       0.95447046      -8.65001937
Si       2.84792513       3.86668234       0.32089141      -0.02961980      -0.05167363       0.06513021      -0.19789184       0.46956775       0.14676595      -8.71000854
Si       4.83041069       4.96216253       3.51425423       0.56294418       1.74021167       0.48212727       0.19813211      -0.59155693      -0.31950833      -8.74148163
Si       6.75959481       6.15328388       6.61974156      -1.07183531       0.55852930       1.37870671      -0.07106301      -1.46747812      -0.52346383      -8.68303109
Si       4.82493494       7.16665668       0.40388905      -1.33900253       1.42709000       0.65940654      -0.62079649       0.64740098       0.24583444      -8.75617883
Si       6.67304822       8.21918103       3.53293345      -0.16308775       1.45094260      -0.18476107       0.43757877       0.88978061       0.16391452      -8.65918325
Si       8.61093762       9.57632630       6.60708122       1.56653891       0.10746459      -0.50484967       0.47298862      -0.74088886       0.66123848      -8.74247818
Si       4.82064874       0.54104338       0.41459981       0.38397666       0.40173508       0.00931021      -0.01717043       0.25849592       0.20581169      -8.70221755
Si       6.74227216       1.68796501       3.53960939      -0.99730324       0.07578682      -0.82167366       0.75297245      -0.38499755      -0.04784957      -8.75216011
Si       8.58325436       2.76335210       6.75659636       1.28970318      -0.83676010      -1.49533916       0.03763086      -0.84178474      -0.36756961      -8.73135546
Si       6.64762191       3.97319144       0.40490810       0.02188559      -1.37797075       0.11276912       0.84405879       0.51020987      -0.09091681      -8.70793810
Si       8.72038738       4.99234643       3.59215960      -1.10345350      -0.61964826       0.39574547      -0.29386140       0.38802298      -0.34638201      -8.70373928
Si      10.55702874       6.09984849       6.76871139       0.45190021       1.32591757      -0.20479506       0.49827014       0.24022737      -0.13739769      -8.70396257
Si       8.65665286       7.18032232       0.36994814      -0.86333955       1.32828985       0.16766660      -0.25848567       0.52028463       0.41355980      -8.75562195
Si      10.65611483       8.38608462       3.62590061       0.17412535      -0.58672037      -0.64987345      -0.80217783      -0.46896997      -0.48237119      -8.73587956
Si      12.57166086       9.37837768       6.66944286      -1.54340325       0.42099742       1.09819166      -0.18342709       0.50612802      -0.29784609      -8.71043454
Si       8.63840866       0.63303688       0.36702929       0.55861091      -2.31236628      -0.84812674       0.77891336       0.64919600       0.54754382      -8.70868198
Si      10.63825430       1.67660594       3.56470241      -0.67693529       0.05698952      -1.70296774      -0.17351505      -0.36118487      -0.32647368      -8.72816683
Si      12.49480787       2.81375682       6.73433414       1.02015392      -1.24979300      -0.40983429      -0.67960067      -0.13091125       0.18541127      -8.75439895
Si      10.56394123       3.87332455       0.38866613       0.48013596       0.90198485      -0.02558206       0.21100983       0.26270107      -0.39776855      -8.69876852
Si      12.53991569       4.96078020       3.52457110       0.14556283      -0.00718359      -0.06302658      -0.39792282      -0.08143918       0.45390620      -8.72530065
Si      14.49714235       6.02670112       6.66110546      -0.34656255       0.64952066      -0.29325252      -0.78744747       0.62402015       0.08033620      -8.74046901
Si      12.47507058       7.30645064       0.43634564      -0.12658798      -0.43699986       0.56072582       0.00014455      -0.90283386      -0.24430010      -8.71465190
Si      14.49009996       8.26013975       3.46827375      -1.29429204      -1.22607953       1.31787257      -0.89839346       0.20721949       0.44398168      -8.70640842
Si      16.33810538       9.48517362       6.67089705       0.66555055      -1.13729181       1.25985722      -0.13380362      -0.60455550      -0.30503303      -8.77245303
P        0.98617731       0.47914614       0.39122350       1.34225260       0.59978448      -0.50072013      -0.41781371       0.52984048      -0.12575965      -9.86192266
54
Lattice="11.5478352 0.0 0.0 5.773917198490155 10.000722372470358 0.0 5.773916394327279 3.333571176804646 9.428767828939895" Properties=species:S:1:pos:R:3:momenta:R:3:forces:R:3:energies:R:1 spacegroup="_JSON {\"number\": 1, \"setting\": 1}" unit_cell=conventional occupancy="_JSON {\"0\": {\"Si\": 1.0}, \"1\": {\"Si\": 1.0}, \"2\": {\"Si\": 1.0}, \"3\": {\"Si\": 1.0}, \"4\": {\"Si\": 1.0}, \"5\": {\"Si\": 1.0}, \"6\": {\"Si\": 1.0}, \"7\": {\"Si\": 1.0}, \"8\": {\"Si\": 1.0}, \"9\": {\"Si\": 1.0}, \"10\": {\"Si\": 1.0}, \"11\": {\"Si\": 1.0}, \"12\": {\"Si\": 1.0}, \"13\": {\"Si\": 1.0}, \"14\": {\"Si\": 1.0}, \"15\": {\"Si\": 1.0}, \"16\": {\"Si\": 1.0}, \"17\": {\"Si\": 1.0}, \"18\": {\"Si\": 1.0}, \"19\": {\"Si\": 1.0}, \"20\": {\"Si\": 1.0}, \"21\": {\"Si\": 1.0}, \"22\": {\"Si\": 1.0}, \"23\": {\"Si\": 1.0}, \"24\": {\"Si\": 1.0}, \"25\": {\"Si\": 1.0}, \"26\": {\"Si\": 1.0}, \"27\": {\"Si\": 1.0}, \"28\": {\"Si\": 1.0}, \"29\": {\"Si\": 1.0}, \"30\": {\"Si\": 1.0}, \"31\": {\"Si\": 1.0}, \"32\": {\"Si\": 1.0}, \"33\": {\"Si\": 1.0}, \"34\": {\"Si\": 1.0}, \"35\": {\"Si\": 1.0}, \"36\": {\"Si\": 1.0}, \"37\": {\"Si\": 1.0}, \"38\": {\"Si\": 1.0}, \"39\": {\"Si\": 1.0}, \"40\": {\"Si\": 1.0}, \"41\": {\"Si\": 1.0}, \"42\": {\"Si\": 1.0}, \"43\": {\"Si\": 1.0}, \"44\": {\"Si\": 1.0}, \"45\": {\"Si\": 1.0}, \"46\": {\"Si\": 1.0}, \"47\": {\"Si\": 1.0}, \"48\": {\"Si\": 1.0}, \"49\": {\"Si\": 1.0}, \"50\": {\"Si\": 1.0}, \"51\": {\"Si\": 1.0}, \"52\": {\"Si\": 1.0}, \"53\": {\"P\": 1.0}}" energy=-471.2768291553617 stress="-0.0013603512372940946 0.0005079419836796595 -6.434028845586833e-05 0.0005079419836796595 -0.0018260796917233403 -0.00010291015704565258 -6.434028845586833e-05 -0.00010291015704565258 -0.00296474175743308" free_energy=-471.2768291553617 pbc="T T T"
Si       6.71667588       3.88557790       2.75989375      -0.90133808       0.42830645       0.12823886       0.70787605       0.11468963      -0.04473013      -8.75593589
Si       8.74432315       4.95290085       5.94013878      -0.15811004       2.12790081      -0.62753842      -0.74341076       0.44383701       0.06243219      -8.71205243
Si      10.60631079       6.13886397       9.09774605      -0.00287804      -0.09715698      -1.33228132      -0.58816083      -0.23647642      -0.41728409      -8.75683677
Si       8.65057174       7.28408466       2.73186437      -0.10559950      -0.58334538       1.04450594       0.29773882      -0.68613471       0.69738041      -8.70939817
Si      10.50791491       8.36004546       5.96656242      -0.92009092      -0.43832430      -0.17907590       1.06984356      -0.15945324      -0.81084753      -8.77291297
Si      12.50678425       9.51403120       9.01982109       0.28152348      -1.92585204       0.86538662      -0.64301839      -0.41447998       0.42551562      -8.73145416
Si      10.59933028      10.58416917       2.72752597      -0.86909120      -0.03637342      -0.65457325       0.51178915      -0.95192558       0.31078895      -8.76054459
Si      12.50011292      11.69196053       5.86774171       1.03755249       0.19903576      -0.24746876      -0.43747734      -0.63884392       0.18997768      -8.72358058
Si      14.37711556      12.78632936       9.08198290      -0.07994661       0.64424367      -0.29518302       1.08125671      -0.03853910      -0.73239140      -8.57244601
Si      10.59464679       3.79376149       2.81310506       0.37402518      -0.38157575       0.89420020      -0.17308929       1.59344408      -0.88379800      -8.74109834
Si      12.58094662       4.98386649       5.97279045       0.44653757       0.13404962      -0.23011797      -1.17271303       0.09310462      -0.91511385      -8.67782577
Si      14.39528573       6.17054426       8.92226762       0.82733981      -2.13062459      -0.00511815       0.42907334      -0.34664807       1.43062411      -8.66848162
Si      12.52600053       7.15687594       2.72562816       1.33416497      -0.00062973      -0.71484971      -0.58930635       0.08283143       0.75205042      -8.79532256
Si      14.50493209       8.20151379       5.89457369      -0.61743303       0.62564191       0.49129659      -0.97939933       1.47541385      -0.01729530      -8.67377421
Si      16.37458818       9.52973132       8.98505244       1.24400512       0.48209574       1.38078453      -0.36519299      -0.45972684       1.12645772      -8.71938448
Si      14.42130853      10.58237803       2.74623238      -1.27554877       0.49217998       0.03277737       0.04978557      -0.98792423      -0.16756603      -8.67703171
Si      16.31752272      11.62874458       5.95651478       0.21362804      -0.98926109      -0.51193798       0.77417368      -0.13701982      -0.92908490      -8.67167319
Si      18.32115739      12.82663632       9.00634961      -0.81272421      -0.30279902      -1.40349995      -0.30616226      -0.75391800       0.71802398      -8.73475911
Si      14.47274489       3.84538121       2.68839460      -0.20060417      -1.88096777       0.41628698      -0.15936358       0.64365978       0.24759994      -8.70422900
Si      16.34380397       5.03138016       5.80288861       0.78383285       0.49136233       0.96301121       0.40725532      -0.49662200       1.21011302      -8.70167364
Si      18.29980516       6.09774834       8.95093096       0.29671054       1.14721559       1.82597685      -0.64069853      -0.07135349       0.81870156      -8.56269075
Si      16.35536470       7.10823200       2.73368074       0.36100677       1.53915537      -0.30783138      -0.21518791       1.60646077       0.19438150      -8.73253732
Si      18.22678446       8.36061406       5.93349199       0.07884841       0.52838451      -1.43331762       1.17238354       0.11379090      -0.47884349      -8.70270495
Si      20.20641653       9.45156448       9.00014260      -0.33004423      -1.12797345      -0.03265288      -0.66191221       0.36824179      -0.11840080      -8.69312877
Si      18.37426057      10.59902225       2.72060223      -0.00852630       0.97784999       0.42821623      -0.71315499      -0.63974513      -0.03224227      -8.54840253
Si      20.13042891      11.72982473       5.88953536       1.94816788      -0.43935163       0.42039004       1.29728261      -0.03538309      -0.38152021      -8.70320224
Si      22.08052526      12.74687420       9.09724738      -0.12164438       0.55798845      -0.58240423       0.96799330       0.41139118      -0.29696614      -8.54422097
Si       2.97152857       1.66234325       3.49655598       0.03365542       0.35461742      -0.56167599      -0.52927421       0.42072409       0.45640721      -8.74506864
Si       4.79817703       2.81633215       6.75556174      -0.79702415      -1.03362045       2.42485969       0.04980059      -0.07416292      -0.95104098      -8.66581468
Si       2.84928637       3.87747786       0.33157043       0.27174975       0.35069730       0.38295492       0.53962674       0.03301015       0.30705338      -8.74468124
Si       4.85614364       5.01351023       3.52242019       0.20681201       0.05530682      -0.19582373      -0.63549813      -1.21303281      -0.41986003      -8.73797547
Si       6.70923265       6.12938088       6.66146816      -0.68056804      -1.24794038       0.14624869       0.60515184      -0.62967672      -0.78203327      -8.70781724
Si       4.75125686       7.24623656       0.43896808      -1.14019747       1.24144935       0.49268802       0.67085007      -0.77618400      -0.47390975      -8.73786311
Si       6.67845905       8.32271320       3.52806049       0.32718737       2.32101226      -0.04926529       0.27676971       0.20187058      -0.02539583      -8.69377510
Si       8.68737964       9.55012190       6.61035186       0.91406724      -1.06699368       0.66096609      -1.21476911      -0.60921051       0.78224083      -8.72058793
Si       4.83502237       0.57075693       0.41396556       0.07900262       0.68305618      -0.19664405      -0.34828454       0.06954376      -0.42884038      -8.70116955
Si       6.71471625       1.68208857       3.50043554      -0.18773931      -0.18258958      -0.57174294       0.23540664       0.06652393       0.34866121      -8.77424863
Si       8.64767094       2.70625542       6.67789622       1.08789697      -0.90675671      -1.27883317      -0.26752180       0.81323475       0.52153889      -8.75991243
Si       6.68652579       3.92520568       0.40696031       1.45434221      -0.47764135      -0.03582230       0.82030393       0.41355090      -0.09701513      -8.72786498
Si       8.65806558       4.97501602       3.59401646      -1.13139260      -0.05543381      -0.38431515       0.25836673       0.33982559      -0.57509775      -8.69964081
Si      10.60035522       6.16604594       6.75290584       1.16047668       0.96375161      -0.41634716       0.34651400      -0.67657727      -0.21436736      -8.72232916
Si       8.61287146       7.26045265       0.39044774      -0.61664905       1.51657388       0.55725565       0.47099695      -0.30297135       0.19327611      -8.75650998
Si      10.63759039       8.34273291       3.57591508      -0.77663117      -0.96034561      -1.17249677      -0.39511812      -0.05501840      -0.15919935      -8.67865322
Si      12.49421560       9.41559367       6.70610546      -1.24341667       0.89889257       0.17878310       0.47510429       0.11958035      -0.76251007      -8.66843641
Si       8.68575690       0.55151396       0.34787239       0.92452613      -0.62564990       0.15259142      -0.44963875       1.32435398       0.68921152      -8.71908165
Si      10.60018815       1.65501439       3.48313198      -0.70755700      -1.01943902      -1.07170032       0.08343398      -0.86392952       0.97753248      -8.71756092
Si      12.51082850       2.75143241       6.71572113      -0.48553600      -0.99273030      -0.44091491      -0.96953898       0.38276441      -0.36031859      -8.75972317
Si      10.59166543       3.92416297       0.37849387       0.47027235       0.89954354      -0.20864772      -0.20987193      -0.27047583       0.20237912      -8.65627149
Si      12.53638329       4.95220606       3.54024019      -0.18021964      -0.37285376       0.64378468      -0.01297841      -0.28956365       0.39021209      -8.70663471
Si      14.46093481       6.07361088       6.64657932      -0.76969879       0.92403331      -0.28877565       0.22425336      -0.20270422      -0.01117174      -8.76799391
Si      12.47665830       7.26055453       0.44111442       0.34627728      -1.06627057      -0.58925977       0.62867967       0.05877798      -1.04337902      -8.71874509
Si      14.40726798       8.21450838       3.54538665      -1.46426040      -0.31941612       1.44889169       0.64770935       0.98018840      -0.23522751      -8.67421919
Si      16.36025827       9.41149268       6.71595208       0.07595129      -1.45797344       0.37774869      -0.52835871       0.21844665      -0.61422015      -8.77606877
P        1.02274105       0.52922177       0.36844076       0.00490935       1.53554540      -0.33772861      -1.15031898       0.62844024       0.32711111      -9.79087892
54
Lattice="11.5478352 0.0 0.0 5.773917198490155 10.000722372470358 0.0 5.773916394327279 3.333571176804646 9.428767828939895" Properties=species:S:1:pos:R:3:momenta:R:3:forces:R:3:energies:R:1 spacegroup="_JSON {\"number\": 1, \"setting\": 1}" unit_cell=conventional occupancy="_JSON {\"0\": {\"Si\": 1.0}, \"1\": {\"Si\": 1.0}, \"2\": {\"Si\": 1.0}, \"3\": {\"Si\": 1.0}, \"4\": {\"Si\": 1.0}, \"5\": {\"Si\": 1.0}, \"6\": {\"Si\": 1.0}, \"7\": {\"Si\": 1.0}, \"8\": {\"Si\": 1.0}, \"9\": {\"Si\": 1.0}, \"10\": {\"Si\": 1.0}, \"11\": {\"Si\": 1.0}, \"12\": {\"Si\": 1.0}, \"13\": {\"Si\": 1.0}, \"14\": {\"Si\": 1.0}, \"15\": {\"Si\": 1.0}, \"16\": {\"Si\": 1.0}, \"17\": {\"Si\": 1.0}, \"18\": {\"Si\": 1.0}, \"19\": {\"Si\": 1.0}, \"20\": {\"Si\": 1.0}, \"21\": {\"Si\": 1.0}, \"22\": {\"Si\": 1.0}, \"23\": {\"Si\": 1.0}, \"24\": {\"Si\": 1.0}, \"25\": {\"Si\": 1.0}, \"26\": {\"Si\": 1.0}, \"27\": {\"Si\": 1.0}, \"28\": {\"Si\": 1.0}, \"29\": {\"Si\": 1.0}, \"30\": {\"Si\": 1.0}, \"31\": {\"Si\": 1.0}, \"32\": {\"Si\": 1.0}, \"33\": {\"Si\": 1.0}, \"34\": {\"Si\": 1.0}, \"35\": {\"Si\": 1.0}, \"36\": {\"Si\": 1.0}, \"37\": {\"Si\": 1.0}, \"38\": {\"Si\": 1.0}, \"39\": {\"Si\": 1.0}, \"40\": {\"Si\": 1.0}, \"41\": {\"Si\": 1.0}, \"42\": {\"Si\": 1.0}, \"43\": {\"Si\": 1.0}, \"44\": {\"Si\": 1.0}, \"45\": {\"Si\": 1.0}, \"46\": {\"Si\": 1.0}, \"47\": {\"Si\": 1.0}, \"48\": {\"Si\": 1.0}, \"49\": {\"Si\": 1.0}, \"50\": {\"Si\": 1.0}, \"51\": {\"Si\": 1.0}, \"52\": {\"Si\": 1.0}, \"53\": {\"P\": 1.0}}" energy=-471.63801591078027 stress="-0.0014873239594258433 -0.0014499382270103014 -0.001504257493855667 -0.0014499382270103014 -0.0011548292012287598 3.402567487907202e-05 -0.001504257493855667 3.402567487907202e-05 -0.0009659567252955407" free_energy=-471.63801591078027 pbc="T T T"
Si       6.70003283       3.90509115       2.76020847       0.25918286       0.19656071      -0.19789532       0.66878681      -0.34436409      -0.35459685      -8.77431717
Si       8.71385895       5.06271721       5.91253425      -0.82145417       1.72762990      -0.41622211      -0.02843590      -0.86738499       0.10579511      -8.68898587
Si      10.59395452       6.13314965       9.02325310      -0.23279508       0.02428338      -1.29669177       0.32005270       0.32168395       0.39988717      -8.74045099
Si       8.64796104       7.23377692       2.80076935      -0.16782817      -1.16382076       1.31250554      -0.37114779      -0.01353637      -0.35305824      -8.74353757
Si      10.50871782       8.33560479       5.92191346       0.95387662      -0.38239355      -1.50825683       1.09699602       0.26801664      -0.75462735      -8.75065942
Si      12.49714729       9.41698977       9.07437968      -0.57222307      -1.40161563       1.03003899      -0.36298985       1.02843809      -0.27638454      -8.71183844
Si      10.57604391      10.54705660       2.70636977      -0.04657045      -1.26046792      -0.16069139       0.41945156      -0.50165322       0.27617820      -8.74622939
Si      12.52882501      11.68152784       5.86408527      -0.02519751      -0.47016233       0.13291447      -0.76511165      -0.14115422       0.28673364      -8.71324014
Si      14.40870072      12.82192248       9.03807651       1.08325952       0.76180679      -1.30897412       0.32051205       0.13245358      -0.47093373      -8.58837979
Si      10.60135239       3.82764226       2.82406945      -0.20624024       1.37490007      -0.43593551      -0.51691173       0.48291944      -0.73996283      -8.71825533
Si      12.56044323       4.98805473       5.93129880      -1.09201535      -0.08017428      -1.17417186      -0.64446172      -0.32630356      -0.22284443      -8.73098199
Si      14.45464227       6.06052753       8.96991816       1.39109267      -1.74048840       1.57327416       0.25675517       0.92402960       0.48200837      -8.71166936
Si      12.56248821       7.15327691       2.71525765      -0.03977116      -0.22647896       0.22200198      -0.96788375      -0.26258708       0.39799636      -8.74368051
Si      14.43364599       8.28565071       5.92332518      -2.04765677       2.36684378       0.66468818      -0.76147803       0.64523252       0.20872213      -8.74204513
Si      16.40952624       9.53626096       9.08222736      -0.14634122      -0.23032105       1.92939407      -1.26439253      -0.43307649      -0.38299275      -8.71175205
Si      14.36209989      10.56409756       2.74120307      -0.88861004      -1.20478836      -0.18580348       0.40750901      -1.04776326      -0.01705418      -8.69325188
Si      16.35464157      11.56712323       5.89523978       1.03244130      -1.38796930      -1.71945170       0.13271041      -0.24602703      -0.51808753      -8.72845575
Si      18.27630388      12.78600118       8.96852996      -0.74224595      -1.10967726      -0.01088391       0.30347287      -0.22202560       0.82895959      -8.70255229
Si      14.45783374       3.79073492       2.71604312      -0.33785588       0.05967512       0.56921447      -0.03804307       1.64716659      -0.00528887      -8.71035709
Si      16.38417272       5.02895430       5.88605047       0.45793281      -0.71226478       1.85658223      -0.73178291      -0.98542940      -0.12928370      -8.70455964
Si      18.29177316       6.15307127       9.05718839      -0.51792919       0.94631924       1.83537600      -0.30729076      -0.13244745      -0.69673876      -8.59469326
Si      16.36225146       7.23549596       2.73633557      -0.13729002       2.93520426       0.55925456      -0.37260930       0.15748896       0.76505539      -8.73663635
Si      18.27032664       8.38209219       5.85375325       1.35103471       0.12538962      -1.33289446       0.28997406      -0.54521099       0.58694948      -8.69738476
Si      20.17188138       9.41324006       8.99745913      -0.78158390      -0.27384933       0.00863843       0.14712491       0.59321615       0.18444620      -8.73203819
Si      18.34830692      10.62784448       2.73470820      -0.89660776       0.21872915       0.00382791      -0.38883161      -0.26080000      -0.45253957      -8.55734718
Si      20.25921385      11.70352151       5.90046332       2.43951311      -0.61954974       0.07761106      -0.72210101      -0.26218946      -0.07694936      -8.70720384
Si      22.11277325      12.78732348       9.07133707       1.27086377       0.90493595      -0.11802289       0.66451930       0.09664264       0.78550935      -8.54946669
Si       2.95702298       1.68404262       3.49269414      -0.46881481       0.20149287       0.48738722      -0.08214861      -0.60208815       0.74562875      -8.73303120
Si       4.77327033       2.77004314       6.82497026       0.12002210      -0.54994393      -0.04110844       1.11708332       0.64015162      -1.95356996      -8.65621312
Si       2.88595795       3.89143868       0.36477191       1.08342779       0.09859964       0.87938726       0.37657647      -0.28744380       0.28964530      -8.74707925
Si       4.83748397       4.98629753       3.50377194      -0.93247022      -0.71482357      -0.33642083      -0.67923274       0.23145816       0.26923538      -8.72721740
Si       6.70500337       6.06204906       6.65272442       0.61936585      -0.90468556      -0.18669412       0.96447647       0.98319705       0.33683949      -8.70754263
Si       4.72164923       7.27414676       0.44111422       0.04080133      -0.22406730      -0.44411319       0.80681990      -0.97227992      -0.59601076      -8.69187274
Si       6.70685962       8.43865034       3.52055262       0.76921145       1.83050495      -0.30597838       0.32149584      -0.85448735      -0.28969411      -8.73772466
Si       8.68401159       9.47974028       6.66696498      -0.94509327      -1.46379837       1.27052495      -0.84704163      -0.01039379      -0.10247931      -8.75858121
Si       4.82555782       0.60433851       0.38546098      -0.40885339       0.50295068      -0.86023368      -0.22801833      -0.29716200      -0.31629614      -8.73809787
Si       6.70574561       1.67916716       3.48653584      -0.27522974       0.10365089       0.06931722      -0.23220642       0.18843527       0.45872762      -8.76298604
Si       8.69381925       2.70280521       6.63263136       0.68734205       0.88430486      -0.49426452      -0.21723124       1.25799738       0.34286336      -8.70879533
Si       6.78142502       3.90244339       0.40247576       1.89927391      -0.66041196      -0.10501033      -0.20405061      -0.61639733       0.01383619      -8.73570845
Si       8.61466612       4.98315053       3.55757641      -0.43532942       0.31172368      -0.84489066       0.60377426       0.12214196       0.04312297      -8.74094411
Si      10.66616440       6.18503991       6.71900578       1.15596615      -0.26886686      -0.94758102      -0.41305659      -0.79226262      -0.48565337      -8.74212482
Si       8.59936161       7.31832575       0.42751041       0.06501354       0.54902742       0.85753042       0.34024798      -0.84983480       0.18641565      -8.71685040
Si      10.59124704       8.29403194       3.51491639      -0.79860847      -0.84346578      -1.03649012       0.34994272       0.15327575       0.29295799      -8.69262265
Si      12.44971752       9.46160270       6.69213820      -0.45189602       0.75206600      -0.53013436       0.47823304      -0.28121271      -0.06394129      -8.70274493
Si       8.70420606       0.55960281       0.37799804      -0.34135696       0.61322735       0.88118833      -0.93486541       0.07622280       0.24485249      -8.74081407
Si      10.56605271       1.58151844       3.46633762      -0.62702529      -1.44015772       0.36141949      -0.04503764       0.42960939       0.71739142      -8.73393516
Si      12.46466899       2.71516762       6.67163546      -0.89988172      -0.38972048      -1.29160089       0.46887087       0.39207786      -0.55461313      -8.74617127
Si      10.60400583       3.95558975       0.38343799      -0.06777490       0.22756106       0.52576808      -0.47911414      -0.55055886       0.70454423      -8.68562610
Si      12.53055765       4.92590448       3.58161585       0.00757898      -0.51648245       0.75322123       0.17649932       0.14736027      -0.32105685      -8.73119625
Si      14.43625786       6.10986561       6.63527374      -0.11856071       0.42562034      -0.04243602       0.43767094      -0.34456784       0.36632667      -8.76946549
Si      12.52276233       7.21690273       0.37973912       1.39081666      -0.45484269      -1.45905002       0.51316459       0.61654678       0.06884174      -8.76159590
Si      14.36599302       8.24050102       3.60566791      -0.03911588       1.33085767       0.74402999       0.92732578       1.05382115      -0.64880731      -8.69204241
Si      16.34883352       9.35212327       6.72077477      -0.36321175      -0.69439401      -0.01246341       0.02745943       0.65973803       0.07638730      -8.75280360
P        0.98908417       0.61642969       0.36527533      -1.20457869       1.91581694       0.19926911      -0.33203081      -0.19867927       0.31760741      -9.79425877
54
Lattice="11.5478352 0.0 0.0 5.773917198490155 10.000722372470358 0.0 5.773916394327279 3.333571176804646 9.428767828939895" Properties=species:S:1:pos:R:3:momenta:R:3:forces:R:3:energies:R:1 spacegroup="_JSON {\"number\": 1, \"setting\": 1}" unit_cell=conventional occupancy="_JSON {\"0\": {\"Si\": 1.0}, \"1\": {\"Si\": 1.0}, \"2\": {\"Si\": 1.0}, \"3\": {\"Si\": 1.0}, \"4\": {\"Si\": 1.0}, \"5\": {\"Si\": 1.0}, \"6\": {\"Si\": 1.0}, \"7\": {\"Si\": 1.0}, \"8\": {\"Si\": 1.0}, \"9\": {\"Si\": 1.0}, \"10\": {\"Si\": 1.0}, \"11\": {\"Si\": 1.0}, \"12\": {\"Si\": 1.0}, \"13\": {\"Si\": 1.0}, \"14\": {\"Si\": 1.0}, \"15\": {\"Si\": 1.0}, \"16\": {\"Si\": 1.0}, \"17\": {\"Si\": 1.0}, \"18\": {\"Si\": 1.0}, \"19\": {\"Si\": 1.0}, \"20\": {\"Si\": 1.0}, \"21\": {\"Si\": 1.0}, \"22\": {\"Si\": 1.0}, \"23\": {\"Si\": 1.0}, \"24\": {\"Si\": 1.0}, \"25\": {\"Si\": 1.0}, \"26\": {\"Si\": 1.0}, \"27\": {\"Si\": 1.0}, \"28\": {\"Si\": 1.0}, \"29\": {\"Si\": 1.0}, \"30\": {\"Si\": 1.0}, \"31\": {\"Si\": 1.0}, \"32\": {\"Si\": 1.0}, \"33\": {\"Si\": 1.0}, \"34\": {\"Si\": 1.0}, \"35\": {\"Si\": 1.0}, \"36\": {\"Si\": 1.0}, \"37\": {\"Si\": 1.0}, \"38\": {\"Si\": 1.0}, \"39\": {\"Si\": 1.0}, \"40\": {\"Si\": 1.0}, \"41\": {\"Si\": 1.0}, \"42\": {\"Si\": 1.0}, \"43\": {\"Si\": 1.0}, \"44\": {\"Si\": 1.0}, \"45\": {\"Si\": 1.0}, \"46\": {\"Si\": 1.0}, \"47\": {\"Si\": 1.0}, \"48\": {\"Si\": 1.0}, \"49\": {\"Si\": 1.0}, \"50\": {\"Si\": 1.0}, \"51\": {\"Si\": 1.0}, \"52\": {\"Si\": 1.0}, \"53\": {\"P\": 1.0}}" energy=-471.2855645598062 stress="-0.00047934105543754365 0.000323590613133891 0.0002879255061049218 0.000323590613133891 -0.0013996618016392226 0.000549191554208916 0.0002879255061049218 0.000549191554208916 0.0006710034661224803" free_energy=-471.2855645598062 pbc="T T T"
Si       6.72802375       3.90245278       2.73732014       0.55976893      -0.25792093      -0.60955719      -0.28359468      -0.20377829      -0.10389318      -8.78034499
Si       8.68306364       5.11092807       5.89130033      -0.13272381       0.01941951      -0.45733183       0.80697369      -1.22334590      -0.13511809      -8.70582403
Si      10.60341390       6.14691560       8.97466842       0.71987476       0.45237398      -0.53810572       0.81554622       0.14173975       0.48058796      -8.72005343
Si       8.62204659       7.18411235       2.84538673      -0.79979410      -0.52407790       0.24249712      -0.29222123       0.77702767      -0.93335474      -8.72748940
Si      10.58539771       8.32885719       5.82662853       1.64584404       0.12728774      -1.84618602      -0.15946078       0.28272334       0.32385323      -8.72012372
Si      12.46252970       9.38798193       9.11022364      -0.54698042       0.23740157       0.24822716       0.42912142       0.82086923      -0.63067586      -8.69171400
Si      10.58257300      10.47548130       2.70421099       0.16081414      -1.20255759      -0.01522737      -0.10370305       0.53291989      -0.08384426      -8.72541408
Si      12.50645718      11.66248403       5.88021782      -0.60441766      -0.06162444       0.41895385       0.10703316       0.60509040       0.03874050      -8.73109338
Si      14.46419129      12.86237534       8.96200463       0.79388352       0.66033797      -1.37659816      -0.62065673      -0.32382598       0.36446200      -8.53277489
Si      10.57316709       3.89919672       2.78312457      -0.77355095       1.04162942      -0.88028218      -0.15426541      -0.75070876       0.22439046      -8.67914378
Si      12.49650574       4.96929081       5.87435468      -0.99138794      -0.64971230      -0.77737640       0.72872764      -0.38004515       0.62430803      -8.75506184
Si      14.53106958       6.01739585       9.05343307       1.38703123       0.19673496       1.32070040      -0.28152488       1.29197211      -0.65186131      -8.72448563
Si      12.53428638       7.13487161       2.73551101      -0.76706546      -0.37191823       0.42803333       0.06038760       0.13166017      -0.08793616      -8.68543970
Si      14.31465314       8.41402365       5.96336765      -2.05502766       2.12228075       0.75686833       0.92863372      -0.94333033      -0.19500803      -8.74588709
Si      16.36105679       9.51322374       9.15633625      -1.43813001      -0.52733481       0.73908892      -0.27038548       0.01952363      -1.02118925      -8.70483798
Si      14.33079501      10.47637392       2.73662212      -0.34950629      -1.73456583       0.10009867       0.24009861       0.54391178       0.31185155      -8.74140576
Si      16.40182290      11.49284054       5.80111601       0.59220215      -1.25147571      -1.52069145      -0.54885112       0.50577489       0.83933307      -8.74683603
Si      18.25123339      12.73115300       8.98572510      -0.20558743      -0.75335348       0.36406856       0.34262007       0.66383951      -0.33559107      -8.68324805
Si      14.44000653       3.84530240       2.74634347      -0.31374379       1.64909999       0.61840307       0.07883397       0.23836670       0.10667218      -8.77629275
Si      16.38008818       4.96206565       5.96228800      -0.49065374      -1.54547701       0.80565588      -0.28875698       0.15770469      -1.10652756      -8.73449293
Si      18.26354168       6.19924941       9.11715570      -0.35572347       0.84767427       0.35998496       0.47571367      -0.00691110      -1.06773577      -8.56717192
Si      16.34388801       7.37500536       2.78780336      -0.46671381       2.02573420       1.19801248       0.00167078      -1.25905849      -0.01238804      -8.66781480
Si      18.33300638       8.36508780       5.81390718       0.69603974      -0.78666390      -0.12655630      -1.04720444      -0.59441065       0.83381067      -8.70058666
Si      20.15062594       9.41343736       9.00710343       0.21780926       0.08546408       0.36663398       1.09362952      -0.14379332       0.21715993      -8.73569644
Si      18.29415365      10.63778874       2.71793138      -1.02376597       0.29992512      -0.58849974       0.17449022       0.27226200      -0.23611431      -8.57087937
Si      20.33893140      11.65768283       5.90470115       0.35606147      -1.14903773       0.15393618      -1.67890834      -0.33156825       0.20735281      -8.67476694
Si      22.18999124      12.83413738       9.09195569       1.36491392       0.77167756       0.71618509      -0.53671184      -0.33331431       0.09235064      -8.54289998
Si       2.93501588       1.66938977       3.53825888      -0.29136528      -0.69305919       1.02903318       0.22942347      -0.37185856      -0.10260354      -8.72162912
Si       4.82580085       2.76715004       6.76360058       1.80536892       0.37156873      -1.85650835       0.80049338       0.36641939      -0.27376678      -8.75797456
Si       2.94701003       3.88740770       0.41705861       1.04539925      -0.18673401       1.00439141      -0.38635966      -0.04459564      -0.13317417      -8.72655828
Si       4.77597724       4.97195141       3.50376291      -1.09999070       0.37612467       0.43824232       0.52187530       1.06677182       0.67561745      -8.64625932
Si       6.76170461       6.06018156       6.66326259       1.19577976       0.85069590       0.64817767      -0.34127084       1.06317498       0.58411193      -8.67933333
Si       4.75114926       7.23471653       0.40506427       0.97653169      -1.03052199      -0.68905017       0.38414585      -0.00473410       0.33515146      -8.70341065
Si       6.75730703       8.49203660       3.49427323       1.07177308       0.10265961      -0.63817652      -0.00993608      -1.24894434      -0.06684529      -8.73310152
Si       8.62504609       9.40747069       6.71555420      -0.85196158      -1.20346405       0.37369063       0.89821150       0.33478024      -0.91240266      -8.72875245
Si       4.80121752       0.61711096       0.33663381      -0.39129323      -0.02385385      -0.83134912       0.27035815      -0.33000707       0.33996404      -8.75485182
Si       6.68442803       1.68590146       3.50569839      -0.46537610       0.01487387       0.59993489       0.03339542      -0.33903377       0.22143039      -8.73207824
Si       8.72237672       2.78551875       6.61019221       0.40708878       1.96565823      -0.54705029      -0.19125385       0.07749074      -0.37058913      -8.66276755
Si       6.86293732       3.84305111       0.39730057       1.04632844      -1.49275731      -0.12166893      -0.85187110      -0.19776473      -0.09661161      -8.71572248
Si       8.61386322       4.99899826       3.52426133       0.33280087       0.18883071      -0.28314065       0.32344220      -0.27419799       0.59578888      -8.75489679
Si      10.69954864       6.14991033       6.65198639      -0.06606341      -0.84532128      -1.53151737      -1.11816114       0.07321630      -0.19203282      -8.74209347
Si       8.60987402       7.31761082       0.47525365       0.20689076      -0.45419250       0.84359171      -0.16547748      -0.38600761      -0.28121634      -8.68474803
Si      10.56797181       8.25540194       3.47334553      -0.05267235      -0.64890163      -0.56111971       0.49688487       0.08623315       0.24838544      -8.75297984
Si      12.43706466       9.48958919       6.67464780      -0.22408556       0.36251216       0.09678173      -0.27251662      -0.09395209       0.85187358      -8.74011237
Si       8.65896471       0.57271322       0.42613082      -1.17961835      -0.43584593       0.80484119      -0.14751051      -1.15773075      -0.34994703      -8.71058144
Si      10.52779827       1.53596057       3.49804901      -0.89219486      -0.12910455       0.51787605      -0.27712127       1.10869905      -0.56552099      -8.68764772
Si      12.44873370       2.70739674       6.59278234       0.44724096       0.01151779      -1.49294156       1.08818318       0.06508409       0.29785914      -8.69723534
Si      10.58222762       3.94847710       0.43657128      -0.71328551      -0.41434899       1.39712310      -0.27781025      -0.22143175       0.29998497      -8.75414907
Si      12.53405274       4.91045288       3.59780096       0.01887989       0.01814807      -0.30406351      -0.23630644       0.50519724      -0.96363197      -8.74449530
Si      14.43960246       6.12169341       6.64982344       0.08437381       0.08618152       0.61496423      -0.17951639      -0.11264896       0.44175729      -8.67775483
Si      12.59499122       7.21406130       0.32389538       0.91584571       0.23655373      -0.37253492      -1.18269299       0.19595800       1.23372239      -8.75073842
Si      14.38571080       8.33810696       3.62114278       0.47192740       2.05771108      -0.04344488      -0.29672247      -0.25541532      -0.21190790      -8.76222736
Si      16.33636310       9.33874747       6.72752524      -0.06684421       0.09961702       0.31648403       0.21376295       0.33809039       0.26966774      -8.68042801
P        0.93283300       0.69125051       0.38311682      -0.91094882       1.09413090       0.48649819       0.65711549      -0.73408792       0.06130011      -9.81125769
54
Lattice="11.5478352 0.0 0.0 5.773917198490155 10.000722372470358 0.0 5.773916394327279 3.333571176804646 9.428767828939895" Properties=species:S:1:pos:R:3:momenta:R:3:forces:R:3:energies:R:1 spacegroup="_JSON {\"number\": 1, \"setting\": 1}" unit_cell=conventional occupancy="_JSON {\"0\": {\"Si\": 1.0}, \"1\": {\"Si\": 1.0}, \"2\": {\"Si\": 1.0}, \"3\": {\"Si\": 1.0}, \"4\": {\"Si\": 1.0}, \"5\": {\"Si\": 1.0}, \"6\": {\"Si\": 1.0}, \"7\": {\"Si\": 1.0}, \"8\": {\"Si\": 1.0}, \"9\": {\"Si\": 1.0}, \"10\": {\"Si\": 1.0}, \"11\": {\"Si\": 1.0}, \"12\": {\"Si\": 1.0}, \"13\": {\"Si\": 1.0}, \"14\": {\"Si\": 1.0}, \"15\": {\"Si\": 1.0}, \"16\": {\"Si\": 1.0}, \"17\": {\"Si\": 1.0}, \"18\": {\"Si\": 1.0}, \"19\": {\"Si\": 1.0}, \"20\": {\"Si\": 1.0}, \"21\": {\"Si\": 1.0}, \"22\": {\"Si\": 1.0}, \"23\": {\"Si\": 1.0}, \"24\": {\"Si\": 1.0}, \"25\": {\"Si\": 1.0}, \"26\": {\"Si\": 1.0}, \"27\": {\"Si\": 1.0}, \"28\": {\"Si\": 1.0}, \"29\": {\"Si\": 1.0}, \"30\": {\"Si\": 1.0}, \"31\": {\"Si\": 1.0}, \"32\": {\"Si\": 1.0}, \"33\": {\"Si\": 1.0}, \"34\": {\"Si\": 1.0}, \"35\": {\"Si\": 1.0}, \"36\": {\"Si\": 1.0}, \"37\": {\"Si\": 1.0}, \"38\": {\"Si\": 1.0}, \"39\": {\"Si\": 1.0}, \"40\": {\"Si\": 1.0}, \"41\": {\"Si\": 1.0}, \"42\": {\"Si\": 1.0}, \"43\": {\"Si\": 1.0}, \"44\": {\"Si\": 1.0}, \"45\": {\"Si\": 1.0}, \"46\": {\"Si\": 1.0}, \"47\": {\"Si\": 1.0}, \"48\": {\"Si\": 1.0}, \"49\": {\"Si\": 1.0}, \"50\": {\"Si\": 1.0}, \"51\": {\"Si\": 1.0}, \"52\": {\"Si\": 1.0}, \"53\": {\"P\": 1.0}}" energy=-470.5926929346578 stress="-0.0006488190512062036 0.0025516970510422927 0.0010622598286716871 0.0025516970510422927 -0.0014213786035113022 0.0007015245132954631 0.0010622598286716871 0.0007015245132954631 -0.0007328190532749851" free_energy=-470.5926929346578 pbc="T T T"
Si       6.73847544       3.88450553       2.70872917      -0.25473754      -0.36581757      -0.33664959      -0.66422557       0.03585369       0.45915196      -8.73049632
Si       8.70210284       5.07490826       5.86308145       0.64005571      -1.10713218      -0.57214141      -0.02157648      -0.12278326       0.03882900      -8.76945405
Si      10.66700151       6.16930076       8.96033983       1.50558217       0.26737881      -0.11505024       0.03380858      -0.38368640       0.06363564      -8.72236370
Si       8.57998782       7.18535602       2.82406334      -0.55986901       0.44467136      -0.96506116       0.65257165       0.30145397      -0.59030015      -8.72888370
Si      10.65260950       8.34119203       5.75394237       0.72021372       0.24244105      -0.76106262      -0.93954414      -0.10466210       0.97488834      -8.67027227
Si      12.45947640       9.41591137       9.10210493       0.54496533       0.52662918      -0.45236106       0.86283751      -0.34056679      -0.21366509      -8.69133916
Si      10.58388925      10.44005686       2.69768767      -0.14161452      -0.08494604      -0.25222714      -0.23134009       0.79074844      -0.15963554      -8.71429432
Si      12.49422391      11.68198898       5.89798889       0.41144309       0.70678833       0.15667897       1.16459622       0.23597094      -0.35331559      -8.71572372
Si      14.47621221      12.87952284       8.91132892      -0.38783336      -0.05955799      -0.45995903      -0.83259069      -0.53393736       0.75086833      -8.44678015
Si      10.53414352       3.91948991       2.75993240      -0.58909675      -0.30077764       0.22353394       0.33376244      -0.88810801       1.09815958      -8.67206189
Si      12.48081336       4.92604531       5.85776727       0.43941035      -0.84375433       0.07353121       0.92445360       0.22620632       0.36379197      -8.74896705
Si      14.58396032       6.05815854       9.09345845       0.45816490       0.91349458       0.18583368      -0.95041168      -0.39974764      -0.74523958      -8.72584254
Si      12.50777709       7.12655778       2.75034112      -0.08517298       0.15575504       0.08279078       0.68763160       0.52942739      -0.29836299      -8.68356950
Si      14.26237402       8.47544431       5.98917785       0.25411886       0.07856317       0.17462371       1.66719678      -1.50587475      -0.38665365      -8.67693983
Si      16.29142979       9.48837403       9.15752699      -0.96085245      -0.41029402      -0.59944798       0.73833361       0.07400590      -0.65667663      -8.69705790
Si      14.31716825      10.43191607       2.74981872      -0.25432244       0.41306838       0.28980996      -0.08548285       1.95253581      -0.10116886      -8.71433168
Si      16.41246741      11.45793525       5.76625515      -0.13802863       0.10424707       0.29928546      -0.37663079       1.22855191       1.26112405      -8.68789947
Si      18.25080498      12.72121385       8.98227136       0.12161278       0.35013869      -0.60603291       0.07970302       0.56846209      -0.77537170      -8.70038773
Si      14.43007233       3.92000545       2.78315253       0.01904182       0.88782303       0.77803203       0.40456986      -0.98953956       0.08629140      -8.76187753
Si      16.35420282       4.91191612       5.96016070      -0.33142077       0.04462707      -0.82399837       0.36395497       1.73556328      -0.84926927      -8.70453787
Si      18.26665888       6.24292481       9.10208375       0.48038748       0.79344956      -0.73311736       0.51160737      -0.10245488      -0.28499528      -8.56675978
Si      16.32585055       7.42340866       2.83958203      -0.13187566      -0.26309754       0.62112264       0.34218422      -1.59152518      -0.62800303      -8.63624033
Si      18.32439731       8.30840386       5.83346705      -0.99719078      -1.16319658       0.73697034      -0.95245320       0.23815510       0.31169854      -8.72473616
Si      20.20186551       9.40895236       9.03157016       1.56235490      -0.23916599       0.50380005       0.43973509      -0.09405689      -0.02724281      -8.76490612
Si      18.25154519      10.66218834       2.68650632      -0.54298830       0.54545900      -0.43736313       0.40806734      -0.04507431       0.43004490      -8.57984741
Si      20.30433502      11.59197482       5.92382901      -1.34487958      -1.20064777       0.58728862      -0.40639179       0.26051075       0.23980753      -8.71473186
Si      22.22999888      12.85473950       9.11974163       0.03643361      -0.08932799       0.13953840      -1.02464324      -0.73155275      -0.70946479      -8.48093311
Si       2.92761905       1.62859143       3.57764591      -0.03336551      -0.68379650       0.32692571       0.06766982       0.33353347      -0.67514524      -8.68432535
Si       4.92714291       2.78752465       6.67909446       1.55084922       0.19376314      -0.99576331      -1.16091872      -0.42050029       1.18130119      -8.71634599
Si       2.98362476       3.87884628       0.45998372       0.36002184      -0.10770002       0.56831630      -0.35877799       0.08398178      -0.38849629      -8.71603885
Si       4.74979490       5.03240463       3.55038152       0.22369879       1.84091908       1.22871238       1.00976809       0.72099370       0.23580220      -8.65930059
Si       6.79922015       6.12925760       6.71201777       0.12199506       1.39031917       1.01716207      -0.81473714      -0.46526689      -0.16672189      -8.68389722
Si       4.80833208       7.19487441       0.39288072       1.04898909      -0.26202162       0.38603901      -0.20985933       0.87744736       0.97198355      -8.68164208
Si       6.80218599       8.45917214       3.46519698       0.40357107      -1.08833501      -0.33048266      -0.92818324      -0.22520385       0.48354547      -8.71233474
Si       8.62494187       9.35852362       6.70214796       0.90216931      -0.68976832      -0.77877028       1.12440034       0.23189773      -0.51294414      -8.70067207
Si       4.79607938       0.60684825       0.31058022       0.25131683      -0.28557736      -0.13149749       0.48790105      -0.01522678       0.46377622      -8.75332573
Si       6.66464414       1.66994613       3.54081194      -0.25398446      -0.63635225       0.64026576       0.17028498      -0.39056622      -0.16856319      -8.70767375
Si       8.73603321       2.87186483       6.56618959       0.11991821       0.96077779      -1.06723840      -0.16408480      -1.36275205      -0.12500358      -8.63575099
Si       6.88283371       3.77413251       0.38497877      -0.26171785      -0.82366750      -0.36685661      -0.74815652       1.01932048      -0.16342495      -8.71927344
Si       8.63504930       4.99758032       3.53041423       0.29741109      -0.20737631       0.41249914      -0.36985967      -0.14470909       0.18984238      -8.74745620
Si      10.65705249       6.11746979       6.57336118      -1.34969638      -0.27992256      -1.28897116      -0.32274813       0.51870232       0.50808554      -8.73418731
Si       8.60892799       7.28819833       0.49952404      -0.31222954      -0.50320354      -0.08852446      -0.43115949       0.25695827      -0.95134962      -8.67786554
Si      10.57866488       8.22554442       3.44942861       0.33159384      -0.44390990      -0.42765455       0.00284176       0.26913762      -0.04318140      -8.75907949
Si      12.40822547       9.51180939       6.71571017      -0.87162922       0.57556698       1.41646976      -0.23856782       0.24208592       0.63499022      -8.74195645
Si       8.60254032       0.51353206       0.44791041      -0.77366585      -1.55058276      -0.07044850       0.63419374      -0.14182906      -0.72270245      -8.69522454
Si      10.47229014       1.56938856       3.49233649      -1.14321678       1.30346054      -0.81223282       0.04485457       0.72055474      -0.85655010      -8.67723326
Si      12.50737528       2.70309806       6.53503593       1.58585004      -0.30181524      -0.56831303       0.29738725      -0.41531140       0.86277338      -8.71092938
Si      10.54421016       3.92642600       0.50727528      -0.51774871      -0.27296190       1.02242667       0.56382975       0.37095023      -0.76579540      -8.74552694
Si      12.51999132       4.93027064       3.54969321      -0.62911098       0.68255381      -1.34169490      -0.51447135       0.28890046      -0.24348986      -8.74992911
Si      14.43283835       6.12346613       6.69519210      -0.37246371      -0.00090480       1.01198272      -0.30341388      -0.03901609       0.03530471      -8.60719157
Si      12.58946040       7.22456206       0.35236389      -1.10223856      -0.00266621       1.33635713      -1.12207872      -0.44050611       0.76397718      -8.73358655
Si      14.38820426       8.41284613       3.62352288      -0.48797043       0.41910291       0.33610506      -0.73790201      -1.66892935       0.53969477      -8.70634120
Si      16.33727364       9.35117974       6.75214083       0.02691704       0.27540380       0.55407725      -0.06904247      -0.04657319       0.00109147      -8.67877725
P        0.91910236       0.71933429       0.40387145       0.41083462       0.15187589       0.27274142       0.96110656      -0.50194943      -0.38772642      -9.82559219
54
Lattice="11.5478352 0.0 0.0 5.773917198490155 10.000722372470358 0.0 5.773916394327279 3.333571176804646 9.428767828939895" Properties=species:S:1:pos:R:3:momenta:R:3:forces:R:3:energies:R:1 spacegroup="_JSON {\"number\": 1, \"setting\": 1}" unit_cell=conventional occupancy="_JSON {\"0\": {\"Si\": 1.0}, \"1\": {\"Si\": 1.0}, \"2\": {\"Si\": 1.0}, \"3\": {\"Si\": 1.0}, \"4\": {\"Si\": 1.0}, \"5\": {\"Si\": 1.0}, \"6\": {\"Si\": 1.0}, \"7\": {\"Si\": 1.0}, \"8\": {\"Si\": 1.0}, \"9\": {\"Si\": 1.0}, \"10\": {\"Si\": 1.0}, \"11\": {\"Si\": 1.0}, \"12\": {\"Si\": 1.0}, \"13\": {\"Si\": 1.0}, \"14\": {\"Si\": 1.0}, \"15\": {\"Si\": 1.0}, \"16\": {\"Si\": 1.0}, \"17\": {\"Si\": 1.0}, \"18\": {\"Si\": 1.0}, \"19\": {\"Si\": 1.0}, \"20\": {\"Si\": 1.0}, \"21\": {\"Si\": 1.0}, \"22\": {\"Si\": 1.0}, \"23\": {\"Si\": 1.0}, \"24\": {\"Si\": 1.0}, \"25\": {\"Si\": 1.0}, \"26\": {\"Si\": 1.0}, \"27\": {\"Si\": 1.0}, \"28\": {\"Si\": 1.0}, \"29\": {\"Si\": 1.0}, \"30\": {\"Si\": 1.0}, \"31\": {\"Si\": 1.0}, \"32\": {\"Si\": 1.0}, \"33\": {\"Si\": 1.0}, \"34\": {\"Si\": 1.0}, \"35\": {\"Si\": 1.0}, \"36\": {\"Si\": 1.0}, \"37\": {\"Si\": 1.0}, \"38\": {\"Si\": 1.0}, \"39\": {\"Si\": 1.0}, \"40\": {\"Si\": 1.0}, \"41\": {\"Si\": 1.0}, \"42\": {\"Si\": 1.0}, \"43\": {\"Si\": 1.0}, \"44\": {\"Si\": 1.0}, \"45\": {\"Si\": 1.0}, \"46\": {\"Si\": 1.0}, \"47\": {\"Si\": 1.0}, \"48\": {\"Si\": 1.0}, \"49\": {\"Si\": 1.0}, \"50\": {\"Si\": 1.0}, \"51\": {\"Si\": 1.0}, \"52\": {\"Si\": 1.0}, \"53\": {\"P\": 1.0}}" energy=-471.19902300003963 stress="0.0007688750336996147 0.0001338406378229255 -0.0006257198327448931 0.0001338406378229255 0.0010856333256001134 0.00023429801898137758 -0.0006257198327448931 0.00023429801898137758 -0.0015628215227809013" free_energy=-471.19902300003963 pbc="T T T"
Si       6.70217477       3.86865940       2.71275993      -1.04567683      -0.20742933       0.52106840      -0.33923967       0.15986854       0.57774440      -8.66934049
Si       8.71910352       5.02738629       5.83868793      -0.22974696      -0.50328578      -0.27641105      -0.94630272       0.66260589       0.36256703      -8.73786210
Si      10.72885903       6.16400085       8.95144334       0.52639485      -0.51931016      -0.30665462      -1.22220990      -0.57159270      -0.25142854      -8.69741407
Si       8.58258867       7.20921003       2.75915114       0.67749607       0.31026118      -1.34877946       0.71918821      -0.29785966       0.03957213      -8.73931568
Si      10.65468650       8.34763951       5.74970990      -0.54010865      -0.02073207       0.49549065      -0.54172394      -0.20921894       0.57360190      -8.71155242
Si      12.51256266       9.42510204       9.08078624       1.22363835      -0.20348865      -0.15277858      -0.12288046      -0.46211021       0.58026743      -8.72589940
Si      10.56942712      10.46021903       2.68114155      -0.36278719       0.70936801      -0.31473375      -0.05241226       0.23654838       0.08564191      -8.73814185
Si      12.55879693      11.71811004       5.89298106       1.83406636       0.50675322      -0.28688608       0.31286866      -0.41163575      -0.12618251      -8.74856479
Si      14.42945856      12.85949719       8.91483429      -1.23795939      -0.60637514       0.53153116      -0.21650778      -0.15742367       0.50697099      -8.47129783
Si      10.51693215       3.87881362       2.80849653      -0.09269736      -0.98302826       1.38690582       0.24164265       0.17333722       0.17047953      -8.73701934
Si      12.52907247       4.89988352       5.86746262       1.16799237      -0.02687070       0.14793781       0.02201588       0.71675076      -0.21422823      -8.70983189
Si      14.56908689       6.07682830       9.08049696      -0.98111637      -0.34031144      -0.51606233      -0.78157747      -0.95944533      -0.10479916      -8.71597819
Si      12.52684725       7.15544095       2.74633208       0.68093281       0.90155660      -0.14081163       0.17415715       0.35169475       0.05942152      -8.76385637
Si      14.32140332       8.42985322       5.99215513       1.56757403      -1.60820490       0.12609572       0.02548585      -0.70122674       0.31913567      -8.71050407
Si      16.27136530       9.46962719       9.11152279       0.16096158      -0.29525084      -0.93745107       0.61503390       0.10969330       0.18629962      -8.73115509
Si      14.29969238      10.51259199       2.75834795      -0.39653167       2.16599606       0.00089055      -0.02249055       0.07889222      -0.26225660      -8.76491424
Si      16.39460510      11.51073952       5.81761253      -0.45699540       1.81327489       1.36125467      -0.02704368       0.84592460       0.11476387      -8.66484059
Si      18.25697231      12.74801529       8.92713754       0.06567997       0.39607613      -1.29629866      -0.10494683      -0.49251128       0.01084558      -8.72880006
Si      14.44913174       3.92920613       2.82607377       0.70875198      -0.42889350       0.82770151       0.40890579      -0.58311059      -0.04341702      -8.72927353
Si      16.35189893       4.97749852       5.90289126       0.22511698       2.22526001      -0.93569501       0.29097710       0.87075448       0.78754207      -8.72292092
Si      18.30616576       6.27720235       9.06592583       0.91394941       0.44143307      -0.42150111       0.07778011      -0.38766198       0.58356689      -8.57601930
Si      16.32875422       7.35932027       2.84769579       0.13438907      -1.86394351      -0.27645844      -0.07219606      -0.34588127      -0.49834611      -8.72398971
Si      18.25023597       8.27127581       5.87767696      -1.50958714      -0.03203077       0.84114431       0.29980488       1.07877778      -0.10971491      -8.70388865
Si      20.28427335       9.39965357       9.05422646       1.30091948       0.00392650       0.31652297      -0.65267438       0.37101283      -0.19722264      -8.71060574
Si      18.23816134      10.68270423       2.68394150      -0.00503412       0.13090654       0.34897201       0.26267668      -0.46409112       0.47096442      -8.57027835
Si      20.24062502      11.54252826       5.95554445      -0.67853426      -0.67079077       0.43531682       1.17522633       0.32916755      -0.47628948      -8.69867240
Si      22.19998248      12.82444838       9.09986197      -0.96970430      -0.96695738      -0.83023819      -0.21230777      -0.35388961      -0.45310877      -8.52701946
Si       2.92509672       1.61112011       3.57181646      -0.11954452       0.09185504      -0.43678648      -0.15145425       0.62610145      -0.24809585      -8.70480200
Si       4.94994509       2.78597511       6.67241228      -0.76657506      -0.12303406       0.59717176      -1.50479611       0.04763328       0.63422272      -8.68394960
Si       2.99635070       3.87527363       0.47525802       0.28167435      -0.05321355       0.04685044       0.24463806      -0.00708991      -0.26315198      -8.72616710
Si       4.79356026       5.14057215       3.60999161       1.26739312       1.90888167       0.76820710       0.32708132      -0.75926980      -0.82440347      -8.73032595
Si       6.77935351       6.16576532       6.74838866      -0.75882656      -0.24051215       0.20196017      -0.34503893      -1.39924640      -0.82201155      -8.67438287
Si       4.85448198       7.21331645       0.44787252       0.73967031       0.84141119       1.57312333      -0.11827312       0.40600687       0.43031202      -8.72400896
Si       6.78113372       8.40628133       3.47112255      -1.21402529      -0.75738081       0.59779513      -0.95145996       0.45079810       0.64294058      -8.69410146
Si       8.70068037       9.32607925       6.65194080       1.62910951      -0.62321858      -0.91862050      -0.26826424      -0.04678572       0.34500078      -8.72571876
Si       4.82384977       0.59403174       0.31596297       0.69108192      -0.17404171       0.20320574       0.03789355       0.09761447      -0.05117185      -8.75457778
Si       6.65484275       1.62924071       3.56367320      -0.20598722      -0.73428282       0.17404423      -0.16409086       0.31523194      -0.39098215      -8.72922097
Si       8.73843913       2.86251772       6.51758774       0.03163897      -1.28647507      -0.54601523       0.06879318      -1.22179556       0.81214137      -8.69960790
Si       6.85024371       3.77741069       0.36359358      -0.77707761       0.99919832      -0.34486758       0.02488115       1.21265176       0.23663176      -8.74162617
Si       8.63063180       4.98606208       3.54863213      -0.52871392      -0.15304994       0.08728151      -0.61796675       0.16141380      -0.56372884      -8.72751896
Si      10.59420292       6.11981035       6.53265883      -0.69670639       0.27260207      -0.15723303       1.02865877       0.14196517       0.92011001      -8.70416677
Si       8.58061382       7.27520512       0.45487101      -0.62087977       0.04072170      -1.60191220       0.14081676       0.39355175      -0.89330887      -8.71573669
Si      10.59174345       8.21831082       3.42559752       0.11720705       0.27131083      -0.44043403      -0.19560866       0.66801348       0.11325073      -8.72675273
Si      12.37030951       9.54634279       6.79529520      -0.25972071       0.61748640       1.20947178       0.96476474      -0.23126487      -0.94061794      -8.69159405
Si       8.59057205       0.44283261       0.41928294       0.32977297      -0.88539142      -0.92048121       0.68167802       0.88349385      -0.33702105      -8.69486155
Si      10.42368311       1.65375406       3.43314255      -0.52135829       1.63631648      -1.07182714       0.77647082      -0.38312414       0.58295777      -8.71362723
Si      12.58520449       2.67392608       6.54018572       1.06092577      -0.68229808       0.74281704      -0.94703553       0.07566469       0.76906191      -8.75971140
Si      10.54408101       3.92754247       0.52640822       0.52268832       0.26416156      -0.29252529       0.60799348       0.17181905      -0.78160904      -8.72557686
Si      12.47385459       4.96930102       3.48451827      -0.93627657       0.65084496      -0.89221842       0.23465163      -0.30649091       0.74248054      -8.72229270
Si      14.40664976       6.12169771       6.74145385      -0.50793134      -0.07209067       0.59636742       0.15524140      -0.06147670      -0.57036673      -8.68196190
Si      12.50571643       7.20815439       0.43118698      -1.73580355      -0.54384348       1.24088717       0.26692895      -0.14758319      -0.89981039      -8.69432339
Si      14.34330958       8.37944903       3.65480356      -0.97521978      -1.35780230       0.64131917       0.23099597      -0.41856515      -0.25480504      -8.73520861
Si      16.33516626       9.36369177       6.77505539      -0.10338815       0.24399412       0.19414719      -0.06145465       0.11986741      -0.48811771      -8.75295608
P        0.96608943       0.71083795       0.39853782       1.37548877      -0.48005871      -0.55180048       0.22270555      -0.37650419      -0.59229874      -9.83528805
