54
Lattice="11.5478352 0.0 0.0 5.773917198490155 10.000722372470358 0.0 5.773916394327279 3.333571176804646 9.428767828939895" Properties=species:S:1:pos:R:3:momenta:R:3:forces:R:3:energies:R:1 spacegroup="_JSON {\"number\": 1, \"setting\": 1}" unit_cell=conventional occupancy="_JSON {\"0\": {\"Si\": 1.0}, \"1\": {\"Si\": 1.0}, \"2\": {\"Si\": 1.0}, \"3\": {\"Si\": 1.0}, \"4\": {\"Si\": 1.0}, \"5\": {\"Si\": 1.0}, \"6\": {\"Si\": 1.0}, \"7\": {\"Si\": 1.0}, \"8\": {\"Si\": 1.0}, \"9\": {\"Si\": 1.0}, \"10\": {\"Si\": 1.0}, \"11\": {\"Si\": 1.0}, \"12\": {\"Si\": 1.0}, \"13\": {\"Si\": 1.0}, \"14\": {\"Si\": 1.0}, \"15\": {\"Si\": 1.0}, \"16\": {\"Si\": 1.0}, \"17\": {\"Si\": 1.0}, \"18\": {\"Si\": 1.0}, \"19\": {\"Si\": 1.0}, \"20\": {\"Si\": 1.0}, \"21\": {\"Si\": 1.0}, \"22\": {\"Si\": 1.0}, \"23\": {\"Si\": 1.0}, \"24\": {\"Si\": 1.0}, \"25\": {\"Si\": 1.0}, \"26\": {\"Si\": 1.0}, \"27\": {\"Si\": 1.0}, \"28\": {\"Si\": 1.0}, \"29\": {\"Si\": 1.0}, \"30\": {\"Si\": 1.0}, \"31\": {\"Si\": 1.0}, \"32\": {\"Si\": 1.0}, \"33\": {\"Si\": 1.0}, \"34\": {\"Si\": 1.0}, \"35\": {\"Si\": 1.0}, \"36\": {\"Si\": 1.0}, \"37\": {\"Si\": 1.0}, \"38\": {\"Si\": 1.0}, \"39\": {\"Si\": 1.0}, \"40\": {\"Si\": 1.0}, \"41\": {\"Si\": 1.0}, \"42\": {\"Si\": 1.0}, \"43\": {\"Si\": 1.0}, \"44\": {\"Si\": 1.0}, \"45\": {\"Si\": 1.0}, \"46\": {\"Si\": 1.0}, \"47\": {\"Si\": 1.0}, \"48\": {\"Si\": 1.0}, \"49\": {\"Si\": 1.0}, \"50\": {\"Si\": 1.0}, \"51\": {\"Si\": 1.0}, \"52\": {\"Si\": 1.0}, \"53\": {\"Si\": 1.0}}" energy=-472.97544609770506 stress="-0.0003379899400372751 -4.5228854027489476e-08 -5.474811030002672e-08 -4.5228854027489476e-08 -0.0003374504728026153 -2.0364967988492208e-07 -5.474811030002672e-08 -2.0364967988492208e-07 -0.0003379989899367997" free_energy=-472.97544609770506 pbc="T T T"
Si       6.73623681       3.88916900       2.75005731       1.53777410       0.44360056      -0.82624893      -0.00000183      -0.00000525       0.00000190      -8.75880458
Si       8.66087559       5.00035938       5.89297989      -0.40760279       0.48546290      -1.10077067      -0.00000184      -0.00000525       0.00000199      -8.75880457
Si      10.58551437       6.11154976       9.03590247       1.46375159       0.36176681      -0.23243696      -0.00000112      -0.00000484       0.00000267      -8.75880456
Si       8.66087586       7.22274309       2.75005731       1.15447596       0.30082879      -0.20326982      -0.00000184      -0.00000517       0.00000187      -8.75880457
Si      10.58551463       8.33393347       5.89297989      -0.22123877      -2.14229142       1.21015001      -0.00000184      -0.00000517       0.00000196      -8.75880456
Si      12.51015341       9.44512385       9.03590247      -1.01055924      -0.22636640       0.16496600      -0.00000112      -0.00000476       0.00000264      -8.75880456
Si      10.58551490      10.55631718       2.75005731      -0.21482968      -0.68542085       0.30595275      -0.00000112      -0.00000439       0.00000203      -8.75880456
Si      12.51015368      11.66750756       5.89297989       0.04448029       1.26420834      -0.07463161      -0.00000112      -0.00000439       0.00000212      -8.75880456
Si      14.43479246      12.77869794       9.03590247      -0.57997951       0.68153278       0.63189796      -0.00000040      -0.00000398       0.00000280      -8.75880455
Si      10.58551517       3.88916900       2.75005731      -0.23719360       0.22445704      -1.25574883      -0.00000176      -0.00000530       0.00000187      -8.75880457
Si      12.51015395       5.00035938       5.89297989      -0.74920553      -0.19867872      -1.24717642      -0.00000176      -0.00000530       0.00000196      -8.75880456
Si      14.43479273       6.11154976       9.03590247       0.31200245      -0.81522099      -0.50968444      -0.00000104      -0.00000488       0.00000264      -8.75880456
Si      12.51015422       7.22274309       2.75005731      -0.63703541      -1.42585857      -1.04318961      -0.00000176      -0.00000521       0.00000184      -8.75880456
Si      14.43479300       8.33393347       5.89297989       0.12202570      -1.20306428       1.67337988      -0.00000177      -0.00000521       0.00000193      -8.75880456
Si      16.35943177       9.44512385       9.03590247       0.41820492      -0.37862830       1.21268678      -0.00000105      -0.00000480       0.00000261      -8.75880455
Si      14.43479326      10.55631718       2.75005731      -0.69097593      -0.59281229      -2.27073151      -0.00000104      -0.00000443       0.00000200      -8.75880456
Si      16.35943204      11.66750756       5.89297989       0.39727801       0.08602550      -0.35126046      -0.00000105      -0.00000443       0.00000209      -8.75880455
Si      18.28407082      12.77869794       9.03590247      -0.11229780       0.00732171      -0.25268675      -0.00000033      -0.00000402       0.00000277      -8.75880454
Si      14.43479353       3.88916900       2.75005731       0.74805587       0.51097834      -1.56679930      -0.00000073      -0.00000506       0.00000203      -8.75880456
Si      16.35943231       5.00035938       5.89297989       0.93794833      -1.59560920       0.55335975      -0.00000073      -0.00000507       0.00000212      -8.75880456
Si      18.28407109       6.11154976       9.03590247      -0.58888116       0.71375247       0.54950487      -0.00000001      -0.00000465       0.00000280      -8.75880455
Si      16.35943258       7.22274309       2.75005731       0.44438615      -0.20019634       0.61640523      -0.00000073      -0.00000498       0.00000200      -8.75880456
Si      18.28407136       8.33393347       5.89297989       0.94109445       0.97055960       0.72221725      -0.00000073      -0.00000498       0.00000209      -8.75880455
Si      20.20871014       9.44512385       9.03590247      -0.58390264      -1.20709048       0.31690064      -0.00000001      -0.00000457       0.00000277      -8.75880454
Si      18.28407163      10.55631718       2.75005731      -1.30426093      -0.34076432       1.75491259      -0.00000001      -0.00000420       0.00000217      -8.75880455
Si      20.20871040      11.66750756       5.89297989       0.18132218       0.76322112      -1.14661463      -0.00000001      -0.00000420       0.00000226      -8.75880454
Si      22.13334918      12.77869794       9.03590247      -0.13360151       0.23279596       0.40063987       0.00000071      -0.00000379       0.00000294      -8.75880454
Si       0.96231961       0.55559561       0.39286536      -0.40359984       0.02592099       0.48111523      -0.00000071       0.00000379      -0.00000294      -8.75880454
Si       2.88695839       1.66678599       3.53578794      -0.03533507       0.15321316       0.74909701       0.00000001       0.00000420      -0.00000226      -8.75880454
Si       4.81159717       2.77797637       6.67871051      -0.15077738       0.92577455       1.65521279       0.00000001       0.00000420      -0.00000217      -8.75880455
Si       2.88695866       3.88916970       0.39286536       0.09024967      -1.30341923       0.86063050       0.00000001       0.00000457      -0.00000277      -8.75880454
Si       4.81159744       5.00036008       3.53578794      -0.70073475       0.82205156      -0.83535903       0.00000073       0.00000498      -0.00000209      -8.75880455
Si       6.73623621       6.11155046       6.67871051       1.33873121       0.20289375      -0.06729983       0.00000073       0.00000498      -0.00000200      -8.75880456
Si       4.81159770       7.22274379       0.39286536       0.79364397       0.47526652       1.12869498       0.00000001       0.00000465      -0.00000280      -8.75880455
Si       6.73623648       8.33393417       3.53578794       0.96796810       1.50746020       0.00972278       0.00000073       0.00000507      -0.00000212      -8.75880456
Si       8.66087526       9.44512455       6.67871051      -0.24684671       1.22707715       0.51494541       0.00000073       0.00000506      -0.00000203      -8.75880456
Si       4.81159797       0.55559561       0.39286536      -0.56626364      -1.15909600      -0.67718211       0.00000033       0.00000402      -0.00000277      -8.75880454
Si       6.73623675       1.66678599       3.53578794       0.95781644      -0.59613275       0.51630133       0.00000105       0.00000443      -0.00000209      -8.75880455
Si       8.66087553       2.77797637       6.67871051      -0.95581154       0.09398426       1.03401439       0.00000104       0.00000443      -0.00000200      -8.75880456
Si       6.73623702       3.88916970       0.39286536       0.92232822       0.08842862      -0.33914537       0.00000105       0.00000480      -0.00000261      -8.75880455
Si       8.66087580       5.00036008       3.53578794      -1.09785026       0.24696073      -0.96162265       0.00000177       0.00000521      -0.00000193      -8.75880456
Si      10.58551458       6.11155046       6.67871051       2.53697415       1.49416714      -0.09694003       0.00000176       0.00000521      -0.00000184      -8.75880456
Si       8.66087607       7.22274379       0.39286536      -0.68296405      -0.47660924      -1.56422168       0.00000104       0.00000488      -0.00000264      -8.75880456
Si      10.58551484       8.33393417       3.53578794      -0.63882585      -2.81045309      -0.60168984       0.00000176       0.00000530      -0.00000196      -8.75880456
Si      12.51015362       9.44512455       6.67871051      -0.48801796       1.64303994       0.32258351       0.00000176       0.00000530      -0.00000187      -8.75880457
Si       8.66087633       0.55559561       0.39286536      -1.07351051      -0.68921913      -0.81016407       0.00000040       0.00000398      -0.00000280      -8.75880455
Si      10.58551511       1.66678599       3.53578794       0.14476179      -0.42793075      -0.14326170       0.00000112       0.00000439      -0.00000212      -8.75880456
Si      12.51015389       2.77797637       6.67871051       0.67919021       0.79029646      -0.46758940       0.00000112       0.00000439      -0.00000203      -8.75880456
Si      10.58551538       3.88916970       0.39286536      -1.33607176       0.21555570      -0.70922361       0.00000112       0.00000476      -0.00000264      -8.75880456
Si      12.51015416       5.00036008       3.53578794       0.71232330       0.21974056       0.81141526       0.00000184       0.00000517      -0.00000196      -8.75880456
Si      14.43479294       6.11155046       6.67871051      -2.44696812      -0.29874094      -1.50014269       0.00000184       0.00000517      -0.00000187      -8.75880457
Si      12.51015443       7.22274379       0.39286536       0.25336468       1.19987826       1.05360437       0.00000112       0.00000484      -0.00000267      -8.75880456
Si      14.43479321       8.33393417       3.53578794      -0.90132335      -0.30355569       0.17503244       0.00000184       0.00000525      -0.00000199      -8.75880457
Si      16.35943198       9.44512455       6.67871051       1.09631357       0.69893749       1.42974836       0.00000183       0.00000525      -0.00000190      -8.75880458
54
Lattice="11.5478352 0.0 0.0 5.773917198490155 10.000722372470358 0.0 5.773916394327279 3.333571176804646 9.428767828939895" Properties=species:S:1:pos:R:3:momenta:R:3:forces:R:3:energies:R:1 spacegroup="_JSON {\"number\": 1, \"setting\": 1}" unit_cell=conventional occupancy="_JSON {\"0\": {\"Si\": 1.0}, \"1\": {\"Si\": 1.0}, \"2\": {\"Si\": 1.0}, \"3\": {\"Si\": 1.0}, \"4\": {\"Si\": 1.0}, \"5\": {\"Si\": 1.0}, \"6\": {\"Si\": 1.0}, \"7\": {\"Si\": 1.0}, \"8\": {\"Si\": 1.0}, \"9\": {\"Si\": 1.0}, \"10\": {\"Si\": 1.0}, \"11\": {\"Si\": 1.0}, \"12\": {\"Si\": 1.0}, \"13\": {\"Si\": 1.0}, \"14\": {\"Si\": 1.0}, \"15\": {\"Si\": 1.0}, \"16\": {\"Si\": 1.0}, \"17\": {\"Si\": 1.0}, \"18\": {\"Si\": 1.0}, \"19\": {\"Si\": 1.0}, \"20\": {\"Si\": 1.0}, \"21\": {\"Si\": 1.0}, \"22\": {\"Si\": 1.0}, \"23\": {\"Si\": 1.0}, \"24\": {\"Si\": 1.0}, \"25\": {\"Si\": 1.0}, \"26\": {\"Si\": 1.0}, \"27\": {\"Si\": 1.0}, \"28\": {\"Si\": 1.0}, \"29\": {\"Si\": 1.0}, \"30\": {\"Si\": 1.0}, \"31\": {\"Si\": 1.0}, \"32\": {\"Si\": 1.0}, \"33\": {\"Si\": 1.0}, \"34\": {\"Si\": 1.0}, \"35\": {\"Si\": 1.0}, \"36\": {\"Si\": 1.0}, \"37\": {\"Si\": 1.0}, \"38\": {\"Si\": 1.0}, \"39\": {\"Si\": 1.0}, \"40\": {\"Si\": 1.0}, \"41\": {\"Si\": 1.0}, \"42\": {\"Si\": 1.0}, \"43\": {\"Si\": 1.0}, \"44\": {\"Si\": 1.0}, \"45\": {\"Si\": 1.0}, \"46\": {\"Si\": 1.0}, \"47\": {\"Si\": 1.0}, \"48\": {\"Si\": 1.0}, \"49\": {\"Si\": 1.0}, \"50\": {\"Si\": 1.0}, \"51\": {\"Si\": 1.0}, \"52\": {\"Si\": 1.0}, \"53\": {\"Si\": 1.0}}" energy=-471.49998699215257 stress="0.0010730189536584766 -0.0007390394612182083 -0.0006798221078301616 -0.0007390394612182083 -0.002938034817260277 0.0013063577991588489 -0.0006798221078301616 0.0013063577991588489 -0.003149488115886182" free_energy=-471.49998699215257 pbc="T T T"
Si       6.79690632       3.90487239       2.71048705       0.45452323       0.01959646      -0.62298125      -1.23897025      -0.51890245       0.24586890      -8.71532586
Si       8.65481714       5.02393825       5.84373410       0.39537885       0.37158659      -0.64219821       0.85972008      -0.15147014       0.53743725      -8.68063194
Si      10.65544707       6.12279742       9.02687289       1.08127822      -0.06002259      -0.06015909      -0.47405678      -0.49709937       0.20530702      -8.71399591
Si       8.70213897       7.23363563       2.72824673       0.08906841       0.02965996      -0.80371184      -1.25097974      -0.31165873      -0.66873427      -8.72878819
Si      10.57585987       8.25250707       5.94253877      -0.12260853      -0.42442232       0.44412733       0.10159921       2.03762763      -0.89906431      -8.67105093
Si      12.46185292       9.43550441       9.04117670      -0.74996254      -0.10438374      -0.02002346       0.31906683       0.14086612      -0.21772178      -8.77250049
Si      10.57661694      10.51611136       2.76631944      -0.08259965      -0.90143040       0.31189661       0.16747559      -0.20797944      -0.00893385      -8.69459176
Si      12.50797487      11.73010513       5.89321172      -0.19275987       1.04827313       0.13992034      -0.24712751      -0.29538610       0.21522315      -8.76949463
Si      14.40151525      12.80656009       9.06539444      -0.73282197       0.25759764       0.43170595      -0.16363070      -0.47275930      -0.23658785      -8.78142690
Si      10.57493632       3.89944172       2.69462491      -0.14277162       0.13430115      -0.69089027       0.09063563      -0.13015848       0.64773420      -8.69127433
Si      12.47396148       4.98918480       5.83422291      -0.58303282      -0.25392994      -0.88415633       0.19698618      -0.10032559       0.41280146      -8.76555695
Si      14.44354054       6.07025236       9.00131275      -0.09574678      -0.73238427      -0.92988777      -0.45041474       0.11095342      -0.46613122      -8.72226125
Si      12.48312420       7.15619635       2.70894933      -0.28559635      -0.97144149      -0.29403239       0.42770826       0.55269385       0.88388186      -8.76226356
Si      14.43972669       8.29021485       5.97151925       0.04012090      -0.15631464       1.16580160      -0.10212599       1.18431159      -0.60787093      -8.70581580
Si      16.38034791       9.43507103       9.09412936       0.35364230       0.15258014       0.91135349      -0.10260539       0.60378335      -0.37786867      -8.74905091
Si      14.40539949      10.52447626       2.64860947      -0.33086277      -0.63201669      -1.29090970       0.38656627      -0.03852885       1.19081379      -8.74078362
Si      16.37397530      11.67507010       5.88076477       0.05603103       0.23949803      -0.01711431      -0.39974644       0.14345041       0.37755150      -8.73314064
Si      18.27369907      12.77790997       9.01818412      -0.36149036      -0.06318889      -0.49892538      -0.29990978      -0.10099676      -0.29355523      -8.75391993
Si      14.46826095       3.91005014       2.68654685       0.44050750       0.18988666      -0.54109246      -0.33783862      -0.37693145       1.19507835      -8.74525973
Si      16.39920185       4.93801358       5.91526342       0.44269393      -0.43475459       0.17496555      -0.53721864       1.34177425      -0.46136269      -8.66540794
Si      18.25510866       6.14200616       9.06097757      -0.47773330       0.33179532       0.33774618       0.14887445      -0.45337049      -0.27131893      -8.73451486
Si      16.38166226       7.22410049       2.78467043       0.38049406       0.43435320       0.73806591      -0.09096506       0.69730221       0.13824594      -8.75673663
Si      18.32844971       8.38080204       5.92580312       0.66676038       0.74111431       0.45087568      -0.32657463      -0.29650211      -0.30271654      -8.75696654
Si      20.18510504       9.39228790       9.05849547      -0.20781829      -0.63733633       0.62305212       0.43258692       0.66711311       0.30324830      -8.69333701
Si      18.22921408      10.54778438       2.82836028      -0.56244305       0.17247791       1.00309603       0.86996405       0.60071745      -0.88171331      -8.74938287
Si      20.22247684      11.70870366       5.84745213       0.40715306       0.81299547      -0.34242762       0.24506294       0.01349571       0.94505433      -8.74832674
Si      22.12590466      12.78821054       9.06176498      -0.15608408       0.08101335       0.66293883      -0.02077837      -0.19198303       0.29292154      -8.75400087
Si       0.93935359       0.56289852       0.42429078      -0.49828005       0.34316348       0.80652749      -0.09925630       0.34973802       0.34653120      -8.72299489
Si       2.88443514       1.67605766       3.56109551      -0.06063308       0.21222205      -0.01153953       0.00504990       0.04485669      -0.86672758      -8.73149400
Si       4.80492331       2.81384785       6.75443725      -0.08221327       0.24347554       1.04450369       0.08817070      -0.75324025      -0.73293092      -8.75181111
Si       2.89373573       3.82572911       0.42197383       0.20055039      -1.02878773      -0.02195524       0.12785371       0.34574779      -1.03141048      -8.76016487
Si       4.78980922       5.03120691       3.49944862       0.10116939       0.16395063      -0.42271352       0.90599400      -0.73303038       0.49462534      -8.72463119
Si       6.79664566       6.12550432       6.67803920       0.80054186       0.37925271       0.08756445      -0.63765703       0.18973287       0.17359046      -8.74925647
Si       4.84088078       7.24194303       0.44721694       0.13196643       0.16923638       0.87162942      -0.75133631      -0.34668522      -0.28299586      -8.72287260
Si       6.78432857       8.39587500       3.54352124       0.81641024       0.56623947       0.40025126      -0.19993326      -1.10243227       0.44055589      -8.72081966
Si       8.65518596       9.50272216       6.70394463       0.14812650       0.86214062       0.42779268       0.46021909      -0.41670495      -0.07727333      -8.73915302
Si       4.78780424       0.50682975       0.36446407      -0.24454806      -0.50940409      -0.28102523       0.36650614       0.74196324       0.48858647      -8.73655327
Si       6.77945199       1.64213248       3.55378294       0.56810895      -0.24468332       0.02660697      -0.48415055       0.38796754      -0.55566719      -8.73295615
Si       8.62137550       2.78862052       6.72484984      -0.37780850       0.40537185       0.58888019       0.67387055       0.36235741      -0.53551919      -8.73024131
Si       6.78532983       3.89197028       0.37633257       0.94644768      -0.00982764      -0.27585051      -0.02139194      -0.11005326       0.05816798      -8.76442302
Si       8.61732320       5.01585962       3.48904982      -0.32657595       0.38757508      -0.74705877       0.90708891       0.15324452       0.28317063      -8.76398472
Si      10.69568168       6.16581330       6.67769110       1.30664999       0.17560258       0.14936364      -1.42111760      -1.50833411       0.32501954      -8.69100229
Si       8.62829664       7.20172744       0.32206463      -0.50217896      -0.25387573      -0.95581330       0.21934592       0.27766444       0.70442001      -8.70465095
Si      10.56385319       8.20554584       3.51661932       0.01700639      -1.75756466       0.07380926       0.75747873       1.27315392       0.77946437      -8.70716189
Si      12.48552399       9.51896940       6.69182069      -0.42975090       0.96756291       0.11796418       0.08688220      -0.79613142      -0.23571259      -8.70803690
Si       8.61131395       0.52390003       0.34882591      -0.69881706      -0.44101598      -0.88656484       0.45401665       0.30287563      -0.05657550      -8.76317915
Si      10.57942241       1.64942883       3.52544617      -0.59757160      -0.14382321      -0.28393029      -0.85042946       0.34509826      -0.12552476      -8.73750052
Si      12.54045713       2.81258448       6.65417166       0.38317889       0.40946814      -0.46609716      -0.36812386      -0.46959576       0.00773898      -8.72845503
Si      10.52398305       3.89667630       0.35792292      -0.86742564       0.00856827      -0.58338492       0.55697364      -0.23898982       0.15670807      -8.77668697
Si      12.54222712       5.00258068       3.55868295       0.42580683      -0.28715554      -0.26703756      -0.33952591      -0.59791614      -1.26372486      -8.70974199
Si      14.32917695       6.08662434       6.61041238      -1.20289321      -0.76396892      -0.92825517       1.48443733      -0.42387232       0.67295749      -8.69550841
Si      12.52320199       7.27296287       0.43586558       0.24295807       0.50753053       0.37836500      -0.00658165      -0.80853402      -0.79570344      -8.73792981
Si      14.39073599       8.31727777       3.54715902      -0.71274252      -0.33606127       0.29527958       0.26192923      -0.01509406       0.14993578      -8.69177267
Si      16.41137622       9.47482925       6.74796884       0.78919727       0.32970439       1.10565267      -0.37961662      -0.40382320      -0.41929452      -8.74119730
54
Lattice="11.5478352 0.0 0.0 5.773917198490155 10.000722372470358 0.0 5.773916394327279 3.333571176804646 9.428767828939895" Properties=species:S:1:pos:R:3:momenta:R:3:forces:R:3:energies:R:1 spacegroup="_JSON {\"number\": 1, \"setting\": 1}" unit_cell=conventional occupancy="_JSON {\"0\": {\"Si\": 1.0}, \"1\": {\"Si\": 1.0}, \"2\": {\"Si\": 1.0}, \"3\": {\"Si\": 1.0}, \"4\": {\"Si\": 1.0}, \"5\": {\"Si\": 1.0}, \"6\": {\"Si\": 1.0}, \"7\": {\"Si\": 1.0}, \"8\": {\"Si\": 1.0}, \"9\": {\"Si\": 1.0}, \"10\": {\"Si\": 1.0}, \"11\": {\"Si\": 1.0}, \"12\": {\"Si\": 1.0}, \"13\": {\"Si\": 1.0}, \"14\": {\"Si\": 1.0}, \"15\": {\"Si\": 1.0}, \"16\": {\"Si\": 1.0}, \"17\": {\"Si\": 1.0}, \"18\": {\"Si\": 1.0}, \"19\": {\"Si\": 1.0}, \"20\": {\"Si\": 1.0}, \"21\": {\"Si\": 1.0}, \"22\": {\"Si\": 1.0}, \"23\": {\"Si\": 1.0}, \"24\": {\"Si\": 1.0}, \"25\": {\"Si\": 1.0}, \"26\": {\"Si\": 1.0}, \"27\": {\"Si\": 1.0}, \"28\": {\"Si\": 1.0}, \"29\": {\"Si\": 1.0}, \"30\": {\"Si\": 1.0}, \"31\": {\"Si\": 1.0}, \"32\": {\"Si\": 1.0}, \"33\": {\"Si\": 1.0}, \"34\": {\"Si\": 1.0}, \"35\": {\"Si\": 1.0}, \"36\": {\"Si\": 1.0}, \"37\": {\"Si\": 1.0}, \"38\": {\"Si\": 1.0}, \"39\": {\"Si\": 1.0}, \"40\": {\"Si\": 1.0}, \"41\": {\"Si\": 1.0}, \"42\": {\"Si\": 1.0}, \"43\": {\"Si\": 1.0}, \"44\": {\"Si\": 1.0}, \"45\": {\"Si\": 1.0}, \"46\": {\"Si\": 1.0}, \"47\": {\"Si\": 1.0}, \"48\": {\"Si\": 1.0}, \"49\": {\"Si\": 1.0}, \"50\": {\"Si\": 1.0}, \"51\": {\"Si\": 1.0}, \"52\": {\"Si\": 1.0}, \"53\": {\"Si\": 1.0}}" energy=-471.75316416706244 stress="0.0004204669557348417 0.0004513803694966337 0.0002707003040102169 0.0004513803694966337 1.917556417443351e-05 0.0001870610655778691 0.0002707003040102169 0.0001870610655778691 -0.0006038713961944825" free_energy=-471.75316416706244 pbc="T T T"
Si       6.77616455       3.88599974       2.68985878      -1.04725171      -0.68180499      -0.12190371      -0.47180334      -0.30159783       0.39640095      -8.74861135
Si       8.70551820       5.03826010       5.83285559       1.38552619       0.21076759       0.23245937       0.25465981      -0.01727000       0.54740164      -8.70413889
Si      10.69193510       6.09986363       9.03252690       0.30120696      -0.78052776       0.27860489      -0.51394549      -0.35979628       0.21172138      -8.72614438
Si       8.66329571       7.22603274       2.66476167      -1.33171969      -0.22428038      -1.42941833      -0.35134200       0.04060900       0.06311919      -8.74897112
Si      10.57426454       8.30217483       5.93360655       0.08183108       1.96012838      -0.63937788       0.17032117       0.69125182      -0.34873201      -8.72021797
Si      12.43621444       9.43556592       9.03180847      -0.22049544       0.09810283      -0.31214196       0.34717764       0.10754670      -0.11847077      -8.75808268
Si      10.58012093      10.46360396       2.78135960       0.23349826      -1.00975730       0.23843297       0.23097043       0.15212925      -0.10013633      -8.67775289
Si      12.49117450      11.77020744       5.90631054      -0.34960164       0.41914198       0.27832651       0.13619396      -0.53629126      -0.10104009      -8.75721265
Si      14.35877345      12.80414474       9.07862138      -0.82752346      -0.24633700       0.08223517       0.10582234      -0.07135891      -0.20351317      -8.76507670
Si      10.56968933       3.89963754       2.68247626      -0.09702967      -0.16158213       0.14670044      -0.06597896      -0.26737839       0.33308574      -8.71063683
Si      12.45350977       4.97112631       5.80154201      -0.13755883      -0.42622268      -0.44738203       0.42375546      -0.06079404       0.09780301      -8.75341245
Si      14.42342074       6.03797141       8.93669258      -0.57265747      -0.45640024      -1.42672671      -0.06681568       0.27607857      -0.03765949      -8.73276122
Si      12.48686199       7.12921269       2.72632457       0.44433660      -0.03919560       0.83968854       0.48443785       0.61933323       0.43924190      -8.77167786
Si      14.43736324       8.32461189       6.00733150      -0.13018139       1.29572341       0.19576093      -0.09710970       0.52372904      -0.62969171      -8.67817544
Si      16.39283968       9.46412794       9.12503925       0.07781580       0.83814002       0.23761602      -0.27889193       0.14746693      -0.49803771      -8.74646332
Si      14.40127606      10.49083187       2.62913494       0.09954426      -0.61683390       0.49082327       0.09578154       0.09739348       0.97097917      -8.74535115
Si      16.36040390      11.69102641       5.89349469      -0.56789407       0.30565985       0.44279315      -0.37586638      -0.10358585       0.14292525      -8.72051223
Si      18.24366329      12.76971603       8.98096984      -0.73422530      -0.25963400      -0.87527233      -0.10590688      -0.14019782      -0.11317157      -8.74834358
Si      14.48011109       3.90422018       2.70010377       0.09037067      -0.41188379       0.83835015      -0.02819769      -0.37075160       0.35926660      -8.76646188
Si      16.40259937       4.96534433       5.90702829      -0.24686185       1.31795089      -0.43240720      -0.26943851       0.73044603      -0.24752578      -8.67823551
Si      18.23729983       6.14101505       9.06633359      -0.17494293      -0.35031155      -0.15442553       0.25413041      -0.37598121      -0.35101793      -8.74227921
Si      16.39676590       7.26953066       2.82883696       0.16980966       1.12672770       0.93063264      -0.19052773       0.03441148       0.07077417      -8.74688091
Si      18.35069039       8.40627543       5.93904782       0.20832844       0.21113457       0.11487316      -0.22353003      -0.37013115      -0.06668293      -8.77008656
Si      20.19225663       9.38543316       9.09960705       0.48156878       0.33587834       0.83947477       0.43198801       0.50717408      -0.10788260      -8.70486843
Si      18.23252708      10.57845877       2.84744069       0.58372271       0.89915334      -0.18020958       0.46201035       0.22530414      -0.51315230      -8.76331157
Si      20.25169006      11.74807777       5.86381375       0.63745326       0.58875420       0.82035288      -0.03020948      -0.37564608       0.38815028      -8.74789421
Si      22.11753546      12.78399231       9.10559507      -0.14454245      -0.24903532       0.91710204       0.05092338      -0.21897222      -0.06222995      -8.74965305
Si       0.91042799       0.59269835       0.47768209      -0.56777520       0.71490845       1.13451438       0.04516808       0.04189977      -0.03053458      -8.73585110
Si       2.88422502       1.68728046       3.53116547       0.12439935       0.16909368      -0.94194838       0.28666347      -0.14036312      -0.14609977      -8.74474829
Si       4.80538648       2.80282160       6.77949290       0.13083857      -0.46298211      -0.05432760       0.20834111       0.01849688      -0.59533407      -8.76494212
Si       2.90941653       3.78814596       0.38473338       0.39045974      -0.35117828      -1.20420012       0.09830050       0.55348823      -0.29380771      -8.74689245
Si       4.82920488       5.01440381       3.49714344       1.29301359      -0.66932735       0.31302080       0.47340181      -0.20984953       0.41431212      -8.74141085
Si       6.81343171       6.15096313       6.68814273      -0.12184143       0.52706411       0.24924364      -0.49247746      -0.06160518      -0.01430214      -8.73200043
Si       4.81884215       7.23705020       0.48256590      -0.90447374      -0.33799542       0.51005318      -0.47907781      -0.27364948      -0.15248372      -8.73246225
Si       6.81668529       8.38582902       3.57947625       0.36108590      -0.77130445       0.87502953      -0.41808607      -0.42211972       0.06884379      -8.73874244
Si       8.68063828       9.53196406       6.72428181       0.77518454       0.28556767       0.36737982       0.27391064      -0.29258872      -0.00288397      -8.73215449
Si       4.78736057       0.50763867       0.37062646       0.15064814       0.44351047       0.52223718       0.07368154       0.36231515       0.51235265      -8.73679843
Si       6.78725720       1.64330539       3.53482612      -0.31279199       0.23120555      -0.67210582      -0.64626426       0.15742152      -0.25398364      -8.71881136
Si       8.62786363       2.82355435       6.73342001       0.57083205       0.88103744      -0.25335966       0.46008962       0.18094490      -0.49756155      -8.74210425
Si       6.82983920       3.88738382       0.36311347       0.64116302      -0.15141331      -0.25273927      -0.44929700      -0.05683053      -0.03343390      -8.75265249
Si       8.63363751       5.03877890       3.46225837       0.82341929       0.38336721      -0.26272873       0.42990876      -0.23680044       0.33743187      -8.75978268
Si      10.70488625       6.12546674       6.69537912      -0.94912603      -1.37388941       0.41436181      -1.36724420      -0.23289945      -0.08654204      -8.72861706
Si       8.61047355       7.20049657       0.29969563      -0.19707124       0.21614483       0.05642006       0.14559370       0.31397751       0.52060747      -8.71974710
Si      10.58761094       8.16522657       3.54796189       0.65715381       0.18219500       0.97398822      -0.11112242       1.13768857       0.20837222      -8.72391028
Si      12.46806304       9.53861723       6.68828884      -0.19724263      -0.15673482      -0.24897769       0.24028147      -0.55815982      -0.21805870      -8.72857623
Si       8.59244066       0.51273942       0.30393877      -0.06155722      -0.01018994      -0.71866941       0.29723280       0.20333502       0.35542411      -8.75337340
Si      10.51773213       1.65498922       3.50823727      -1.60256406       0.31404732      -0.29794717      -0.25493880       0.18618628       0.16714047      -8.73860604
Si      12.54408975       2.81389481       6.63028139      -0.26873361      -0.36796254      -0.44078349      -0.46002342      -0.50188255       0.02294886      -8.73404840
Si      10.50104172       3.88846379       0.33429037      -0.02619685      -0.28491277      -0.30661902       0.48677419      -0.09730850       0.20132398      -8.74874545
Si      12.54941233       4.96324998       3.49800761      -0.18081685      -1.18083877      -1.86913821      -0.44929501      -0.46246570      -0.58002166      -8.73098002
Si      14.32740650       6.03791185       6.58645357       1.09386188      -0.88570253      -0.08460483       1.30832247       0.37727192       0.28755982      -8.71366284
Si      12.53557614       7.26794686       0.42662328       0.22203415      -0.63637515      -0.61017887      -0.03415602      -0.56269954      -0.33326727      -8.74047740
Si      14.36684997       8.30072643       3.57015150      -0.13491109      -0.25237798       0.61476017       0.50921326       0.15184199       0.27800414      -8.69426991
Si      16.43529276       9.47791578       6.78597160       0.07848113      -0.14841336       0.28235786      -0.55350953      -0.15876654      -0.65793172      -8.73558236
54
Lattice="11.5478352 0.0 0.0 5.773917198490155 10.000722372470358 0.0 5.773916394327279 3.333571176804646 9.428767828939895" Properties=species:S:1:pos:R:3:momenta:R:3:forces:R:3:energies:R:1 spacegroup="_JSON {\"number\": 1, \"setting\": 1}" unit_cell=conventional occupancy="_JSON {\"0\": {\"Si\": 1.0}, \"1\": {\"Si\": 1.0}, \"2\": {\"Si\": 1.0}, \"3\": {\"Si\": 1.0}, \"4\": {\"Si\": 1.0}, \"5\": {\"Si\": 1.0}, \"6\": {\"Si\": 1.0}, \"7\": {\"Si\": 1.0}, \"8\": {\"Si\": 1.0}, \"9\": {\"Si\": 1.0}, \"10\": {\"Si\": 1.0}, \"11\": {\"Si\": 1.0}, \"12\": {\"Si\": 1.0}, \"13\": {\"Si\": 1.0}, \"14\": {\"Si\": 1.0}, \"15\": {\"Si\": 1.0}, \"16\": {\"Si\": 1.0}, \"17\": {\"Si\": 1.0}, \"18\": {\"Si\": 1.0}, \"19\": {\"Si\": 1.0}, \"20\": {\"Si\": 1.0}, \"21\": {\"Si\": 1.0}, \"22\": {\"Si\": 1.0}, \"23\": {\"Si\": 1.0}, \"24\": {\"Si\": 1.0}, \"25\": {\"Si\": 1.0}, \"26\": {\"Si\": 1.0}, \"27\": {\"Si\": 1.0}, \"28\": {\"Si\": 1.0}, \"29\": {\"Si\": 1.0}, \"30\": {\"Si\": 1.0}, \"31\": {\"Si\": 1.0}, \"32\": {\"Si\": 1.0}, \"33\": {\"Si\": 1.0}, \"34\": {\"Si\": 1.0}, \"35\": {\"Si\": 1.0}, \"36\": {\"Si\": 1.0}, \"37\": {\"Si\": 1.0}, \"38\": {\"Si\": 1.0}, \"39\": {\"Si\": 1.0}, \"40\": {\"Si\": 1.0}, \"41\": {\"Si\": 1.0}, \"42\": {\"Si\": 1.0}, \"43\": {\"Si\": 1.0}, \"44\": {\"Si\": 1.0}, \"45\": {\"Si\": 1.0}, \"46\": {\"Si\": 1.0}, \"47\": {\"Si\": 1.0}, \"48\": {\"Si\": 1.0}, \"49\": {\"Si\": 1.0}, \"50\": {\"Si\": 1.0}, \"51\": {\"Si\": 1.0}, \"52\": {\"Si\": 1.0}, \"53\": {\"Si\": 1.0}}" energy=-471.5887977364432 stress="-0.00229651793761583 0.0006777887280471289 0.0007381906631167092 0.0006777887280471289 0.0015684734934583659 -0.0008622572199393608 0.0007381906631167092 -0.0008622572199393608 0.0013845522367523086" free_energy=-471.5887977364432 pbc="T T T"
Si       6.72306939       3.84507129       2.69593235      -0.60594357      -0.75089424       0.26366247       0.96713245       0.20823303       0.05198176      -8.75240646
Si       8.77018235       5.05048944       5.85915000       0.69484280       0.26236444       0.58450661      -1.24387310       0.00680532      -0.17812946      -8.73545315
Si      10.69017936       6.05220409       9.05244527      -0.32300210      -0.87906401       0.40316630      -0.33512142       0.25345096      -0.09274129      -8.75805452
Si       8.59705487       7.21924916       2.60866093      -0.90867743      -0.00171872      -0.40753054       0.77338942       0.17544498       1.22788291      -8.70765194
Si      10.58377590       8.40489528       5.89891231       0.23342079       1.49797953      -0.46801720      -0.01061521      -1.11671704       0.49261993      -8.71209648
Si      12.43554653       9.44349431       9.01454406       0.13614318       0.17763107      -0.26975724       0.11618169       0.00415235       0.17930096      -8.72879400
Si      10.59964829      10.42389496       2.78888015       0.45652996      -0.36329785       0.03061820       0.01304442       0.69544591      -0.16724396      -8.71830292
Si      12.48538279      11.77119007       5.91128766       0.24514574      -0.35971619      -0.18309813       0.57747437      -0.44124883      -0.46161366      -8.72187743
Si      14.32412094      12.79779761       9.07640706      -0.41112619       0.16944862      -0.14322651       0.42853738       0.56470379      -0.10887918      -8.71118476
Si      10.55856068       3.87951828       2.69330943      -0.39095845      -0.62026728       0.08053822      -0.30731644      -0.31651578      -0.38755968      -8.76918852
Si      12.46362172       4.95024209       5.77784218       0.50584861      -0.29292475      -0.49910576       0.35152017       0.23386915      -0.07422821      -8.72482586
Si      14.39922400       6.02625013       8.87229543      -0.20148230       0.02918801      -0.79308334       0.50743726       0.34985436       0.86849488      -8.74524776
Si      12.52442566       7.14607757       2.77611658       0.86517232       0.55610060       0.85874752       0.00175514       0.12703530      -0.34586548      -8.75163651
Si      14.42905283       8.39701096       5.99652343      -0.13137974       1.16598235      -0.52912960       0.11546863      -0.64843684      -0.31031638      -8.67646320
Si      16.38437926       9.50260212       9.11867838      -0.42002091       0.42480904      -0.46270673      -0.34764955      -0.64242505      -0.42274135      -8.73935012
Si      14.40268904      10.46518176       2.67970467      -0.18640112      -0.30077024       1.18059425      -0.44490790       0.33313275      -0.03422050      -8.74020335
Si      16.31979365      11.69883466       5.91540269      -0.88981041      -0.07967913       0.25737927      -0.01711487      -0.37814186      -0.38165399      -8.72621119
Si      18.20659806      12.75145763       8.93729731      -0.57412679      -0.41438635      -0.64887842       0.30288415      -0.05248772       0.43543674      -8.73781860
Si      14.49114771       3.87252811       2.74033985       0.44952867      -0.68820741       0.40284671       0.42118104       0.05326510      -0.78342162      -8.73691236
Si      16.38961459       5.04512469       5.88037265      -0.02128587       1.38203464      -0.48662941       0.60646241      -0.60989744       0.13635853      -8.72634694
Si      18.23867195       6.11359050       9.04655024       0.23703384      -0.57285647      -0.54309151       0.28892753       0.10407303      -0.12403687      -8.75529958
Si      16.39798105       7.31631493       2.87698402      -0.11968274       0.41361083       0.82477419      -0.17220399      -0.91245023      -0.24161152      -8.71355464
Si      18.35685929       8.40537796       5.94829899       0.09532655      -0.18343952       0.33648089       0.04022888      -0.12503764       0.30917808      -8.77030421
Si      20.22964149       9.41388204       9.13170062       0.81736668       0.56198827       0.24104482      -0.06955438      -0.21851417      -0.66166318      -8.75275642
Si      18.26823607      10.62549540       2.83057930       0.54120306       0.73510384      -0.22485642      -0.45472876      -0.39710274       0.40913951      -8.71870129
Si      20.27727027      11.75939541       5.90864461       0.22068598      -0.22356743       0.66207966      -0.47344344      -0.62033947      -0.49633195      -8.72454522
Si      22.11282850      12.76407322       9.14412142      -0.02541399      -0.46658536       0.42602169       0.08520267      -0.04360674      -0.55077702      -8.73859264
Si       0.88501441       0.62411016       0.52654565      -0.35435544       0.33537212       0.54311633       0.22743631      -0.52826698      -0.74389957      -8.75319683
Si       2.90615238       1.68694051       3.49106898       0.77325166      -0.25317789      -0.33048404       0.51213277      -0.41033294       0.85221323      -8.73173405
Si       4.82133783       2.79350658       6.76225402       0.48043988       0.33071055      -0.43594829       0.21308091       0.87389324       0.04843456      -8.73937729
Si       2.93185660       3.79123037       0.32555146       0.42236377       0.44586259      -0.79027373      -0.06923313       0.45533773       0.73325663      -8.70014484
Si       4.89969787       4.98321955       3.52542781       1.07596984      -0.30390219       0.67534877      -0.75620719       0.62352418       0.05019412      -8.72505753
Si       6.79421099       6.17120738       6.69669628      -0.48625687       0.15561357       0.00753587       0.00087324      -0.40545870      -0.28187669      -8.71651012
Si       4.76474362       7.21332297       0.50749532      -0.89231657      -0.45813032       0.51623162       0.56037838       0.15127779       0.13857266      -8.74380036
Si       6.81845532       8.34539205       3.61979597      -0.29263664      -0.48201613       0.51756593      -0.41087346       0.70529766      -0.48965122      -8.73996839
Si       8.72514405       9.53979357       6.74424578       0.78406657       0.08553363       0.40288438      -0.26348604      -0.01301890       0.03065255      -8.73089428
Si       4.79259703       0.53260480       0.41374976      -0.03694524       0.26478493       1.01556741      -0.26050349      -0.58103091       0.08474251      -8.73858396
Si       6.74836818       1.65425209       3.49844669      -1.08258668       0.03998672      -0.54286737      -0.29276311      -0.40574353       0.41808798      -8.72360801
Si       8.66649147       2.87051484       6.70707538       0.70983092       0.77781571      -0.60919004      -0.29206105      -0.33343043       0.05661730      -8.75852555
Si       6.84061966       3.87866518       0.34788654      -0.30955910      -0.15624756      -0.33011575      -0.74893012       0.03833916      -0.04212894      -8.72995197
Si       8.68125553       5.04540324       3.46127862       0.76737519      -0.17678626       0.22215189      -0.45378936      -0.41694855       0.31768575      -8.71006566
Si      10.62132711       6.06506161       6.70874542      -1.75256399      -0.58379101       0.05028673       0.52231871       1.13647713      -0.26386187      -8.70502474
Si       8.60324109       7.22230957       0.31376832      -0.12136330       0.57469892       0.29926191      -0.01988518       0.15159082      -0.17448680      -8.76025249
Si      10.60635362       8.20819076       3.59270250      -0.08632841       1.22369357       0.46549885      -0.67814372       0.21482182      -0.82331917      -8.71449789
Si      12.46883470       9.51842802       6.66968839       0.25189661      -0.42475781      -0.38740827       0.33165978       0.17515747       0.06784158      -8.77264725
Si       8.59457664       0.51577083       0.28539597       0.02973114       0.04378466       0.08977009      -0.14191642      -0.11477374       0.65507696      -8.72436782
Si      10.43957559       1.67402458       3.50453296      -1.08085423       0.32276022       0.25196995       0.89539417      -0.16786417       0.52907120      -8.71819115
Si      12.51447124       2.77898192       6.60750412      -0.79375229      -0.86714148      -0.43880393      -0.19334644      -0.11968406      -0.01666921      -8.75727355
Si      10.51360695       3.87319394       0.32523915       0.40464581      -0.23757312      -0.06188816       0.09108812       0.13452608       0.10581710      -8.70155291
Si      12.52474765       4.89292086       3.39573771      -0.67398074      -1.28330251      -1.69062696      -0.10391558       0.38249092       0.74970995      -8.74461189
Si      14.41667240       6.01717032       6.58198606       1.88337928       0.28256157      -0.27697038      -0.35645503       1.10671752      -0.44104727      -8.72524440
Si      12.54515760       7.22330609       0.39357059       0.12619685      -0.85301730      -0.44003301      -0.10271077       0.26355237       0.48460343      -8.73436332
Si      14.38064085       8.29563382       3.61365444       0.65821342       0.09293250       1.02435055       0.48776861       0.28318331       0.18549233      -8.75518303
Si      16.41835079       9.46952656       6.77570588      -0.69279801      -0.07513400      -0.64028038      -0.41820947       0.21382124      -0.51848713      -8.74038835
54
Lattice="11.5478352 0.0 0.0 5.773917198490155 10.000722372470358 0.0 5.773916394327279 3.333571176804646 9.428767828939895" Properties=species:S:1:pos:R:3:momenta:R:3:forces:R:3:energies:R:1 spacegroup="_JSON {\"number\": 1, \"setting\": 1}" unit_cell=conventional occupancy="_JSON {\"0\": {\"Si\": 1.0}, \"1\": {\"Si\": 1.0}, \"2\": {\"Si\": 1.0}, \"3\": {\"Si\": 1.0}, \"4\": {\"Si\": 1.0}, \"5\": {\"Si\": 1.0}, \"6\": {\"Si\": 1.0}, \"7\": {\"Si\": 1.0}, \"8\": {\"Si\": 1.0}, \"9\": {\"Si\": 1.0}, \"10\": {\"Si\": 1.0}, \"11\": {\"Si\": 1.0}, \"12\": {\"Si\": 1.0}, \"13\": {\"Si\": 1.0}, \"14\": {\"Si\": 1.0}, \"15\": {\"Si\": 1.0}, \"16\": {\"Si\": 1.0}, \"17\": {\"Si\": 1.0}, \"18\": {\"Si\": 1.0}, \"19\": {\"Si\": 1.0}, \"20\": {\"Si\": 1.0}, \"21\": {\"Si\": 1.0}, \"22\": {\"Si\": 1.0}, \"23\": {\"Si\": 1.0}, \"24\": {\"Si\": 1.0}, \"25\": {\"Si\": 1.0}, \"26\": {\"Si\": 1.0}, \"27\": {\"Si\": 1.0}, \"28\": {\"Si\": 1.0}, \"29\": {\"Si\": 1.0}, \"30\": {\"Si\": 1.0}, \"31\": {\"Si\": 1.0}, \"32\": {\"Si\": 1.0}, \"33\": {\"Si\": 1.0}, \"34\": {\"Si\": 1.0}, \"35\": {\"Si\": 1.0}, \"36\": {\"Si\": 1.0}, \"37\": {\"Si\": 1.0}, \"38\": {\"Si\": 1.0}, \"39\": {\"Si\": 1.0}, \"40\": {\"Si\": 1.0}, \"41\": {\"Si\": 1.0}, \"42\": {\"Si\": 1.0}, \"43\": {\"Si\": 1.0}, \"44\": {\"Si\": 1.0}, \"45\": {\"Si\": 1.0}, \"46\": {\"Si\": 1.0}, \"47\": {\"Si\": 1.0}, \"48\": {\"Si\": 1.0}, \"49\": {\"Si\": 1.0}, \"50\": {\"Si\": 1.0}, \"51\": {\"Si\": 1.0}, \"52\": {\"Si\": 1.0}, \"53\": {\"Si\": 1.0}}" energy=-471.5612023703866 stress="-0.0014502905755359665 -0.00028298909299342333 -5.562699999814631e-05 -0.00028298909299342333 0.0005972901847952114 -0.00021129044733707653 -5.562699999814631e-05 -0.00021129044733707653 0.0008087231115848283" free_energy=-471.5612023703866 pbc="T T T"
Si       6.73338055       3.81925018       2.70739708       0.96846353      -0.13563979       0.11995783       0.83632106       0.58015401      -0.16049551      -8.73227828
Si       8.74843380       5.06262994       5.87436734      -1.54065527       0.18822279      -0.09518860      -1.26070343      -0.03452877      -0.51841310      -8.74847709
Si      10.66162006       6.02059271       9.06576722      -0.74269829      -0.27689190       0.03854904      -0.23331968       0.44425357      -0.34927775      -8.76326517
Si       8.58284250       7.22452272       2.63703701       0.37406693       0.17376881       1.41941717       0.78963514       0.06109427       0.93981082      -8.71732176
Si      10.59330602       8.43279869       5.89566226       0.10572871      -0.48673243       0.32379130      -0.10264652      -1.30721658       0.40932903      -8.71446215
Si      12.44446745       9.45253375       9.00974680       0.16362064       0.16411489       0.11896080      -0.04239123      -0.00948855       0.30290440      -8.71901249
Si      10.61915141      10.43305362       2.78441629       0.18446247       0.67687221      -0.18550130      -0.38600889       0.53915914      -0.10717439      -8.76680752
Si      12.51832669      11.74067478       5.88503145       0.90867317      -0.67822247      -0.74386748       0.17291889       0.05357872      -0.16266264      -8.71528009
Si      14.32024146      12.82930108       9.06551115       0.26502174       0.97762189      -0.25597538       0.42760544       0.34090441      -0.04303967      -8.71049593
Si      10.52656268       3.83707130       2.67918792      -0.77545429      -0.91892465      -0.62058525      -0.08780735       0.00154690      -0.38351009      -8.79008259
Si      12.49906049       4.94529309       5.75038885       0.74637901       0.11655400      -0.49859395      -0.03908999       0.28512933       0.12067866      -8.67375375
Si      14.40928358       6.04017297       8.86750800       0.55318535       0.46748466       0.59453172       0.37306823       0.20958255       0.79802408      -8.75296592
Si      12.56271772       7.17422706       2.80429265       0.47235266       0.42710477       0.18561958      -0.47637343      -0.22854968      -0.46413572      -8.70064789
Si      14.42830447       8.42595293       5.96300378       0.11052432      -0.13519091      -0.61261270       0.14010300      -0.91904937       0.22555686      -8.71445311
Si      16.35123897       9.49779345       9.08063578      -0.77526342      -0.58753096      -0.92113160      -0.07730575      -0.55346560      -0.15135949      -8.74030895
Si      14.37454005      10.46418627       2.73269475      -0.84523033       0.28580730       0.73740374      -0.27133511       0.41310057      -0.44254241      -8.72129332
Si      16.27700391      11.68068608       5.91129280      -0.66239506      -0.55868963      -0.42370752       0.29392853      -0.15887271      -0.40789664      -8.75518096
Si      18.19031544      12.72895904       8.92439121      -0.02468160      -0.41754815       0.20558950       0.38755433       0.05119350       0.61792092      -8.72670153
Si      14.52886071       3.84345930       2.72951745       0.88974689      -0.35192208      -0.76127651       0.03611487       0.31646425      -0.56067492      -8.71867129
Si      16.41694980       5.08537225       5.86262519       1.03862426       0.06693966      -0.14143912       0.48129463      -0.93263056       0.32570773      -8.75942602
Si      18.26163891       6.09253142       9.01783877       0.61434238      -0.15633008      -0.45730536       0.18683130       0.38964624       0.24700756      -8.74375563
Si      16.38707775       7.29977924       2.90813942      -0.24491433      -1.02345009       0.32397777       0.03047071      -0.81063983      -0.39343937      -8.72754349
Si      18.36369936       8.39510881       5.97717695       0.14333056      -0.13054414       0.70097102      -0.04623324       0.17893967       0.05690037      -8.73731114
Si      20.26217329       9.43004294       9.11774263       0.30737059       0.02517274      -0.72467171      -0.50851175      -0.32510913      -0.45050469      -8.77520906
Si      18.27583190      10.64621638       2.83864841      -0.24583675       0.03987139       0.53071761      -0.43080528      -0.45550074       0.39683339      -8.69110166
Si      20.27194699      11.72844346       5.92220853      -0.34755754      -0.81245225      -0.12581230      -0.17990316      -0.05296190      -0.42046139      -8.73493830
Si      22.11346314      12.74108144       9.14399033       0.01506051      -0.34472113      -0.42120019      -0.04920668       0.21257117      -0.50583023      -8.73869819
Si       0.87566903       0.61907015       0.52417107      -0.00314391      -0.51971399      -0.60374793       0.22054646      -0.48693006      -0.61772507      -8.76449126
Si       2.96271962       1.65803678       3.50896557       1.24446598      -0.79463052       0.98194164      -0.04478758      -0.18505102       0.71929732      -8.73826379
Si       4.85201364       2.84139273       6.74373812       0.62033669       1.33033904      -0.26552874      -0.05663629       0.22061159       0.07769582      -8.71702006
Si       2.94955661       3.82735000       0.31562284       0.22089395       0.81772869       0.41135811      -0.19413320       0.00463449       0.72257749      -8.70200094
Si       4.92117885       4.99220018       3.55661205      -0.26419030       0.57277573       0.37850559      -0.78219223       0.32658504      -0.47292566      -8.71729484
Si       6.77366063       6.16356925       6.68600626      -0.21387109      -0.40790153      -0.38820340       0.32711425      -0.24110818      -0.16848172      -8.74136011
Si       4.74945897       7.19948534       0.54038663       0.42090156      -0.02137243       0.69456042       0.97441823       0.33114920      -0.04306570      -8.72886077
Si       6.78985688       8.35186408       3.62782588      -0.73515887       0.74157830      -0.16611581      -0.15734806       0.74270198      -0.31081985      -8.74472318
Si       8.75228305       9.54379649       6.76566127       0.20451206       0.03599915       0.37593115      -0.44220623      -0.13262691      -0.12340113      -8.74728388
Si       4.78098149       0.51927723       0.46211281      -0.36739480      -0.77875178       0.65143986      -0.10531008      -0.59164630      -0.60840870      -8.73608487
Si       6.68893989       1.63861690       3.49072297      -0.99260607      -0.60246628       0.29611149       0.45850178      -0.25885269       0.59649700      -8.74045022
Si       8.68576431       2.89425048       6.68289906      -0.06330293       0.07243944      -0.23680888      -0.63080040      -0.54102357       0.35038685      -8.74194743
Si       6.79827636       3.87182714       0.33000944      -1.19910518      -0.11385031      -0.32067962      -0.32119842       0.00432717       0.08218156      -8.73481854
Si       8.69863678       5.02251405       3.48390455      -0.16268516      -0.63274811       0.59582532      -0.67258536      -0.16430495       0.13263264      -8.70416786
Si      10.57101946       6.08276595       6.70369424       0.08513798       1.22244111      -0.22530676       1.47285621       0.95901464      -0.20590723      -8.66917487
Si       8.59580445       7.25614366       0.32055526      -0.15238107       0.66934136      -0.00960794       0.01990004      -0.03556543      -0.05880594      -8.77457999
Si      10.57958144       8.26949828       3.58232153      -0.80904953       0.92137108      -0.82385916      -0.17865790      -0.53985388      -0.66502210      -8.71578517
Si      12.49297785       9.50732973       6.65575267       0.60448804       0.03775186      -0.08340039       0.07431720       0.31545909       0.30255645      -8.77416887
Si       8.58879292       0.51196645       0.31365084      -0.25396052      -0.19707742       0.91936852      -0.15601524      -0.14428357       0.37863138      -8.71305199
Si      10.42199906       1.68065303       3.53729119       0.41678351      -0.13931787       0.91980019       0.91139687      -0.43129702       0.21108842      -8.71809319
Si      12.47031639       2.73479565       6.58412027      -0.78720499      -0.70144885      -0.42796110       0.21375562       0.33861331       0.08499738      -8.75834686
Si      10.53489734       3.86623741       0.32336399       0.35872584      -0.03805967      -0.06757095      -0.10017146       0.09513107      -0.12041207      -8.71439116
Si      12.49351883       4.84806169       3.34326191      -0.37149356      -0.32518088      -0.23338108       0.45260662       0.77814350       1.04644765      -8.71758357
Si      14.48556120       6.07506005       6.55132390       0.54007466       1.82973375      -0.80076181      -1.13850732       0.69511712      -0.08782157      -8.71815151
Si      12.54654093       7.19376204       0.39191892      -0.10149716      -0.23049139       0.37423242      -0.20979188       0.43170860       0.47035308      -8.72540352
Si      14.42905128       8.31051308       3.66735996       1.05645134       0.43669381       0.82872503      -0.03328004       0.13208377      -0.57978993      -8.77546754
Si      16.37156106       9.47415313       6.72725813      -0.95199332       0.22007327      -1.08548430       0.13400378       0.08795811      -0.03201220      -8.73879310
54
Lattice="11.5478352 0.0 0.0 5.773917198490155 10.000722372470358 0.0 5.773916394327279 3.333571176804646 9.428767828939895" Properties=species:S:1:pos:R:3:momenta:R:3:forces:R:3:energies:R:1 spacegroup="_JSON {\"number\": 1, \"setting\": 1}" unit_cell=conventional occupancy="_JSON {\"0\": {\"Si\": 1.0}, \"1\": {\"Si\": 1.0}, \"2\": {\"Si\": 1.0}, \"3\": {\"Si\": 1.0}, \"4\": {\"Si\": 1.0}, \"5\": {\"Si\": 1.0}, \"6\": {\"Si\": 1.0}, \"7\": {\"Si\": 1.0}, \"8\": {\"Si\": 1.0}, \"9\": {\"Si\": 1.0}, \"10\": {\"Si\": 1.0}, \"11\": {\"Si\": 1.0}, \"12\": {\"Si\": 1.0}, \"13\": {\"Si\": 1.0}, \"14\": {\"Si\": 1.0}, \"15\": {\"Si\": 1.0}, \"16\": {\"Si\": 1.0}, \"17\": {\"Si\": 1.0}, \"18\": {\"Si\": 1.0}, \"19\": {\"Si\": 1.0}, \"20\": {\"Si\": 1.0}, \"21\": {\"Si\": 1.0}, \"22\": {\"Si\": 1.0}, \"23\": {\"Si\": 1.0}, \"24\": {\"Si\": 1.0}, \"25\": {\"Si\": 1.0}, \"26\": {\"Si\": 1.0}, \"27\": {\"Si\": 1.0}, \"28\": {\"Si\": 1.0}, \"29\": {\"Si\": 1.0}, \"30\": {\"Si\": 1.0}, \"31\": {\"Si\": 1.0}, \"32\": {\"Si\": 1.0}, \"33\": {\"Si\": 1.0}, \"34\": {\"Si\": 1.0}, \"35\": {\"Si\": 1.0}, \"36\": {\"Si\": 1.0}, \"37\": {\"Si\": 1.0}, \"38\": {\"Si\": 1.0}, \"39\": {\"Si\": 1.0}, \"40\": {\"Si\": 1.0}, \"41\": {\"Si\": 1.0}, \"42\": {\"Si\": 1.0}, \"43\": {\"Si\": 1.0}, \"44\": {\"Si\": 1.0}, \"45\": {\"Si\": 1.0}, \"46\": {\"Si\": 1.0}, \"47\": {\"Si\": 1.0}, \"48\": {\"Si\": 1.0}, \"49\": {\"Si\": 1.0}, \"50\": {\"Si\": 1.0}, \"51\": {\"Si\": 1.0}, \"52\": {\"Si\": 1.0}, \"53\": {\"Si\": 1.0}}" energy=-471.66057916026625 stress="0.0020731460966729983 -0.0006297137487031434 -0.0005491287594075013 -0.0006297137487031434 -0.001109619626457828 0.00113430176615738 -0.0005491287594075013 0.00113430176615738 -0.0012526910492141035" free_energy=-471.66057916026625 pbc="T T T"
Si       6.80039710       3.83326597       2.70835761       1.22189132       0.59077858      -0.07062295      -0.59119669       0.26201592      -0.11473266      -8.70631500
Si       8.64363033       5.07253848       5.85632207      -1.90631812       0.17583194      -0.44027772       0.86964391      -0.09800463       0.06746066      -8.74679820
Si      10.61482140       6.01937684       9.05416089      -0.99905069       0.14453433      -0.47346590      -0.05522277       0.11034280      -0.31722241      -8.74436860
Si       8.62307214       7.23457284       2.73265702       0.90708727       0.17229009       1.90143717      -0.20486173      -0.08904299      -0.33513640      -8.73718925
Si      10.59714999       8.37011525       5.91983068       0.09297469      -1.53977278       0.40471692       0.09579588       0.13532626      -0.34649932      -8.75009933
Si      12.45213320       9.46104455       9.02673502       0.15907750       0.15820029       0.49403478       0.07742386      -0.02197339       0.16123616      -8.74070092
Si      10.61138452      10.47947860       2.77119447      -0.48751187       0.88150255      -0.31265690      -0.39641196      -0.27876127      -0.08037132      -8.76913700
Si      12.56330212      11.71243967       5.84869801       0.61814932      -0.31918781      -0.44931175      -0.56140983       0.35759895       0.58415659      -8.72000758
Si      14.34697336      12.88293002       9.05062127       0.65367782       0.82383632      -0.31182929       0.02575382      -0.60644635      -0.04155559      -8.75419123
Si      10.48989407       3.79499549       2.64059097      -0.46753125      -0.56704560      -0.64406480       0.51214639       0.45997515       0.41790047      -8.75394368
Si      12.53341548       4.96197980       5.73281393       0.50923835       0.50502235      -0.08493768      -0.25219429       0.21684569       0.45544412      -8.68719791
Si      14.44424583       6.06965970       8.91967617       0.58378173       0.58005492       1.17792564      -0.39187693      -0.09724761      -0.05376480      -8.71993508
Si      12.56811278       7.18810960       2.79985805      -0.25914363       0.12355065      -0.26678165      -0.44082444      -0.14755362      -0.11790972      -8.69395564
Si      14.43613551       8.39278154       5.94324413       0.11386111      -0.86250639      -0.13118122      -0.14313182       0.13294411       0.24514256      -8.75578921
Si      16.31143674       9.45453197       9.03082359      -0.66928093      -0.85909366      -0.88217914       0.21088593       0.24051647       0.22805376      -8.72786804
Si      14.32938894      10.49259315       2.75638848      -0.65943444       0.71914330       0.22293114       0.57165014       0.10287678      -0.22216158      -8.71929583
Si      16.25415606      11.65250928       5.88025303      -0.20752643      -0.36477430      -0.58838307       0.29953297       0.42236159       0.25789409      -8.77187136
Si      18.20212777      12.70974063       8.95526531       0.42718789      -0.30007452       0.86441289       0.19617045       0.11064224       0.19078114      -8.73953338
Si      14.56871689       3.83500373       2.68148622       0.46946548      -0.02963593      -0.76124430      -0.58955388       0.08740588       0.64255116      -8.71172185
Si      16.47284175       5.06251412       5.86723554       0.73471022      -0.69711280       0.26252693      -0.88745458       0.00967883       0.10617602      -8.76786712
Si      18.29870190       6.09797021       9.00643482       0.73949655       0.30842436       0.06458454      -0.05046046       0.17006062       0.40495440      -8.71551451
Si      16.37831424       7.22780269       2.91065609      -0.03854107      -1.39975266      -0.21526510       0.22571426       0.44522540      -0.34340968      -8.76006369
Si      18.36558814       8.39678624       6.00887411      -0.14833904       0.20519450       0.36033504      -0.33958796       0.21612538      -0.51294461      -8.69327145
Si      20.26137340       9.42644170       9.07458413      -0.25493564      -0.00214053      -0.65305232      -0.18959977       0.28763974       0.58078739      -8.76128299
Si      18.25463465      10.63451208       2.87211633      -0.37690647      -0.39396841       0.52730732       0.29325932      -0.08894243      -0.45240374      -8.70732207
Si      20.25312307      11.69305589       5.90746584      -0.25947982      -0.37709053      -0.25065063       0.25231282       0.56279303       0.30790982      -8.74141934
Si      22.11046119      12.73307991       9.10706674      -0.15824677       0.06271390      -0.87368137      -0.15776976       0.29839206      -0.05632045      -8.74498546
Si       0.88241723       0.58043987       0.47793674       0.22410147      -0.77914916      -0.96320312       0.07686731       0.19337078       0.14874420      -8.74675293
Si       3.01391546       1.61762710       3.57740426       0.46029509      -0.56740061       1.37081213      -0.99632286       0.50469047      -0.29150914      -8.72441265
Si       4.87931602       2.90291264       6.72972165       0.36322661       0.67622535      -0.31764354      -0.28284395      -1.09209182      -0.10888475      -8.68139692
Si       2.95302021       3.86534012       0.35597634      -0.09784926       0.54658836       0.90313569      -0.22530793      -0.32136268      -0.15803441      -8.75266411
Si       4.88844193       5.02103750       3.55548908      -0.74415865       0.23516684      -0.41136339       0.15580034      -0.79932453      -0.42218705      -8.72369138
Si       6.77481553       6.14103950       6.66482307       0.20870940      -0.26410023      -0.28802275       0.12390025       0.48278692       0.34108968      -8.77046770
Si       4.80043251       7.20746994       0.56660249       1.29314556       0.24455479       0.12668122       0.07675619       0.02276394      -0.72003170      -8.73089800
Si       6.74898516       8.40887909       3.61423851      -0.73874548       1.16161728      -0.20816558       0.17735256      -0.32190555       0.25022483      -8.74005524
Si       8.74848776       9.53630522       6.77619455      -0.28116272      -0.39675008      -0.06726299      -0.17320455      -0.41286486      -0.47311568      -8.76930020
Si       4.76319532       0.46652192       0.46698418      -0.18579774      -0.97826878      -0.52681710       0.38071723       0.40151673      -0.82642386      -8.73445464
Si       6.66158602       1.60812340       3.52439269       0.03824793      -0.32847107       0.84632774       0.78141029       0.62803339       0.03386678      -8.74392249
Si       8.66147642       2.88022930       6.68144192      -0.75605175      -0.51347707       0.10613282      -0.20781671      -0.16966879       0.05987223      -8.72973948
Si       6.73262943       3.86536823       0.31883071      -1.10297428      -0.13745199      -0.05434027       0.46120799      -0.01442558       0.27618450      -8.74374582
Si       8.66973749       4.98715305       3.51584027      -0.77632701      -0.61725523       0.52564869      -0.02647134       0.22711445      -0.24129826      -8.75289004
Si      10.61820507       6.16412857       6.68084802       1.37475660       1.41937973      -0.67014061       0.15892721      -0.84241681      -0.27613893      -8.70811532
Si       8.59104162       7.28767005       0.32585548       0.02630447       0.48117412       0.35973552       0.23220149      -0.23801002       0.50856227      -8.73149971
Si      10.54110090       8.29588590       3.52639661      -0.42475049       0.11403511      -1.02481975       0.73125814      -0.42086279       0.44099201      -8.72907010
Si      12.52231578       9.51641660       6.66313635       0.40995048       0.18872191       0.35265262      -0.32988833      -0.14826899       0.25207143      -8.74305155
Si       8.57303953       0.49917088       0.37014151      -0.26226750      -0.21144122       1.09346254       0.17291439       0.16578358      -0.18002457      -8.73026449
Si      10.46898386       1.65710417       3.58246581       1.14269249      -0.70555773       0.55644852      -0.00303511      -0.21437097      -0.73837630      -8.73596918
Si      12.44096500       2.71440735       6.56832035      -0.26745984      -0.02425422      -0.09915185       0.46192429       0.53626809       0.37503699      -8.72845625
Si      10.55121439       3.86597742       0.31309332       0.30516623      -0.00582714      -0.34252821       0.05920932      -0.03588573      -0.18415383      -8.77344127
Si      12.49189846       4.85784576       3.36494905       0.27874213       0.60535623       0.88996786       0.33292470       0.40866942       0.36939492      -8.70460226
Si      14.47879716       6.17757163       6.51628552      -0.57457806       1.59590259      -0.31487454      -0.27542090      -1.18295449       0.77095327      -8.70111280
Si      12.53211078       7.19273366       0.42288542      -0.45881590       0.06042306       0.64803371      -0.24491509      -0.07758599      -0.15208360      -8.72991928
Si      14.47553159       8.33517418       3.67766016       0.57103029       0.43217142      -0.59197317      -0.59661393      -0.15089691      -1.15448973      -8.73334287
Si      16.33386418       9.48356283       6.67540683      -0.36378313       0.02916557      -0.76935876       0.59973613      -0.32889586       0.44374265      -8.72569679
54
Lattice="11.5478352 0.0 0.0 5.773917198490155 10.000722372470358 0.0 5.773916394327279 3.333571176804646 9.428767828939895" Properties=species:S:1:pos:R:3:momenta:R:3:forces:R:3:energies:R:1 spacegroup="_JSON {\"number\": 1, \"setting\": 1}" unit_cell=conventional occupancy="_JSON {\"0\": {\"Si\": 1.0}, \"1\": {\"Si\": 1.0}, \"2\": {\"Si\": 1.0}, \"3\": {\"Si\": 1.0}, \"4\": {\"Si\": 1.0}, \"5\": {\"Si\": 1.0}, \"6\": {\"Si\": 1.0}, \"7\": {\"Si\": 1.0}, \"8\": {\"Si\": 1.0}, \"9\": {\"Si\": 1.0}, \"10\": {\"Si\": 1.0}, \"11\": {\"Si\": 1.0}, \"12\": {\"Si\": 1.0}, \"13\": {\"Si\": 1.0}, \"14\": {\"Si\": 1.0}, \"15\": {\"Si\": 1.0}, \"16\": {\"Si\": 1.0}, \"17\": {\"Si\": 1.0}, \"18\": {\"Si\": 1.0}, \"19\": {\"Si\": 1.0}, \"20\": {\"Si\": 1.0}, \"21\": {\"Si\": 1.0}, \"22\": {\"Si\": 1.0}, \"23\": {\"Si\": 1.0}, \"24\": {\"Si\": 1.0}, \"25\": {\"Si\": 1.0}, \"26\": {\"Si\": 1.0}, \"27\": {\"Si\": 1.0}, \"28\": {\"Si\": 1.0}, \"29\": {\"Si\": 1.0}, \"30\": {\"Si\": 1.0}, \"31\": {\"Si\": 1.0}, \"32\": {\"Si\": 1.0}, \"33\": {\"Si\": 1.0}, \"34\": {\"Si\": 1.0}, \"35\": {\"Si\": 1.0}, \"36\": {\"Si\": 1.0}, \"37\": {\"Si\": 1.0}, \"38\": {\"Si\": 1.0}, \"39\": {\"Si\": 1.0}, \"40\": {\"Si\": 1.0}, \"41\": {\"Si\": 1.0}, \"42\": {\"Si\": 1.0}, \"43\": {\"Si\": 1.0}, \"44\": {\"Si\": 1.0}, \"45\": {\"Si\": 1.0}, \"46\": {\"Si\": 1.0}, \"47\": {\"Si\": 1.0}, \"48\": {\"Si\": 1.0}, \"49\": {\"Si\": 1.0}, \"50\": {\"Si\": 1.0}, \"51\": {\"Si\": 1.0}, \"52\": {\"Si\": 1.0}, \"53\": {\"Si\": 1.0}}" energy=-471.3112741060329 stress="0.0008061833135768228 -0.0001236416785949982 -0.0001713875213259808 -0.0001236416785949982 -0.002138136599196979 0.0006218915785370314 -0.0001713875213259808 0.0006218915785370314 -0.0016460247652830167" free_energy=-471.3112741060329 pbc="T T T"
Si       6.82752696       3.86606916       2.69988578      -0.37730466       0.50481161      -0.24635288      -1.29557550      -0.33698408      -0.07666941      -8.69266781
Si       8.59490723       5.07311102       5.84062040       0.26788024      -0.22437124      -0.07839752       1.69508209      -0.34926096       0.38637792      -8.67743934
Si      10.56446139       6.02845898       9.01797926      -0.81371828       0.17083864      -0.87466912       0.36490404      -0.01194503      -0.18187790      -8.72147153
Si       8.65061326       7.23809197       2.80942672      -0.01701324      -0.05815312       0.88294470      -0.79949234      -0.15397319      -0.88413384      -8.70362782
Si      10.60743751       8.31591026       5.92010242       0.31764754      -0.20966087      -0.48442619       0.16733228       1.31550072      -0.67015521      -8.71738600
Si      12.46712685       9.46689649       9.05594434       0.48414844       0.02360125       0.55633789       0.34777816      -0.17970650      -0.08719114      -8.75822857
Si      10.57681020      10.51045047       2.75149412      -0.68571221       0.26677251      -0.42918644       0.16502461      -0.40381238      -0.03930474      -8.75380768
Si      12.56866876      11.70739808       5.85348298      -0.48191826       0.05387500       0.68474249      -0.80877125       0.06798717       0.76342546      -8.74072022
Si      14.37619884      12.89386528       9.03237160       0.36070191      -0.52780607      -0.37199181      -0.35154564      -1.05643920       0.01431950      -8.76191027
Si      10.48959061       3.78548290       2.63017325       0.51359581       0.23690971       0.33111749       0.72574114       0.57992499       0.73220760      -8.69608205
Si      12.55062237       4.99406486       5.74896785       0.16182599       0.62986663       0.72978888      -0.18817587      -0.13990669       0.54810418      -8.74503374
Si      14.45223415       6.09215378       8.97188629      -0.37155637       0.20162278       0.70175860      -0.73059067      -0.38612536      -0.48357201      -8.69064054
Si      12.54133718       7.19082860       2.78492275      -0.66818217       0.00776160      -0.25639716      -0.06498468      -0.04001810       0.05904503      -8.73118614
Si      14.43494932       8.36663296       5.93659406      -0.16794437       0.02174657      -0.30156728      -0.17637879       0.70210164      -0.42922623      -8.75953181
Si      16.28600797       9.42627780       8.99700104      -0.27214734      -0.11313270      -0.33696433       0.31849297       0.63895211       0.49884646      -8.71463926
Si      14.32451313      10.52962993       2.76258497       0.56871696       0.60929427       0.05432739       0.91832804      -0.22381069      -0.05920271      -8.73922161
Si      16.25422865      11.65278274       5.86566547       0.20907231       0.38894039       0.09819648       0.29077376       0.46639518       0.50185433      -8.75933664
Si      18.22993721      12.69850887       9.00130883       0.59737384      -0.12224123       0.76306522       0.05214372       0.13246419      -0.31011030      -8.75058808
Si      14.56610728       3.83362993       2.67724589      -0.63113415      -0.07142744       0.71304551      -0.81642775      -0.10031570       1.05139202      -8.70396193
Si      16.47016167       5.03679781       5.87955609      -0.87091476      -0.14829458       0.12748166      -1.00370559       0.52156530      -0.19640761      -8.73750561
Si      18.33242333       6.11601029       9.02378016       0.47736414       0.28943596       0.53973959      -0.31952963      -0.18133678       0.17326653      -8.71461651
Si      16.38526952       7.18434320       2.88563991       0.28999111      -0.10493848      -0.74494988       0.16442125       1.01158021      -0.35379271      -8.75101286
Si      18.34341413       8.41325864       6.00441351      -0.68546974       0.35323926      -0.56138181      -0.28067497      -0.05914054      -0.61750919      -8.71099400
Si      20.24516488       9.44099426       9.06896908      -0.28782436       0.57428143       0.46827690       0.10866682       0.34723754       0.67911331      -8.72941672
Si      18.25324662      10.61480535       2.87372165       0.41488096      -0.29860366      -0.58943788       0.62872966       0.13043518      -0.91478476      -8.70888054
Si      20.25043178      11.69489780       5.91413577       0.15020536       0.38903526       0.60012842       0.21767568       0.32274093       0.65116355      -8.74300619
Si      22.09671272      12.74676009       9.06448077      -0.33336412       0.42872260      -0.65023333      -0.02528988       0.17736922       0.33248686      -8.74452480
Si       0.89599249       0.55378242       0.43886096       0.28016870      -0.13993467      -0.44876663       0.02377038       0.56432485       0.45004401      -8.71193977
Si       2.99493792       1.61170099       3.62686672      -1.19571987       0.37871876       0.34184001      -1.01413907       0.63691234      -0.94564484      -8.71637778
Si       4.88600545       2.88922943       6.70852877      -0.13171307      -1.21377288      -0.48084023      -0.36945587      -1.11305833      -0.06670567      -8.70404391
Si       2.93987358       3.88228610       0.38777129      -0.37550913       0.13236347       0.19237278      -0.10770998      -0.19122540      -0.59296623      -8.77633813
Si       4.86330618       4.99597395       3.52520013      -0.10686802      -1.19138457      -0.59121318       0.56499844      -0.76646563       0.17052187      -8.73104284
Si       6.78340746       6.15160179       6.66711227      -0.00197369       0.70170654       0.40678614      -0.32792904       0.59295409       0.44634529      -8.76544877
Si       4.85967291       7.22002686       0.54250112       0.75965705       0.23690134      -1.03984369      -0.72614221       0.02728129      -0.68273704      -8.72758024
Si       6.72031304       8.44366423       3.61675036      -0.29780198      -0.04560943       0.33045326       0.39365658      -1.11329879       0.33747411      -8.71746363
Si       8.73072832       9.50006484       6.75384886      -0.33576874      -0.92834781      -0.73997412       0.06349877      -0.17993307      -0.28534542      -8.76826343
Si       4.77240738       0.44113890       0.41347673       0.57041047       0.17039419      -1.35516404       0.48743628       1.00888594      -0.20166855      -8.73584156
Si       6.68723898       1.61994467       3.56076371       0.76698704       0.80408089       0.37560633       0.10862373       0.71106983      -0.59472216      -8.73178098
Si       8.62114137       2.85288339       6.68531491      -0.64034713      -0.42194902      -0.01721537       0.34536265       0.24599807      -0.16906718      -8.72536166
Si       6.69705288       3.85815890       0.32711684      -0.21357275      -0.12393249       0.35321628       0.60577759       0.03749896       0.20008683      -8.73752871
Si       8.63847762       4.96823120       3.53124519      -0.24184789      -0.03371597       0.01796010       0.63251702       0.48414952      -0.41021925      -8.75809914
Si      10.68259272       6.18717568       6.64019975       0.83632963      -0.77567098      -0.76800490      -0.81341284      -1.69097483       0.14406807      -8.67338305
Si       8.60301529       7.30162341       0.36675245       0.43967085       0.01173627       1.19748274       0.26064274      -0.38452241       0.48753856      -8.69317890
Si      10.55393299       8.29256734       3.49892939       0.95370332      -0.11117076       0.09626744       0.84528461       0.08354838       0.88941196      -8.73436284
Si      12.52898673       9.51625017       6.68975477      -0.17098614      -0.24485755       0.62191702      -0.38084015      -0.33676478       0.08629881      -8.71882369
Si       8.56945542       0.49860744       0.41505578       0.17629921       0.25530935       0.52174231       0.36371374       0.41186457      -0.55467741      -8.73355200
Si      10.51922158       1.61865811       3.57712080       0.62630786      -0.61676693      -0.78579945      -0.56309733       0.34557557      -0.81346979      -8.73917322
Si      12.44500166       2.73356470       6.58048581       0.40872729       0.73227878       0.60436992       0.40249358       0.43451111       0.52578401      -8.69655595
Si      10.57174850       3.86407158       0.29127015       0.48967290      -0.06082333      -0.39655938       0.09300616      -0.01306697       0.18051010      -8.79091513
Si      12.51498170       4.89956352       3.41658272       0.51214864       0.87438820       0.92416227      -0.02282993      -0.03358103      -0.23287310      -8.69410359
Si      14.44748851       6.19880648       6.53684348      -0.47171953      -0.93568322       1.17293638       0.31093065      -1.70221952       1.02869387      -8.68156910
Si      12.49902532       7.18742106       0.44414349      -0.78142641      -0.33431627       0.05382117      -0.15310139      -0.34783718      -0.56800214      -8.73052627
Si      14.47970531       8.34900108       3.60783400      -0.43480043       0.03940863      -1.87963389      -0.66995938      -0.36231344      -0.39991971      -8.71875537
Si      16.33724265       9.47181606       6.65404597       0.43077127      -0.43147659      -0.03291484       0.34295261      -0.14079233       0.48357599      -8.74182617
54
Lattice="11.5478352 0.0 0.0 5.773917198490155 10.000722372470358 0.0 5.773916394327279 3.333571176804646 9.428767828939895" Properties=species:S:1:pos:R:3:momenta:R:3:forces:R:3:energies:R:1 spacegroup="_JSON {\"number\": 1, \"setting\": 1}" unit_cell=conventional occupancy="_JSON {\"0\": {\"Si\": 1.0}, \"1\": {\"Si\": 1.0}, \"2\": {\"Si\": 1.0}, \"3\": {\"Si\": 1.0}, \"4\": {\"Si\": 1.0}, \"5\": {\"Si\": 1.0}, \"6\": {\"Si\": 1.0}, \"7\": {\"Si\": 1.0}, \"8\": {\"Si\": 1.0}, \"9\": {\"Si\": 1.0}, \"10\": {\"Si\": 1.0}, \"11\": {\"Si\": 1.0}, \"12\": {\"Si\": 1.0}, \"13\": {\"Si\": 1.0}, \"14\": {\"Si\": 1.0}, \"15\": {\"Si\": 1.0}, \"16\": {\"Si\": 1.0}, \"17\": {\"Si\": 1.0}, \"18\": {\"Si\": 1.0}, \"19\": {\"Si\": 1.0}, \"20\": {\"Si\": 1.0}, \"21\": {\"Si\": 1.0}, \"22\": {\"Si\": 1.0}, \"23\": {\"Si\": 1.0}, \"24\": {\"Si\": 1.0}, \"25\": {\"Si\": 1.0}, \"26\": {\"Si\": 1.0}, \"27\": {\"Si\": 1.0}, \"28\": {\"Si\": 1.0}, \"29\": {\"Si\": 1.0}, \"30\": {\"Si\": 1.0}, \"31\": {\"Si\": 1.0}, \"32\": {\"Si\": 1.0}, \"33\": {\"Si\": 1.0}, \"34\": {\"Si\": 1.0}, \"35\": {\"Si\": 1.0}, \"36\": {\"Si\": 1.0}, \"37\": {\"Si\": 1.0}, \"38\": {\"Si\": 1.0}, \"39\": {\"Si\": 1.0}, \"40\": {\"Si\": 1.0}, \"41\": {\"Si\": 1.0}, \"42\": {\"Si\": 1.0}, \"43\": {\"Si\": 1.0}, \"44\": {\"Si\": 1.0}, \"45\": {\"Si\": 1.0}, \"46\": {\"Si\": 1.0}, \"47\": {\"Si\": 1.0}, \"48\": {\"Si\": 1.0}, \"49\": {\"Si\": 1.0}, \"50\": {\"Si\": 1.0}, \"51\": {\"Si\": 1.0}, \"52\": {\"Si\": 1.0}, \"53\": {\"Si\": 1.0}}" energy=-472.3235769725261 stress="-0.0024533516446535158 0.0011244915807600711 0.000755581810613637 0.0011244915807600711 0.0013034140971927488 -0.0010880616670179506 0.000755581810613637 -0.0010880616670179506 0.0008601352472192322" free_energy=-472.3235769725261 pbc="T T T"
Si       6.76833632       3.87794650       2.68732825      -1.55020461      -0.05035977      -0.16229979      -0.00693048      -0.33022426       0.18322555      -8.76900572
Si       8.66216121       5.05138876       5.85220987       1.93875058      -0.51033952       0.49044019       0.27191344       0.00081368       0.24788631      -8.73662921
Si      10.54038256       6.03946351       8.96780489      -0.03473034       0.31787491      -0.96463208       0.61850788       0.25719946       0.10794257      -8.73447103
Si       8.62784197       7.23257646       2.82660266      -0.60432547      -0.07636381      -0.08505109       0.15445032       0.13133899      -0.31401314      -8.73280062
Si      10.62970076       8.34388348       5.87690761       0.48884479       0.93515087      -0.93224994      -0.00902208       0.01285881       0.22840001      -8.75300308
Si      12.50697816       9.45967448       9.08051938       1.00550390      -0.30953634       0.36768226       0.21835230      -0.21236129      -0.13657832      -8.75906937
Si      10.55167031      10.51527188       2.72886386      -0.20892730       0.06443345      -0.40185279       0.41277496       0.17306713       0.08231694      -8.71224060
Si      12.51752443      11.70657641       5.90999425      -1.28573016      -0.19794889       1.22820696      -0.08082264      -0.36448412      -0.18020897      -8.76891361
Si      14.38397265      12.83036622       9.01662602       0.01936648      -1.71873930      -0.15637593      -0.02923053      -0.35794211       0.28348188      -8.75647306
Si      10.54231600       3.81909464       2.67037772       1.40848375       0.99565839       1.04887139       0.36277663       0.37271549       0.13011627      -8.70774351
Si      12.55482811       5.01462328       5.80400619       0.06050354       0.02310545       1.24113231       0.05028266      -0.62624482       0.05069944      -8.77748047
Si      14.41115885       6.08806271       8.99345770      -1.00111580      -0.32159012       0.22983314       0.02559544      -0.23457162      -0.04946485      -8.74641462
Si      12.50867337       7.18888369       2.77049977      -0.48983732      -0.10971247      -0.37951782       0.26627425      -0.14208689      -0.26788018      -8.76944485
Si      14.42149146       8.38161950       5.90253649      -0.29370703       0.25591531      -0.96585291       0.02435310      -0.41321864      -0.30701796      -8.72651830
Si      16.28372111       9.44079559       8.99931538       0.16464044       0.53083568       0.41582769       0.22531743       0.10040133       0.44519407      -8.74233182
Si      14.38285372      10.55243429       2.76224564       1.43614961       0.25831067      -0.10117988       0.05035266      -0.23074512      -0.18592790      -8.77957041
Si      16.27786117      11.68592286       5.88411101       0.71679964       0.75211097       0.45944184       0.37589968      -0.01160325      -0.06159593      -8.73045562
Si      18.26348771      12.69745509       9.02769779       0.67698259       0.09268661       0.24145181       0.02538682       0.17321953      -0.30599671      -8.75349354
Si      14.50429343       3.82731173       2.74351415      -1.60297472      -0.10798968       1.50775772      -0.31347100       0.14302517      -0.13806676      -8.74990443
Si      16.39758370       5.04207296       5.88075170      -1.59383589       0.15946578      -0.02622087       0.18666406      -0.20694162       0.01401321      -8.72829052
Si      18.34299274       6.12268251       9.05401589      -0.10449609      -0.03835164       0.51153588      -0.42503313      -0.18684742      -0.22276512      -8.75913268
Si      16.40324842       7.20749551       2.83322450       0.30551213       0.73031979      -1.22899444      -0.18776953       0.01368796      -0.25053447      -8.73560651
Si      18.30205594       8.42560353       5.95655943      -0.76002983       0.04949254      -1.10266855       0.22478439      -0.31690300       0.02042009      -8.77243496
Si      20.23475412       9.47849865       9.10881614      -0.12075579       0.69962386       0.79745150       0.05915344      -0.26126092      -0.30833553      -8.72721499
Si      18.29319188      10.59992981       2.81106867       0.91452881      -0.37826574      -1.65406296      -0.12816969      -0.28632318      -0.33196870      -8.74925899
Si      20.26082209      11.71802034       5.96262478       0.08968842       0.28041416       1.01506792      -0.39529785      -0.50032638      -0.25264785      -8.74855203
Si      22.08188315      12.77508501       9.04369373      -0.15188116       0.63258438      -0.15687827       0.28482000       0.10038328       0.26947650      -8.74166655
Si       0.91292007       0.56508678       0.42923872       0.39400161       0.46267481      -0.02274302       0.13309638       0.13252093       0.03138221      -8.73255671
Si       2.90395442       1.65028977       3.61325759      -1.98885366       0.93118675      -0.68815502       0.10628305      -0.00503378      -0.26779047      -8.76480446
Si       4.86476836       2.80009524       6.68384400      -0.66844327      -1.76038669      -0.36424369      -0.32121576       0.53774650       0.30759587      -8.75957888
Si       2.91911004       3.88542382       0.38286144      -0.34779327       0.05151650      -0.18444389       0.15563179       0.05931430       0.15479069      -8.76428725
Si       4.87360342       4.92102641       3.50485770       0.29866133      -1.27589706      -0.11545782      -0.22986128       0.74274960       0.44077085      -8.74467693
Si       6.77220473       6.20079953       6.69909053      -0.35994826       0.91953497       0.65436541      -0.08286730      -0.39303892      -0.16603326      -8.73861600
Si       4.87016027       7.23580223       0.46858121      -0.32074959       0.39821188      -1.60966074      -0.55461452       0.15213978      -0.01759363      -8.75771955
Si       6.71952045       8.40363464       3.63941152       0.24066990      -1.28658113       0.32882183       0.27687410      -0.35343988      -0.45760957      -8.75011880
Si       8.71539510       9.45137860       6.71159870      -0.26214174      -0.77662091      -0.71381852       0.01532235       0.40165775       0.32168935      -8.73139175
Si       4.81365065       0.48585646       0.34208133       0.81327791       1.38939599      -1.21735312      -0.23936850       0.42217914       0.38984485      -8.75734923
Si       6.72399594       1.68124081       3.55835712       0.51150839       1.30625116      -0.39208055      -0.37389106      -0.18718277      -0.29657429      -8.72145716
Si       8.60326936       2.83990633       6.67844111      -0.02628278      -0.11814618      -0.21567536       0.39658109       0.06405728      -0.05383941      -8.76059581
Si       6.70283199       3.85357745       0.34903698       0.28128707      -0.04044087       0.38403052       0.00715554       0.07702447      -0.18026830      -8.73713826
Si       8.64783019       4.98163364       3.51691930       0.49358181       0.43807018      -0.52413089       0.22906927       0.06838043      -0.23694502      -8.76272178
Si      10.68943547       6.09910729       6.60628796      -0.62739263      -2.10001333      -0.51580954      -0.96865288       0.17377665       0.19217502      -8.73549564
Si       8.63354929       7.28719330       0.44289267       0.65590854      -0.55041375       1.55059402      -0.00722866      -0.33041769      -0.12521102      -8.73078957
Si      10.62249504       8.29323507       3.53215008       1.32224341       0.18844401       0.97941395      -0.45672458       0.29057116       0.12789876      -8.76608962
Si      12.50925991       9.49315439       6.72343351      -0.47143099      -0.56140985       0.60689508       0.05640594      -0.04953827      -0.13104721      -8.74933632
Si       8.59152179       0.52692708       0.42123346       0.61649311       0.76573849      -0.25109652       0.17003973       0.17181311      -0.40341708      -8.74603450
Si      10.53544740       1.60402579       3.51593822       0.16563267       0.12753259      -1.27749912       0.11513072       0.60721390       0.23698741      -8.75685612
Si      12.47920248       2.78515186       6.63171352       0.82566888       1.12816896       1.29849090       0.12264369       0.00347636       0.31502489      -8.71057654
Si      10.59626300       3.86167959       0.28320387       0.32470380      -0.00037755       0.19434454      -0.36476139       0.10325646       0.58314752      -8.74896470
Si      12.53775305       4.94192070       3.45762399       0.29690859       0.71056156       0.71104705      -0.25254222      -0.14816900       0.03756760      -8.72425467
Si      14.43489429       6.10612129       6.62999395      -0.04475862      -2.08029236       2.14233760       0.16470181       0.30354229       0.09214541      -8.75883947
Si      12.45451098       7.15965604       0.42632289      -0.83687044      -0.61464801      -0.66537125       0.16524119       0.08371939      -0.29485021      -8.74593559
Si      14.43585702       8.33699861       3.50542838      -1.09363492      -0.47089870      -1.79348350      -0.09356028      -0.24904414       0.50664064      -8.73524079
Si      16.36386736       9.45226371       6.66755813       0.38454996      -0.13994697       0.46381835      -0.43080077       0.52409875       0.14334796      -8.76402978
54
Lattice="11.5478352 0.0 0.0 5.773917198490155 10.000722372470358 0.0 5.773916394327279 3.333571176804646 9.428767828939895" Properties=species:S:1:pos:R:3:momenta:R:3:forces:R:3:energies:R:1 spacegroup="_JSON {\"number\": 1, \"setting\": 1}" unit_cell=conventional occupancy="_JSON {\"0\": {\"Si\": 1.0}, \"1\": {\"Si\": 1.0}, \"2\": {\"Si\": 1.0}, \"3\": {\"Si\": 1.0}, \"4\": {\"Si\": 1.0}, \"5\": {\"Si\": 1.0}, \"6\": {\"Si\": 1.0}, \"7\": {\"Si\": 1.0}, \"8\": {\"Si\": 1.0}, \"9\": {\"Si\": 1.0}, \"10\": {\"Si\": 1.0}, \"11\": {\"Si\": 1.0}, \"12\": {\"Si\": 1.0}, \"13\": {\"Si\": 1.0}, \"14\": {\"Si\": 1.0}, \"15\": {\"Si\": 1.0}, \"16\": {\"Si\": 1.0}, \"17\": {\"Si\": 1.0}, \"18\": {\"Si\": 1.0}, \"19\": {\"Si\": 1.0}, \"20\": {\"Si\": 1.0}, \"21\": {\"Si\": 1.0}, \"22\": {\"Si\": 1.0}, \"23\": {\"Si\": 1.0}, \"24\": {\"Si\": 1.0}, \"25\": {\"Si\": 1.0}, \"26\": {\"Si\": 1.0}, \"27\": {\"Si\": 1.0}, \"28\": {\"Si\": 1.0}, \"29\": {\"Si\": 1.0}, \"30\": {\"Si\": 1.0}, \"31\": {\"Si\": 1.0}, \"32\": {\"Si\": 1.0}, \"33\": {\"Si\": 1.0}, \"34\": {\"Si\": 1.0}, \"35\": {\"Si\": 1.0}, \"36\": {\"Si\": 1.0}, \"37\": {\"Si\": 1.0}, \"38\": {\"Si\": 1.0}, \"39\": {\"Si\": 1.0}, \"40\": {\"Si\": 1.0}, \"41\": {\"Si\": 1.0}, \"42\": {\"Si\": 1.0}, \"43\": {\"Si\": 1.0}, \"44\": {\"Si\": 1.0}, \"45\": {\"Si\": 1.0}, \"46\": {\"Si\": 1.0}, \"47\": {\"Si\": 1.0}, \"48\": {\"Si\": 1.0}, \"49\": {\"Si\": 1.0}, \"50\": {\"Si\": 1.0}, \"51\": {\"Si\": 1.0}, \"52\": {\"Si\": 1.0}, \"53\": {\"Si\": 1.0}}" energy=-471.43804119039004 stress="-0.0038973929556208368 0.00022907629963959332 0.00023256602060536474 0.00022907629963959332 -4.6024596947580694e-07 -0.0009570051252696163 0.00023256602060536474 -0.0009570051252696163 -0.0005460515300288869" free_energy=-471.43804119039004 pbc="T T T"
Si       6.70550896       3.86676782       2.68622629      -0.56548801      -0.26740155       0.11743265       1.05407725       0.10257252       0.18538928      -8.77415729
Si       8.74804963       5.02563700       5.87866749       0.80880496      -0.49116646       0.32321636      -1.75386708      -0.06530070      -0.49420020      -8.71144792
Si      10.55950638       6.07084159       8.92480321       0.66571790       0.94293658      -0.59991916       0.22557343       0.48892729       0.39902638      -8.74439736
Si       8.61468911       7.23477955       2.82038045       0.30565147       0.15800724       0.02653423       0.93787878       0.12305003       0.37664109      -8.73144048
Si      10.64967332       8.37793646       5.85000678       0.16015289       0.13117489       0.12253240      -0.43496738      -0.89448068       1.04205404      -8.70923544
Si      12.56128293       9.43798955       9.09567992       0.90598453      -0.44342830       0.22219533      -0.39514818       0.07650546      -0.09265121      -8.73296223
Si      10.55550072      10.53234195       2.71152074       0.31284040       0.68880597      -0.24721785       0.23926215       0.56339716       0.12986225      -8.66574516
Si      12.45994045      11.68135896       5.95555472      -0.69128994      -0.72688017       0.31980273       0.74710645      -0.21369786      -0.90296798      -8.73503096
Si      14.38941867      12.73951540       9.02004983       0.27822015      -1.48210250       0.26950535       0.32269623       0.66180568       0.21096575      -8.71001712
Si      10.62189091       3.88072828       2.72217877       1.43164740       1.23331398       0.78074387      -0.39375969      -0.10228482      -0.43163455      -8.73592858
Si      12.56050297       4.99353747       5.86584655       0.13030038      -0.71927932       1.03457710      -0.04650955      -0.20158597      -0.26663085      -8.75029446
Si      14.37023687       6.06840657       9.01302842      -0.38349482      -0.28165064       0.67582112       0.70215000       0.33629197       0.55531469      -8.75487150
Si      12.49176236       7.17692756       2.73662225      -0.21572191      -0.33082122      -0.93390729       0.03499794      -0.07212720      -0.33810584      -8.76872726
Si      14.40887430       8.37158238       5.84674655      -0.15855612      -0.71369236      -1.00615355       0.13770662      -0.70696505       0.29777525      -8.63331671
Si      16.29674271       9.46235384       9.03335623       0.23487477       0.10663175       0.75681501      -0.14461976      -0.60778032      -0.04735182      -8.75789193
Si      14.44634090      10.55846737       2.74808854       0.75665386       0.00793570      -0.44199093      -0.81397586      -0.07794527      -0.18446977      -8.76477176
Si      16.32985530      11.72094180       5.90042566       1.23295119       0.52544233       0.08572526       0.23966029      -0.23585117      -0.36036713      -8.69377463
Si      18.29836248      12.71044601       9.03431268       0.59894776       0.43032838       0.14175016      -0.18176938       0.27505471       0.20544474      -8.73719488
Si      14.41994540       3.83310960       2.80350521      -1.36755808       0.42324156       0.56000600       0.62940691       0.48892393      -0.98094123      -8.74498183
Si      16.33573718       5.03425326       5.88253197      -0.53415803      -0.55548560       0.14395079       1.06110344      -0.57599433       0.21421559      -8.69243943
Si      18.32304397       6.11766692       9.06928364      -0.59677152      -0.05570337       0.03020155      -0.18865833       0.18764325      -0.37423993      -8.78692752
Si      16.40753963       7.23549813       2.76109004      -0.21312558       0.17250182      -1.45276615      -0.45711006      -0.62884292       0.02234858      -8.69350615
Si      18.27418907       8.41622645       5.90959195      -0.27627039      -0.37837334      -0.51595799       0.32077612      -0.20486923       0.66945689      -8.79322940
Si      20.22717674       9.49774013       9.12856869      -0.23196563      -0.07968788      -0.20018965      -0.17855644      -0.68969514      -0.90638772      -8.71969070
Si      18.32479326      10.56444942       2.72377772       0.11537255      -1.01410335      -1.41765470      -0.79182584      -0.42854302       0.65926162      -8.73903469
Si      20.24168886      11.70678979       5.99454384      -0.92329556      -0.76848422       0.02410915      -0.76743226      -0.71259042      -0.93249931      -8.72011942
Si      22.08781452      12.81216533       9.04197124       0.41777970       0.76948845       0.01763165       0.43218113       0.04888996      -0.01782871      -8.73084332
Si       0.94019193       0.58562299       0.42023832       0.66087693       0.15719714      -0.48429820       0.19064741      -0.49326102      -0.59341531      -8.74865787
Si       2.81751748       1.68859702       3.57838117      -1.07085698       0.33713599      -0.45595302       1.01200182      -0.73947973       0.44530734      -8.71714002
Si       4.81941020       2.74488661       6.68159631      -0.99649842      -0.12702666       0.32931485      -0.06619902       1.35236975       0.48042571      -8.74557903
Si       2.90832021       3.89128334       0.38632848      -0.05493390       0.16694940       0.40094999       0.18492521       0.04137166       0.47933232      -8.71609944
Si       4.86544622       4.89583469       3.51604490      -0.82375997       0.48211679       0.50594126      -1.02011701       1.36718669       0.27970106      -8.70418083
Si       6.75368666       6.22346177       6.72083260      -0.28705617      -0.21659528       0.07568087       0.14947898      -1.01038841      -0.54937187      -8.66046311
Si       4.84212759       7.26177587       0.38988754      -0.54084050       0.55076073      -1.27580084       0.24454609      -0.01260181       0.42545893      -8.75784571
Si       6.73809224       8.33532367       3.62898543       0.35375739      -1.08897483      -0.85291569      -0.16993568       0.53769029      -0.92193286      -8.74884868
Si       8.70100270       9.42905673       6.69007704      -0.30239484      -0.06091296      -0.06625709      -0.04866148       0.44191928       0.47530063      -8.69786498
Si       4.84034533       0.56128851       0.29758960       0.11378233       1.21528221      -0.40307020      -0.58953343      -0.62158716       0.67408194      -8.72939586
Si       6.73619537       1.72868586       3.53455507      -0.02622276       0.25039684      -0.36177951      -0.28995946      -1.14666392       0.29876882      -8.69223075
Si       8.61375498       2.82946841       6.66778679       0.35680615      -0.40753437      -0.13818687       0.12595071      -0.42687841       0.14664455      -8.76589192
Si       6.71114425       3.85465960       0.35966766      -0.05789112       0.08237821       0.00306877      -0.35160565       0.07822268      -0.24322613      -8.73909609
Si       8.67563342       5.00108846       3.48642106       0.45224768       0.19867519      -0.50381503      -0.22031398      -0.34044781       0.28425720      -8.70849998
Si      10.63276651       6.01840142       6.58768344      -1.16466755      -0.59450711      -0.15895900       0.44339053       1.65456547       0.31301636      -8.70244626
Si       8.66497099       7.24778298       0.51082925       0.49492509      -0.89414743       0.87643199      -0.19069373      -0.09813915      -0.74542219      -8.75745209
Si      10.66332473       8.31532698       3.57417998       0.09968524       0.65310551       0.36003973      -0.97404088       0.28269515      -0.87331460      -8.73486460
Si      12.49431785       9.46425969       6.74792259       0.04291303      -0.50935266       0.28000937       0.59581226       0.07013136      -0.31050936      -8.76903281
Si       8.62701795       0.56682538       0.39863815       0.67028439       0.60166122      -0.47476605      -0.08891965      -0.42323245       0.12847174      -8.75430082
Si      10.56089735       1.63356548       3.46837863       0.97434469       0.94772914      -0.37916010       0.74961620       0.38890347       0.83764562      -8.72657555
Si      12.52359378       2.83604240       6.70635949       0.78539012       0.62503327       1.40563150      -0.19782642      -0.71896180      -0.24024571      -8.73708738
Si      10.59544882       3.86675346       0.31755390      -0.38777846       0.20261545       1.11102857      -0.47787930       0.13226733       0.55379310      -8.69181969
Si      12.54305847       4.97589385       3.50312893      -0.08701621       0.63596637       1.12296374      -0.21527458       0.05004920       0.41358019      -8.74813315
Si      14.43368831       6.02738273       6.73120042      -0.07747052      -0.63617088       1.42076757      -0.11944831       1.41594362      -1.04621809      -8.71233814
Si      12.42398747       7.13876490       0.38637962      -0.17793671      -0.03327676      -0.73636494       0.72610115       0.64874840       0.17220457      -8.73723519
Si      14.38533395       8.30744382       3.43583939      -0.62806617      -0.54989345      -0.78739685       0.69070141       0.16121766       0.77766870      -8.74396450
Si      16.36171506       9.46799067       6.69188624      -0.51982709       0.72984058       0.35010175      -0.62914009       0.47385181      -0.29948256      -8.75901865
54
Lattice="11.5478352 0.0 0.0 5.773917198490155 10.000722372470358 0.0 5.773916394327279 3.333571176804646 9.428767828939895" Properties=species:S:1:pos:R:3:momenta:R:3:forces:R:3:energies:R:1 spacegroup="_JSON {\"number\": 1, \"setting\": 1}" unit_cell=conventional occupancy="_JSON {\"0\": {\"Si\": 1.0}, \"1\": {\"Si\": 1.0}, \"2\": {\"Si\": 1.0}, \"3\": {\"Si\": 1.0}, \"4\": {\"Si\": 1.0}, \"5\": {\"Si\": 1.0}, \"6\": {\"Si\": 1.0}, \"7\": {\"Si\": 1.0}, \"8\": {\"Si\": 1.0}, \"9\": {\"Si\": 1.0}, \"10\": {\"Si\": 1.0}, \"11\": {\"Si\": 1.0}, \"12\": {\"Si\": 1.0}, \"13\": {\"Si\": 1.0}, \"14\": {\"Si\": 1.0}, \"15\": {\"Si\": 1.0}, \"16\": {\"Si\": 1.0}, \"17\": {\"Si\": 1.0}, \"18\": {\"Si\": 1.0}, \"19\": {\"Si\": 1.0}, \"20\": {\"Si\": 1.0}, \"21\": {\"Si\": 1.0}, \"22\": {\"Si\": 1.0}, \"23\": {\"Si\": 1.0}, \"24\": {\"Si\": 1.0}, \"25\": {\"Si\": 1.0}, \"26\": {\"Si\": 1.0}, \"27\": {\"Si\": 1.0}, \"28\": {\"Si\": 1.0}, \"29\": {\"Si\": 1.0}, \"30\": {\"Si\": 1.0}, \"31\": {\"Si\": 1.0}, \"32\": {\"Si\": 1.0}, \"33\": {\"Si\": 1.0}, \"34\": {\"Si\": 1.0}, \"35\": {\"Si\": 1.0}, \"36\": {\"Si\": 1.0}, \"37\": {\"Si\": 1.0}, \"38\": {\"Si\": 1.0}, \"39\": {\"Si\": 1.0}, \"40\": {\"Si\": 1.0}, \"41\": {\"Si\": 1.0}, \"42\": {\"Si\": 1.0}, \"43\": {\"Si\": 1.0}, \"44\": {\"Si\": 1.0}, \"45\": {\"Si\": 1.0}, \"46\": {\"Si\": 1.0}, \"47\": {\"Si\": 1.0}, \"48\": {\"Si\": 1.0}, \"49\": {\"Si\": 1.0}, \"50\": {\"Si\": 1.0}, \"51\": {\"Si\": 1.0}, \"52\": {\"Si\": 1.0}, \"53\": {\"Si\": 1.0}}" energy=-471.9583099686954 stress="0.0009393308961235892 -0.00086898410143141 -0.0008089093670631662 -0.00086898410143141 -0.0012839658510061314 0.0008663664581907796 -0.0008089093670631662 0.0008663664581907796 -0.0013326722261978949" free_energy=-471.9583099686954 pbc="T T T"
Si       6.70969608       3.86293369       2.70119059       0.51026700       0.20536751       0.49093127       0.22505432       0.41552176       0.31830095      -8.75633632
Si       8.71660360       4.99561359       5.87392571      -1.89731752      -0.63695415      -0.46344278      -1.30166223      -0.00879986      -0.33393308      -8.73180713
Si      10.59475826       6.13496982       8.91141689       0.50257921       1.35097121       0.13628000      -0.46168696      -0.10219727       0.56942059      -8.74876634
Si       8.66632362       7.24528044       2.83663974       1.55199191       0.18363030       0.52890401       0.47619779      -0.11013222       0.12311657      -8.75866713
Si      10.63977922       8.35205713       5.89259928      -0.52032407      -0.99057806       1.31393708      -0.35991753      -0.36935687       0.30468842      -8.73949477
Si      12.58824238       9.42172923       9.10247554       0.04448566      -0.10389044      -0.00031022      -0.68769306       0.35513818      -0.23291013      -8.71996352
Si      10.57636433      10.58829718       2.70388364       0.37237904       1.34477497      -0.03822112      -0.19479009       0.16431864       0.14699991      -8.70908511
Si      12.45047614      11.64175226       5.93962408       0.23780421      -0.64733039      -0.81981013       0.39369462       0.30395593      -0.47340523      -8.73371596
Si      14.41784783      12.69227445       9.03814090       0.80932765      -0.28163452       0.32974088       0.33228238       0.79236935      -0.14297731      -8.71169711
Si      10.67480434       3.93658086       2.74667001       0.48258605       0.80735064       0.20760549      -0.78037532      -0.44471126      -0.20649868      -8.74918283
Si      12.56200289       4.95817418       5.91180659      -0.12614339      -0.44184340       0.77582258      -0.24595829       0.52224271      -0.03582992      -8.73483236
Si      14.37705305       6.07275621       9.06849418       0.58897889       0.52309114       1.32145697       0.48015002       0.61255665       0.09654274      -8.75017127
Si      12.47832012       7.16221146       2.68122905      -0.32788209      -0.10318752      -0.99766899      -0.08460053       0.41800908       0.36220315      -8.75457120
Si      14.40624162       8.31188511       5.81110434       0.06798389      -1.40905603      -0.27075311       0.17618937      -0.09196283       0.60231738      -8.66647609
Si      16.30239545       9.44359757       9.06492000       0.00951279      -0.76411845       0.33291851      -0.03203643      -0.37332222      -0.49059383      -8.76441160
Si      14.45766206      10.55949667       2.72328143      -0.19750932       0.09433771      -0.36405068      -0.31834299       0.15933857       0.35633860      -8.73605512
Si      16.39939236      11.74051185       5.89230735       1.30044249       0.24436861      -0.34516495      -0.22497298      -0.14839605      -0.16132659      -8.71968502
Si      18.31964866      12.74409526       9.05530322       0.15263147       0.84164140       0.72400443      -0.41022082       0.22629741       0.44690689      -8.72870595
Si      14.37654750       3.87112901       2.79785002      -0.26830337       0.91246478      -0.63412568       0.69444268       0.04964738      -0.41457981      -8.76373965
Si      16.34473013       4.98916930       5.90029944       0.71807742      -0.96923324       0.53997003       0.43326390       0.18571179       0.21897704      -8.74461913
Si      18.28832246       6.12500853       9.05811665      -0.64797866       0.35541688      -0.40404233       0.12416736       0.25660813      -0.16794523      -8.76970601
Si      16.37951306       7.22139765       2.69007447      -0.80581919      -0.63191176      -1.15879618      -0.25616951      -0.31278836       0.38812785      -8.72872749
Si      18.26731897       8.39084459       5.90582521      -0.09188113      -0.54906075       0.26080371      -0.09434563      -0.04702422       0.23572477      -8.76679203
Si      20.20910130       9.46955113       9.08490114      -0.39838350      -0.88923889      -1.35710742       0.04789932      -0.26993329      -0.46660984      -8.74654726
Si      18.30366532      10.50026243       2.67953608      -0.79123244      -1.27068589      -0.25375864      -0.28219511       0.20817075       0.70371619      -8.75187355
Si      20.17227346      11.64765811       5.96208033      -1.47806697      -1.26052913      -1.15350746       0.18007718       0.15888260      -0.49955534      -8.74230793
Si      22.12501498      12.85221639       9.04059500       0.94201871       0.68593176      -0.08421465       0.19474337      -0.23414549      -0.07672137      -8.74793794
Si       0.98208697       0.57393588       0.37155406       0.91975093      -0.55368592      -1.29086366       0.12142438      -0.29189739      -0.26851606      -8.76090777
Si       2.80019937       1.67684969       3.56928356       0.34917604      -0.73183406      -0.00166036       0.76010129      -0.52376582       0.01610937      -8.71852206
Si       4.76798751       2.77887576       6.70983349      -0.89510720       1.08509508       0.55419533       0.20326988       0.03199089      -0.26322185      -8.76338933
Si       2.90982441       3.89961690       0.42128472       0.04788542       0.11255255       0.78777249      -0.06796837      -0.10387013      -0.08955556      -8.71915215
Si       4.79141496       4.96550061       3.54578812      -1.73150113       1.92119165       0.47868231       0.00950653       0.36773619      -0.28459513      -8.73495916
Si       6.74472337       6.17458676       6.70356442      -0.06386270      -1.54580859      -0.69926695       0.10741288      -0.59325867      -0.39901768      -8.70851637
Si       4.82700700       7.28573108       0.33876988      -0.01878653       0.26360375      -0.70747144       0.31187112      -0.39312471       0.28702760      -8.72502980
Si       6.74480146       8.30066509       3.55636061      -0.17162827      -0.26258073      -1.68725040      -0.44462142       0.40694080      -0.03156808      -8.75898059
Si       8.68278443       9.43602484       6.70210681      -0.39705231       0.16239543       0.43905863      -0.06715943      -0.19813442       0.12442866      -8.74275900
Si       4.82594086       0.59786592       0.30160176      -0.58491617       0.19428430       0.51266037      -0.27566992      -0.55688789       0.49465042      -8.71535331
Si       6.72786458       1.69780432       3.52918288      -0.19492859      -1.30709646       0.15436672       0.09303110      -0.65480324       0.28685018      -8.74638529
Si       8.63584218       2.78912536       6.66647068       0.46564284      -1.12671764       0.07184060       0.04249098      -0.39970466       0.08005648      -8.74909473
Si       6.69754236       3.86188231       0.35530104      -0.35685586       0.19649546      -0.04596658       0.05415535       0.09443175       0.24018303      -8.76540443
Si       8.68971071       4.99752911       3.47508367       0.07774126      -0.32068614       0.12511896      -0.24626018      -0.28004806       0.48847830      -8.70696161
Si      10.59917942       6.05035249       6.59049497      -0.09087146       1.63264954       0.21361261       0.54328935       0.91752847       0.11531835      -8.73921381
Si       8.68345044       7.20036603       0.52794413       0.21299367      -0.83534468      -0.17232758      -0.17341101       0.21076978      -0.53626490      -8.75951917
Si      10.63711421       8.35899865       3.55955265      -0.91847218       0.97631836      -0.80673658      -0.25350837       0.14305574      -0.43728537      -8.74068324
Si      12.52058683       9.43823451       6.74945152       0.91704207      -0.52594765      -0.23856345       0.41992293      -0.09336208      -0.36947704      -8.77174718
Si       8.65806180       0.57775495       0.38381523       0.51096846      -0.21596876      -0.01695172      -0.09621451      -0.52467424       0.41032716      -8.76232104
Si      10.63465367       1.69076545       3.47837874       1.63073142       1.06608793       0.66312968      -0.04970820      -0.25794093       0.44943456      -8.72111491
Si      12.55409791       2.83533563       6.76478692       0.32195710      -0.70707493       0.71838521      -0.40827948      -0.90764946      -0.63090991      -8.74888270
Si      10.56186264       3.88064601       0.39241099      -0.75363937       0.27843982       1.60659714       0.07073023      -0.05573565       0.01079828      -8.71985099
Si      12.53333569       5.01317061       3.57606462      -0.21700036       0.79249395       1.54442245       0.04144516       0.07580779      -0.03678147      -8.74681671
Si      14.42813459       6.04719929       6.76130437      -0.03950431       1.27659481      -0.25627828       0.23978530       0.93706679      -0.95676131      -8.72079056
Si      12.44388505       7.16222051       0.35496927       0.88643082       0.86384042      -0.48178335       0.51957929       0.38976042       0.09725324      -8.74771492
Si      14.38134218       8.28781058       3.42150618       0.45401656      -0.16038083       0.15959767       0.59557214       0.31136948       0.45090625      -8.75419917
Si      16.31552363       9.51562339       6.69557522      -1.10043488       0.87098906      -0.24172044      -0.07398186      -0.36759973      -0.41836216      -8.73416416
54
Lattice="11.5478352 0.0 0.0 5.773917198490155 10.000722372470358 0.0 5.773916394327279 3.333571176804646 9.428767828939895" Properties=species:S:1:pos:R:3:momenta:R:3:forces:R:3:energies:R:1 spacegroup="_JSON {\"number\": 1, \"setting\": 1}" unit_cell=conventional occupancy="_JSON {\"0\": {\"Si\": 1.0}, \"1\": {\"Si\": 1.0}, \"2\": {\"Si\": 1.0}, \"3\": {\"Si\": 1.0}, \"4\": {\"Si\": 1.0}, \"5\": {\"Si\": 1.0}, \"6\": {\"Si\": 1.0}, \"7\": {\"Si\": 1.0}, \"8\": {\"Si\": 1.0}, \"9\": {\"Si\": 1.0}, \"10\": {\"Si\": 1.0}, \"11\": {\"Si\": 1.0}, \"12\": {\"Si\": 1.0}, \"13\": {\"Si\": 1.0}, \"14\": {\"Si\": 1.0}, \"15\": {\"Si\": 1.0}, \"16\": {\"Si\": 1.0}, \"17\": {\"Si\": 1.0}, \"18\": {\"Si\": 1.0}, \"19\": {\"Si\": 1.0}, \"20\": {\"Si\": 1.0}, \"21\": {\"Si\": 1.0}, \"22\": {\"Si\": 1.0}, \"23\": {\"Si\": 1.0}, \"24\": {\"Si\": 1.0}, \"25\": {\"Si\": 1.0}, \"26\": {\"Si\": 1.0}, \"27\": {\"Si\": 1.0}, \"28\": {\"Si\": 1.0}, \"29\": {\"Si\": 1.0}, \"30\": {\"Si\": 1.0}, \"31\": {\"Si\": 1.0}, \"32\": {\"Si\": 1.0}, \"33\": {\"Si\": 1.0}, \"34\": {\"Si\": 1.0}, \"35\": {\"Si\": 1.0}, \"36\": {\"Si\": 1.0}, \"37\": {\"Si\": 1.0}, \"38\": {\"Si\": 1.0}, \"39\": {\"Si\": 1.0}, \"40\": {\"Si\": 1.0}, \"41\": {\"Si\": 1.0}, \"42\": {\"Si\": 1.0}, \"43\": {\"Si\": 1.0}, \"44\": {\"Si\": 1.0}, \"45\": {\"Si\": 1.0}, \"46\": {\"Si\": 1.0}, \"47\": {\"Si\": 1.0}, \"48\": {\"Si\": 1.0}, \"49\": {\"Si\": 1.0}, \"50\": {\"Si\": 1.0}, \"51\": {\"Si\": 1.0}, \"52\": {\"Si\": 1.0}, \"53\": {\"Si\": 1.0}}" energy=-471.5319041870719 stress="0.0018484025517858443 -0.000807356195629119 -0.0005268331128437175 -0.000807356195629119 -0.0015578410585830157 0.0013976854634122873 -0.0005268331128437175 0.0013976854634122873 -0.001481252756581538" free_energy=-471.5319041870719 pbc="T T T"
Si       6.73190659       3.88609078       2.73916418       0.11104599       0.57505253       0.92753595      -0.65400187       0.02249204       0.20416234      -8.67391921
Si       8.59477687       4.96320425       5.84657868      -2.17101068      -0.61296769      -0.39606070       0.94793483      -0.06414830       0.37793998      -8.71464059
Si      10.59774548       6.19156351       8.93962194      -0.44400607       0.62373495       0.89405479      -0.65752105      -0.80241616       0.38903925      -8.73255307
Si       8.74841692       7.24693182       2.85966494       1.19975431      -0.19194948       0.16624490      -0.97082486      -0.37683074      -0.57622696      -8.74615653
Si      10.60482595       8.30502275       5.95643647      -0.67581038      -0.39094085       0.79323361       0.17090196       1.19880029      -0.96245464      -8.70978507
Si      12.56648772       9.43026527       9.09155215      -0.78207655       0.40492380      -0.44397232      -0.31607129       0.25242499      -0.33707210      -8.74706297
Si      10.58371573      10.65528465       2.70671203      -0.14579099       1.00511933       0.12217433      -0.38426691      -0.62257760       0.05385016      -8.76067614
Si      12.47153691      11.62060596       5.88962786       0.45089291      -0.17697306      -0.85352196      -0.05999913       0.23523905       0.43454997      -8.71605097
Si      14.47070451      12.69963555       9.04643871       1.13163438       0.36586365      -0.06922160       0.03741393       0.02786338      -0.35830039      -8.75349186
Si      10.67373048       3.96131158       2.75943293      -0.41397331       0.13966791       0.47287184      -0.35151150      -0.42416439       0.53374098      -8.74564657
Si      12.54712995       4.95775860       5.95625484      -0.39488036       0.43060335       0.98958661      -0.06702048       0.53674257       0.22871926      -8.73285875
Si      14.41821776       6.11827007       9.13005092       0.80270973       1.04974674       0.80712523      -0.21153106      -0.01683800      -0.74556007      -8.73007734
Si      12.46089320       7.17806478       2.65156801      -0.26202447       0.77531643      -0.00436494       0.20226585       0.67390941       0.84899949      -8.72179460
Si      14.41753733       8.24739070       5.81569464       0.37792804      -0.76580114       0.30568590       0.22947174       1.00702320       0.05384701      -8.74570245
Si      16.30744806       9.39954936       9.06134496       0.28161755      -0.70129071      -0.48533928       0.34484915       0.45334526      -0.54329411      -8.73574818
Si      14.44593111      10.57008906       2.72433812      -0.04441119       0.27582963       0.49325098       0.48669479       0.03295492       0.69027530      -8.69678378
Si      16.45209449      11.74700510       5.87236445       0.56929737      -0.03794880      -0.32777504      -0.76127438      -0.30852109       0.17952959      -8.75700808
Si      18.31123159      12.79446020       9.10550088      -0.45945126       1.00898296       1.04045445      -0.34258539      -0.04766022      -0.13014412      -8.74242079
Si      14.38201028       3.91380265       2.76343136       0.32293991       0.58893297      -0.40115009       0.09297482      -0.44057417       0.64818189      -8.73806356
Si      16.38479342       4.95798400       5.93044696       0.52537720      -0.02426480       0.44845678      -0.67864381       0.91532681      -0.39238259      -8.75063553
Si      18.26186085       6.14869083       9.03379443      -0.31191084       0.42965422      -0.46235120       0.31176428      -0.19832425       0.07068392      -8.70068914
Si      16.33285051       7.18618067       2.64502838      -0.85208878      -0.49997600      -0.56996824       0.21616343       0.50205399       0.33875236      -8.76830230
Si      18.25407906       8.35976444       5.91920752      -0.48253265      -0.65248164       0.07849614      -0.36275480      -0.11006026      -0.43296567      -8.67557762
Si      20.19494791       9.42143491       9.00900785      -0.05786958      -0.77081957      -1.24707274       0.36732939       0.40959479       0.64997244      -8.74228762
Si      18.26176519      10.45147139       2.68322178      -0.60461415      -0.41552495       0.18358243       0.50370294       0.86750257      -0.11142408      -8.73948743
Si      20.11400220      11.59640643       5.89276740      -0.53690350      -0.57748196      -1.27259696       0.98046072       0.60737905       0.34411920      -8.72557886
Si      22.17634025      12.87357278       9.03366057       0.89161465       0.01650132      -0.17699537      -0.28308831      -0.65925202      -0.06776079      -8.75968044
Si       1.03318665       0.54345889       0.30506144       0.97277826      -0.40610180      -1.01267363      -0.09788317       0.48432564       0.62245537      -8.73859713
Si       2.83796003       1.62795178       3.56014150       0.87019007      -0.92203629      -0.50485006      -0.11327358       0.30302698      -0.58486404      -8.71295638
Si       4.73041831       2.81644857       6.72065228      -0.50475906       0.01242743      -0.25799069       0.33180797      -1.25230574      -0.71610205      -8.69000996
Si       2.90619052       3.90141737       0.44870540      -0.25009584      -0.03274495       0.07541159      -0.31681205      -0.05984483      -0.77704882      -8.73910239
Si       4.71565070       5.06302624       3.55974471      -0.90240398       1.45100190       0.09861147       1.00059007      -0.97924188      -0.11894009      -8.69929808
Si       6.74180508       6.08430812       6.65867844      -0.13537125      -1.57764598      -0.83397966      -0.23217184       0.64937086       0.29812082      -8.77302001
Si       4.83228385       7.28162975       0.30816930       0.09374338      -0.44029273      -0.53151935      -0.18044275      -0.46244897       0.00571049      -8.70191529
Si       6.72173693       8.29213836       3.47946153      -0.61322906      -0.26845932      -1.01691323      -0.07960783      -0.37773789       0.84987173      -8.71600520
Si       8.65912093       9.42995769       6.72090217      -0.50816355      -0.47774141       0.07706006      -0.08228476      -0.51603880      -0.65012245      -8.76948772
Si       4.79132662       0.59663169       0.34292546      -0.59597732      -0.03552621       0.96407219       0.26537119       0.24294402       0.10200542      -8.72205562
Si       6.72617836       1.62169117       3.54345484       0.20445659      -1.23283662       0.28452582       0.36829218       0.74857388      -0.12372851      -8.77765985
Si       8.66179034       2.72155827       6.66995175       0.51066898      -1.27479116      -0.00637669      -0.01184486       0.27681426      -0.17707029      -8.73019054
Si       6.68810086       3.87738723       0.36891674       0.10545492       0.42175084       0.66341626       0.46079504       0.19291117       0.61037385      -8.77145170
Si       8.68590588       4.97456389       3.49856266      -0.18795545      -0.44827915       0.70781108      -0.11007143       0.13441128       0.24113777      -8.74759726
Si      10.59959777       6.14418195       6.60469933      -0.17828171       1.38137379       0.34619762      -0.56040731      -1.25352997       0.17830214      -8.71614857
Si       8.68963748       7.16812083       0.50562423       0.05951245      -0.33331682      -0.54527684      -0.02954144       0.43920356      -0.01835453      -8.74213642
Si      10.59277722       8.41535574       3.51439368      -0.51663962       1.15477490      -0.64741329       0.72257800       0.06046869       0.59977558      -8.68874339
Si      12.57553427       9.40597872       6.72362578       0.96605834      -0.69165283      -0.70787231      -0.40465884      -0.04029189      -0.21341542      -8.74301738
Si       8.68335791       0.55435674       0.39737061       0.49461207      -0.48031676       0.48613625       0.06123129       0.23049113       0.22534234      -8.76590977
Si      10.70605465       1.73183019       3.52162362       0.87077958       0.42857641       0.80509669      -0.90610760      -0.53589926      -0.25777139      -8.69578430
Si      12.55564680       2.77193640       6.78018590      -0.23119149      -1.46901277      -0.05018664      -0.27663574       0.03703847      -0.31039247      -8.75204225
Si      10.53376506       3.89125822       0.46852171      -0.15129271       0.10639363       1.12493301       0.71464989      -0.12868807      -0.64290056      -8.76282603
Si      12.52485970       5.05500993       3.64461032      -0.09872922       0.73793614       0.85815721       0.07330268      -0.17012824      -0.83381675      -8.73376655
Si      14.43990649       6.13281824       6.72558522       0.54347255       1.58179660      -0.77838257       0.44574611      -0.64935570       0.32018637      -8.71266798
Si      12.50099393       7.21303244       0.33059629       1.09734697       0.87938989      -0.47042971      -0.23616882      -0.35989942       0.01441302      -8.74487035
Si      14.41940459       8.29079372       3.44202343       0.80920394       0.26094736       0.53158608      -0.13806576       0.25797723       0.08855735      -8.73309562
Si      16.26288617       9.53727157       6.66963010      -0.74964509      -0.19712324      -0.67151416       0.54078040      -0.94343165      -0.12050248      -8.68886900
54
Lattice="11.5478352 0.0 0.0 5.773917198490155 10.000722372470358 0.0 5.773916394327279 3.333571176804646 9.428767828939895" Properties=species:S:1:pos:R:3:momenta:R:3:forces:R:3:energies:R:1 spacegroup="_JSON {\"number\": 1, \"setting\": 1}" unit_cell=conventional occupancy="_JSON {\"0\": {\"Si\": 1.0}, \"1\": {\"Si\": 1.0}, \"2\": {\"Si\": 1.0}, \"3\": {\"Si\": 1.0}, \"4\": {\"Si\": 1.0}, \"5\": {\"Si\": 1.0}, \"6\": {\"Si\": 1.0}, \"7\": {\"Si\": 1.0}, \"8\": {\"Si\": 1.0}, \"9\": {\"Si\": 1.0}, \"10\": {\"Si\": 1.0}, \"11\": {\"Si\": 1.0}, \"12\": {\"Si\": 1.0}, \"13\": {\"Si\": 1.0}, \"14\": {\"Si\": 1.0}, \"15\": {\"Si\": 1.0}, \"16\": {\"Si\": 1.0}, \"17\": {\"Si\": 1.0}, \"18\": {\"Si\": 1.0}, \"19\": {\"Si\": 1.0}, \"20\": {\"Si\": 1.0}, \"21\": {\"Si\": 1.0}, \"22\": {\"Si\": 1.0}, \"23\": {\"Si\": 1.0}, \"24\": {\"Si\": 1.0}, \"25\": {\"Si\": 1.0}, \"26\": {\"Si\": 1.0}, \"27\": {\"Si\": 1.0}, \"28\": {\"Si\": 1.0}, \"29\": {\"Si\": 1.0}, \"30\": {\"Si\": 1.0}, \"31\": {\"Si\": 1.0}, \"32\": {\"Si\": 1.0}, \"33\": {\"Si\": 1.0}, \"34\": {\"Si\": 1.0}, \"35\": {\"Si\": 1.0}, \"36\": {\"Si\": 1.0}, \"37\": {\"Si\": 1.0}, \"38\": {\"Si\": 1.0}, \"39\": {\"Si\": 1.0}, \"40\": {\"Si\": 1.0}, \"41\": {\"Si\": 1.0}, \"42\": {\"Si\": 1.0}, \"43\": {\"Si\": 1.0}, \"44\": {\"Si\": 1.0}, \"45\": {\"Si\": 1.0}, \"46\": {\"Si\": 1.0}, \"47\": {\"Si\": 1.0}, \"48\": {\"Si\": 1.0}, \"49\": {\"Si\": 1.0}, \"50\": {\"Si\": 1.0}, \"51\": {\"Si\": 1.0}, \"52\": {\"Si\": 1.0}, \"53\": {\"Si\": 1.0}}" energy=-471.3638494282866 stress="-0.0015322328789929057 0.0008261533675731381 0.0007501814684383645 0.0008261533675731381 0.000688271580093255 -0.0003842327651412921 0.0007501814684383645 -0.0003842327651412921 5.1089515234168323e-05" free_energy=-471.3638494282866 pbc="T T T"
Si       6.71070192       3.91237889       2.79298953      -0.87636226       0.35102305       1.06608908      -0.47143382      -0.27787962      -0.03059339      -8.66756815
Si       8.53494719       4.92497922       5.84501629       0.09859904      -0.86220167       0.41013835       1.73660536      -0.11037631       0.66644050      -8.67160931
Si      10.55670125       6.19294687       8.99773046      -0.92358124      -0.51963706       1.23851473       0.10572428      -0.58994028       0.05622423      -8.73922191
Si       8.76677575       7.22347034       2.84403174      -0.51552642      -0.62571055      -0.73854991      -1.03133251      -0.07637955      -0.47932699      -8.72843177
Si      10.58070361       8.33490412       5.95449541      -0.17723754       1.39134196      -0.89585288       0.42176625       0.65348924      -1.06021197      -8.71512495
Si      12.52251859       9.45616610       9.05573242      -0.70226852       0.46836270      -0.89034516       0.42929346      -0.19266216      -0.20498994      -8.75897329
Si      10.56793650      10.67938598       2.71421488      -0.28080999      -0.12610513       0.15618663       0.28116111      -0.76688144       0.02675568      -8.76321326
Si      12.49057298      11.61583463       5.86819089       0.24771426      -0.08990816       0.10316978      -0.16680904      -0.09495642       0.68374989      -8.71142334
Si      14.52653001      12.71262333       9.02931367       0.89540213       0.04771643      -0.54838117      -0.35648628      -0.28546745      -0.21127559      -8.75533657
Si      10.64496105       3.95446183       2.80692678      -0.57260498      -0.35057917       1.28384998       0.08498886      -0.21916434       0.31507981      -8.75645683
Si      12.52709736       4.99578750       6.01396005      -0.30998028       0.89256743       1.09945340       0.15970821       0.03578372      -0.19953766      -8.71524092
Si      14.44727577       6.16426516       9.14053607       0.26208985       0.57199475      -0.40107708      -0.37386776      -0.52737980      -0.70404776      -8.71825979
Si      12.45827727       7.24241702       2.68079312       0.21386589       1.58468245       1.00109470       0.39711615       0.29390254       0.38487042      -8.71958543
Si      14.44528676       8.25270134       5.82542774       0.63329671       0.95456007      -0.04039332       0.03590188       0.91518015      -0.34397739      -8.77177297
Si      16.33609259       9.38532257       9.01874818       0.79123671       0.20408256      -1.02774391       0.26846124       0.62483745      -0.09941216      -8.71424774
Si      14.46772456      10.58357197       2.77346706       0.91994323       0.20655751       1.25868847       0.64201757      -0.08787670       0.20775155      -8.71469179
Si      16.45007790      11.72818932       5.86435153      -0.63899418      -0.76800940       0.04670201      -0.70938557      -0.63938969       0.27243464      -8.76356607
Si      18.27945812      12.84159442       9.14720663      -0.61064744       0.70704747       0.42224692       0.21222243      -0.36237676      -0.62351821      -8.73598030
Si      14.39696290       3.92581625       2.76931445       0.16314851      -0.14146755       0.56479951      -0.24045455      -0.47225069       0.41355722      -8.71006350
Si      16.37787223       4.98555458       5.93443991      -0.86731195       0.84893629      -0.32770583      -0.95163881       0.03834918      -0.51175220      -8.75565319
Si      18.25748168       6.15885897       9.01328301       0.12612522      -0.10800945      -0.30540078       0.23259994      -0.45149712       0.12932844      -8.68802988
Si      16.30052737       7.18405026       2.62461234      -0.32291777       0.42977729      -0.25885471       0.43639093       0.53211793       0.14565947      -8.76503812
Si      18.21585813       8.31950712       5.90267281      -0.91341646      -0.90435968      -0.74836027      -0.11472384      -0.18962765      -0.58126564      -8.67097908
Si      20.20593947       9.40099248       8.97507019       0.43685323       0.03800922      -0.02863299       0.19848896       0.58364605       0.70679064      -8.75138178
Si      18.25402721      10.46181940       2.68304846       0.34711085       0.71109100      -0.23981278       0.63818071       0.47796637      -0.30698759      -8.72877899
Si      20.12400751      11.58595040       5.84481966       0.85021718       0.08056285      -0.49598523       0.69264383       0.22285297       0.57195730      -8.73969845
Si      22.20849570      12.84739209       9.02031384       0.28359111      -0.99785897      -0.36340150      -0.47998929      -0.57779612      -0.18608304      -8.76185736
Si       1.07687862       0.54443552       0.28013851       0.61675637       0.43855114       0.08495486      -0.39330413       0.45470224       0.70327525      -8.72257777
Si       2.86836107       1.60030391       3.51299994       0.10759993       0.02058578      -1.17655503      -0.80268136       0.88983607      -0.13124990      -8.71317873
Si       4.71868916       2.77141976       6.68052949       0.10729000      -1.55083705      -1.20446626       0.52025054      -0.55529776      -0.43669195      -8.69495405
Si       2.87921034       3.89930163       0.42510951      -0.78589063      -0.00846041      -0.83701298      -0.33276686       0.09384800      -0.23792303      -8.76296395
Si       4.70950147       5.09371519       3.56423842       0.65072557      -0.33165832       0.11135668       0.91216268      -1.15657185       0.02665126      -8.71041794
Si       6.72310403       6.03868514       6.63456382      -0.57815443      -0.01851164       0.02275967      -0.22565760       1.17671655       0.70202746      -8.75985736
Si       4.82532763       7.24508202       0.28051805      -0.41922807      -0.83963444      -0.49023154      -0.40177132      -0.01656574       0.12968311      -8.72831272
Si       6.69175664       8.26185227       3.46047129      -0.43769611      -0.82477068       0.25761163       0.28324848      -0.14040675       0.70013755      -8.70183610
Si       8.62804166       9.38967202       6.69431247      -0.69927242      -0.92088962      -1.10882631      -0.16248604       0.02018201      -0.70278946      -8.76587852
Si       4.77406627       0.60976149       0.39318203      -0.02336789       0.57819215       0.86188967       0.41342634       0.39567179      -0.25672912      -8.73986170
Si       6.74829563       1.59572514       3.55002659       0.54559879       0.36073736      -0.07546063       0.01224766       1.20047456      -0.27874955      -8.74460939
Si       8.68607374       2.67262856       6.66191663       0.36085687      -0.47966697      -0.28796848      -0.22386941       0.70234949      -0.12593652      -8.72535994
Si       6.70786264       3.90651892       0.42443687       0.52935242       0.66025640       1.34036587       0.00549210       0.07870229       0.16284916      -8.76370859
Si       8.67242712       4.96008510       3.54048964      -0.32698904      -0.05302542       0.79928881      -0.11121740       0.32993545      -0.11787691      -8.76269554
Si      10.56341179       6.15847782       6.63295054      -1.23276082      -0.81528084       0.75333361      -0.67186381      -1.17296921       0.25932820      -8.69292963
Si       8.69303135       7.16694889       0.47720590       0.08745709       0.25305815      -0.55770084       0.04018469       0.29502745      -0.08908424      -8.73396697
Si      10.59394753       8.47365665       3.50850814       0.46388150       0.92474767       0.44933307       0.34684993      -0.49628952       0.69528322      -8.69393080
Si      12.60231938       9.37289230       6.68196165      -0.06736296      -0.45798066      -0.79872401      -0.87042424       0.38957532       0.10800459      -8.71907045
Si       8.71211539       0.54540085       0.42861074       0.58494545       0.23191707       0.64572706      -0.00417645       0.58941522      -0.01368637      -8.74309949
Si      10.71392501       1.73393461       3.54868027      -0.56610530      -0.33440692       0.16455064      -0.86831899      -0.47494669      -0.49258247      -8.71331657
Si      12.53729281       2.71020690       6.77213832      -0.37794349      -0.64323748      -0.15375255       0.07582203       0.97207776       0.08674731      -8.71857617
Si      10.55648986       3.89385915       0.50057280       1.01671907       0.03848696       0.09929981       0.69178057       0.04676472      -0.63017434      -8.77005279
Si      12.52119328       5.08564700       3.65752833      -0.06473812       0.41436459      -0.28671005      -0.01719925      -0.22878133      -0.52241767      -8.73648685
Si      14.48165640       6.17595847       6.70930186       0.91501402      -0.08032610       0.30722340      -0.08969993      -1.17220951       0.89119072      -8.70413998
Si      12.54338309       7.24140498       0.31051905       0.42330442       0.17921146      -0.19370603      -0.60757520      -0.44587842       0.40179688      -8.71905158
Si      14.45019748       8.31399327       3.47132658       0.27901522       0.60902770       0.54924289      -0.46854845       0.19291080      -0.06168551      -8.72716474
Si      16.24968661       9.49341611       6.63378684       0.33345763      -1.34491612      -0.61625899       0.87294569      -0.42449643       0.19298207      -8.70366634
54
Lattice="11.5478352 0.0 0.0 5.773917198490155 10.000722372470358 0.0 5.773916394327279 3.333571176804646 9.428767828939895" Properties=species:S:1:pos:R:3:momenta:R:3:forces:R:3:energies:R:1 spacegroup="_JSON {\"number\": 1, \"setting\": 1}" unit_cell=conventional occupancy="_JSON {\"0\": {\"Si\": 1.0}, \"1\": {\"Si\": 1.0}, \"2\": {\"Si\": 1.0}, \"3\": {\"Si\": 1.0}, \"4\": {\"Si\": 1.0}, \"5\": {\"Si\": 1.0}, \"6\": {\"Si\": 1.0}, \"7\": {\"Si\": 1.0}, \"8\": {\"Si\": 1.0}, \"9\": {\"Si\": 1.0}, \"10\": {\"Si\": 1.0}, \"11\": {\"Si\": 1.0}, \"12\": {\"Si\": 1.0}, \"13\": {\"Si\": 1.0}, \"14\": {\"Si\": 1.0}, \"15\": {\"Si\": 1.0}, \"16\": {\"Si\": 1.0}, \"17\": {\"Si\": 1.0}, \"18\": {\"Si\": 1.0}, \"19\": {\"Si\": 1.0}, \"20\": {\"Si\": 1.0}, \"21\": {\"Si\": 1.0}, \"22\": {\"Si\": 1.0}, \"23\": {\"Si\": 1.0}, \"24\": {\"Si\": 1.0}, \"25\": {\"Si\": 1.0}, \"26\": {\"Si\": 1.0}, \"27\": {\"Si\": 1.0}, \"28\": {\"Si\": 1.0}, \"29\": {\"Si\": 1.0}, \"30\": {\"Si\": 1.0}, \"31\": {\"Si\": 1.0}, \"32\": {\"Si\": 1.0}, \"33\": {\"Si\": 1.0}, \"34\": {\"Si\": 1.0}, \"35\": {\"Si\": 1.0}, \"36\": {\"Si\": 1.0}, \"37\": {\"Si\": 1.0}, \"38\": {\"Si\": 1.0}, \"39\": {\"Si\": 1.0}, \"40\": {\"Si\": 1.0}, \"41\": {\"Si\": 1.0}, \"42\": {\"Si\": 1.0}, \"43\": {\"Si\": 1.0}, \"44\": {\"Si\": 1.0}, \"45\": {\"Si\": 1.0}, \"46\": {\"Si\": 1.0}, \"47\": {\"Si\": 1.0}, \"48\": {\"Si\": 1.0}, \"49\": {\"Si\": 1.0}, \"50\": {\"Si\": 1.0}, \"51\": {\"Si\": 1.0}, \"52\": {\"Si\": 1.0}, \"53\": {\"Si\": 1.0}}" energy=-471.7888544088482 stress="-0.0028324411383849617 0.0008802595576275624 0.000544780602877876 0.0008802595576275624 0.001831229725803893 -0.0012069787547504221 0.000544780602877876 -0.0012069787547504221 0.0009778650395269306" free_energy=-471.7888544088482 pbc="T T T"
Si       6.65922285       3.91955950       2.84482717      -0.78852898      -0.07085263       0.82975491       0.68744740      -0.24531620      -0.35159734      -8.74874702
Si       8.59351708       4.88377354       5.89169761       1.75573727      -0.51778479       1.29174541       0.24895759       0.61161579       0.33922940      -8.74715509
Si      10.52050101       6.15343837       9.06135857      -0.34460177      -0.74072200       1.11209847       0.54173812       0.37426177      -0.23811335      -8.73103496
Si       8.71198389       7.19455769       2.79432048      -1.31527849      -0.36069897      -1.00010628      -0.01713984       0.37079814       0.12638203      -8.71806557
Si      10.58346129       8.40831788       5.87853483       0.14435988       0.95123082      -1.69192595      -0.11785265      -1.11730961       0.16325380      -8.71632602
Si      12.50667948       9.46929667       9.00554777       0.12677354      -0.01837749      -0.91106625       0.53432673      -0.38617203       0.23281908      -8.74309477
Si      10.56923668      10.65002718       2.72553979       0.35735809      -0.81279875       0.32205587       0.38710743      -0.05882049       0.19984697      -8.74947407
Si      12.49900586      11.60606462       5.89260160       0.12780296      -0.27758403       0.63445375       0.04769382      -0.07284275      -0.06959154      -8.73418448
Si      14.55749094      12.71006977       8.99771341       0.25344824       0.00774144      -0.53918255      -0.47822874       0.30006815       0.24390323      -8.72885173
Si      10.61960677       3.93094809       2.87452601      -0.38370712      -0.47559870       1.04441628       0.12894681       0.05884122      -0.64690867      -8.76023594
Si      12.51654297       5.03796006       6.05701778      -0.13054943       0.61381083       0.42077121       0.00821592      -0.35747748      -0.66772696      -8.69198616
Si      14.45233842       6.17528535       9.10343980       0.05545241      -0.08677862      -0.74111423       0.10311506      -0.27086227       0.36180192      -8.75064538
Si      12.48348775       7.32745638       2.73906240       0.68379520       1.44128009       1.04037649       0.14190114      -0.55153722      -0.32130206      -8.72601301
Si      14.47380925       8.31854160       5.81597797       0.32552983       1.16445337      -0.16034067      -0.45180713      -0.58427178       0.27049574      -8.74442628
Si      16.38460451       9.41465666       8.96904904       0.97742257       0.77501039      -0.70555611      -0.05145345       0.07846459       0.52802928      -8.72723474
Si      14.53128626      10.59217782       2.83701315       1.22699475       0.14802785       0.93874365      -0.44509035       0.00769236      -0.67509607      -8.74845184
Si      16.39926445      11.66351551       5.87544078      -1.05963819      -1.62803638       0.32657272       0.21661034      -0.35004914       0.07905238      -8.75608823
Si      18.26305649      12.86313236       9.14559508       0.10529646       0.10315774      -0.44135941       0.67254429      -0.39811101      -0.45288995      -8.72574946
Si      14.39602535       3.90524646       2.80327931      -0.18521904      -0.49785483       0.49928473      -0.18790068       0.10616968      -0.48485393      -8.71389732
Si      16.30853507       5.01618842       5.90286169      -1.44044357       0.05997275      -0.74488872       0.33688671      -0.96136084       0.00607156      -8.73864609
Si      18.26974401       6.13755857       9.00234970       0.27084329      -0.63923435      -0.10497776      -0.04173269      -0.19585673       0.15447833      -8.75825735
Si      16.29877052       7.21706890       2.61785838       0.20548135       0.61299453       0.03984065       0.23686602      -0.30120778       0.28558173      -8.73151795
Si      18.17096744       8.26579475       5.84454701      -0.62778694      -1.09427124      -1.35475887       0.54891718       0.00411190      -0.13025036      -8.75153328
Si      20.22832502       9.42103485       8.98763326       0.22039142       0.60006107       0.23285946      -0.56298499       0.08982614      -0.35276852      -8.76332908
Si      18.28978602      10.50732128       2.66357441       0.82840431       0.82733889      -0.37726659      -0.09551721      -0.29201930       0.18000585      -8.71457134
Si      20.18151214      11.59277310       5.83576502       1.03221248       0.08079769       0.02903336      -0.50972060      -0.15730651       0.09954074      -8.74800230
Si      22.20593102      12.78058516       8.99322471      -0.34856406      -1.35268155      -0.66604330      -0.34568616       0.19407252      -0.16784819      -8.72415970
Si       1.09196198       0.57443819       0.30438276      -0.07124449       0.46251829       0.66308848      -0.50525426      -0.48773797       0.01095034      -8.73108320
Si       2.84649412       1.63499466       3.45717940      -0.77242512       1.20858180      -0.73861474      -0.14388260       0.50692641       0.69780395      -8.75929867
Si       4.74637640       2.68639111       6.60961051       0.95642945      -1.34453560      -1.29170565       0.52925330       0.79419997       0.37088287      -8.71558689
Si       2.82970783       3.90378618       0.38471670      -0.96972091       0.19513314      -0.47416009       0.18183157       0.15375617       0.64882355      -8.74453413
Si       4.76628539       5.04435733       3.56761020       1.19384220      -1.24633918      -0.05550231      -0.34691429       0.03127875      -0.24336602      -8.75717441
Si       6.68944926       6.07090500       6.65726079      -0.60143179       0.92133339       0.68526812       0.17213859      -0.08778100       0.09265824      -8.74574746
Si       4.79342931       7.20615260       0.26363794      -0.62399197      -0.54520083      -0.07805996       0.26862921       0.36794729       0.41600179      -8.77392445
Si       6.68127771       8.22387626       3.49008310       0.05136590      -0.41349334       0.61667961       0.33076980       0.67025186      -0.30380777      -8.72533201
Si       8.58585557       9.35016124       6.61923043      -0.85765990      -0.44779518      -1.52950215       0.04135650       0.55160759       0.16542389      -8.72626018
Si       4.78603221       0.64641827       0.42519694       0.42038274       0.58635296       0.31049024       0.18569348      -0.50702478      -0.43443001      -8.76416085
Si       6.77305228       1.65411163       3.53879876       0.34195678       1.64471636      -0.25576198      -0.20821298       0.31704233       0.09828684      -8.71475238
Si       8.69364717       2.67181445       6.64623088      -0.10992644       0.34155926      -0.21409394      -0.35993613       0.27485825       0.24433533      -8.75391670
Si       6.72924535       3.94117674       0.49136801       0.18758213       0.58818926       1.01199148      -0.37451929      -0.20893546      -0.61273263      -8.71136815
Si       8.64981218       4.96832146       3.57601828      -0.54209135       0.31622773       0.54185268      -0.12764353       0.13187344      -0.16754938      -8.75320490
Si      10.48254714       6.09121731       6.67979179      -1.56653517      -1.33623630       0.98163955       0.44914882       0.44866152       0.06736104      -8.69706233
Si       8.69889458       7.18743826       0.43972941       0.12736712       0.44052723      -0.95230830       0.00769096      -0.04984522      -0.39395472      -8.74454602
Si      10.61913432       8.49471941       3.54985067       0.26961147      -0.25218538       0.88469390      -0.53518356      -0.99182148      -0.26574801      -8.73776936
Si      12.56883225       9.36726235       6.64684843      -1.07175765       0.27011588      -0.50022351      -0.32894862       0.48288549       0.26161006      -8.74482809
Si       8.74019592       0.57655160       0.45923221       0.43767424       0.83623017       0.46082841      -0.18781092       0.11865427      -0.25303563      -8.71210266
Si      10.66174687       1.70052167       3.54294418      -1.13311601      -0.86083612      -0.25366607       0.27857172      -0.14981065       0.01584464      -8.75631270
Si      12.52254072       2.71553866       6.76611625      -0.16140315       0.80647617      -0.13491216       0.16848742       0.80471391      -0.13628964      -8.70282252
Si      10.62731846       3.89947946       0.48684686       1.45781405       0.20218986      -0.50789204      -0.18995902       0.15078620      -0.17450832      -8.73127854
Si      12.51709302       5.10067556       3.63326509      -0.08224558       0.20586338      -0.42646306       0.01695963      -0.04534089       0.30324809      -8.72739413
Si      14.51363330       6.14315271       6.75235360       0.05499793      -0.80090151       1.12091013      -1.03571041       0.23900754       0.05421446      -8.74938101
Si      12.54321362       7.24002787       0.32003923      -0.36815136      -0.08446636       0.61297340      -0.35603189       0.12797419       0.61388077      -8.71163736
Si      14.45029969       8.35160372       3.49637334      -0.16363807       0.77515348       0.37777074      -0.03160499      -0.00374519      -0.16613791      -8.76144595
Si      16.30028822       9.41848161       6.61165889       1.52332846      -1.28178173      -0.17874107       0.56492143       0.46421635       0.37868912      -8.74425018
54
Lattice="11.5478352 0.0 0.0 5.773917198490155 10.000722372470358 0.0 5.773916394327279 3.333571176804646 9.428767828939895" Properties=species:S:1:pos:R:3:momenta:R:3:forces:R:3:energies:R:1 spacegroup="_JSON {\"number\": 1, \"setting\": 1}" unit_cell=conventional occupancy="_JSON {\"0\": {\"Si\": 1.0}, \"1\": {\"Si\": 1.0}, \"2\": {\"Si\": 1.0}, \"3\": {\"Si\": 1.0}, \"4\": {\"Si\": 1.0}, \"5\": {\"Si\": 1.0}, \"6\": {\"Si\": 1.0}, \"7\": {\"Si\": 1.0}, \"8\": {\"Si\": 1.0}, \"9\": {\"Si\": 1.0}, \"10\": {\"Si\": 1.0}, \"11\": {\"Si\": 1.0}, \"12\": {\"Si\": 1.0}, \"13\": {\"Si\": 1.0}, \"14\": {\"Si\": 1.0}, \"15\": {\"Si\": 1.0}, \"16\": {\"Si\": 1.0}, \"17\": {\"Si\": 1.0}, \"18\": {\"Si\": 1.0}, \"19\": {\"Si\": 1.0}, \"20\": {\"Si\": 1.0}, \"21\": {\"Si\": 1.0}, \"22\": {\"Si\": 1.0}, \"23\": {\"Si\": 1.0}, \"24\": {\"Si\": 1.0}, \"25\": {\"Si\": 1.0}, \"26\": {\"Si\": 1.0}, \"27\": {\"Si\": 1.0}, \"28\": {\"Si\": 1.0}, \"29\": {\"Si\": 1.0}, \"30\": {\"Si\": 1.0}, \"31\": {\"Si\": 1.0}, \"32\": {\"Si\": 1.0}, \"33\": {\"Si\": 1.0}, \"34\": {\"Si\": 1.0}, \"35\": {\"Si\": 1.0}, \"36\": {\"Si\": 1.0}, \"37\": {\"Si\": 1.0}, \"38\": {\"Si\": 1.0}, \"39\": {\"Si\": 1.0}, \"40\": {\"Si\": 1.0}, \"41\": {\"Si\": 1.0}, \"42\": {\"Si\": 1.0}, \"43\": {\"Si\": 1.0}, \"44\": {\"Si\": 1.0}, \"45\": {\"Si\": 1.0}, \"46\": {\"Si\": 1.0}, \"47\": {\"Si\": 1.0}, \"48\": {\"Si\": 1.0}, \"49\": {\"Si\": 1.0}, \"50\": {\"Si\": 1.0}, \"51\": {\"Si\": 1.0}, \"52\": {\"Si\": 1.0}, \"53\": {\"Si\": 1.0}}" energy=-471.0846670385524 stress="-0.0009546037720929904 -0.0009715318350899528 -0.0007850684376999948 -0.0009715318350899528 -0.001968667750999034 0.00029345178472390014 -0.0007850684376999948 0.00029345178472390014 -0.0012463857257675006" free_energy=-471.0846670385524 pbc="T T T"
Si       6.65573075       3.91093747       2.86924501       0.76921949      -0.13001935       0.00044713       1.09647952       0.25457457      -0.72828261      -8.76897945
Si       8.67152740       4.88408030       5.96071921       0.80343987       0.54075078       1.10240175      -1.34561114       0.65963114      -0.56553710      -8.71937511
Si      10.52122272       6.13930915       9.10905769       0.30986897       0.32485498       0.69690587       0.29997034       0.82955792      -0.26837447      -8.72260044
Si       8.65228065       7.19005242       2.74947912      -0.79470549       0.15824994      -0.70162925       0.63494022       0.24856129       0.15673644      -8.70117594
Si      10.57719240       8.40660424       5.81502376      -0.51825699      -1.08843842      -0.40744714      -0.62799413      -1.39043914       1.38023590      -8.65439692
Si      12.52781435       9.45562334       8.97181549       0.54258279      -0.43948257      -0.29771092       0.00180453      -0.13601079       0.52549862      -8.73744730
Si      10.59665358      10.61449837       2.75079382       0.55744283      -0.39864784       0.62737386      -0.12201250       0.49247553       0.14543228      -8.71999939
Si      12.51185113      11.59287888       5.91299345       0.43212192      -0.13248082      -0.02013231       0.30897674       0.28317978      -0.69805587      -8.73567989
Si      14.55285586      12.72830815       8.98280760      -0.41347020       0.75386010       0.02625210      -0.40498965       0.54488316       0.45751340      -8.72225733
Si      10.60326865       3.91109435       2.89779367      -0.25416614      -0.22965600      -0.23096775       0.07369570       0.26179981      -0.92645592      -8.72818975
Si      12.50516288       5.05648744       6.05224615      -0.38876840       0.12119749      -0.59355753      -0.31709644      -0.24418444      -0.62248737      -8.72134181
Si      14.46252327       6.16693498       9.09158161       0.35877886      -0.10289055       0.46726416       0.20404063       0.23135177       1.02612201      -8.74725526
Si      12.51855985       7.37301805       2.77667709       0.53619149       0.15919803       0.34411908      -0.30628638      -1.07150080      -0.50589502      -8.72846044
Si      14.47195937       8.34999062       5.82618966      -0.37662931      -0.01677924       0.66782298      -0.37570498      -0.79287617       0.71677895      -8.68472176
Si      16.43008920       9.45132119       8.95643112       0.68584608       0.50681906       0.26826932      -0.32514853      -0.37250878       0.69263727      -8.73945578
Si      14.56113126      10.60057717       2.85186364      -0.34613304       0.18270041      -0.48100459      -1.39724744       0.06333442      -1.07222288      -8.72356875
Si      16.36114767      11.57590857       5.89335584      -0.26293945      -1.44775476       0.32239811       0.72879066       0.68002909      -0.05412010      -8.71592063
Si      18.29421035      12.85615740       9.11039557       1.03553164      -0.29930203      -0.79215072       0.48158897      -0.12250123      -0.02774451      -8.73445137
Si      14.38084814       3.89432717       2.80457510      -0.36240080       0.27788113      -0.51402908      -0.06675116       0.84686803      -0.72166184      -8.72749010
Si      16.25794020       4.98220576       5.87149877      -0.35688554      -1.25732041      -0.31064704       0.85244275      -0.56628750       0.54489695      -8.70897135
Si      18.28050113       6.10114571       9.00379818       0.12205844      -0.66354395       0.18496873      -0.11062701       0.13815066       0.24784323      -8.78694862
Si      16.31518732       7.23151141       2.63240727       0.35594125      -0.13026417       0.52685921      -0.01851681      -0.56361227       0.32584550      -8.69786475
Si      18.16619327       8.21227259       5.77696438       0.54323754      -0.87131810      -1.05415728       0.91337362       0.29504290       0.51622787      -8.75833166
Si      20.21068684       9.44942149       8.97928497      -0.95775810       0.39106688      -0.60566924      -0.79319102      -0.26228551      -0.56054440      -8.73343687
Si      18.32033325      10.53464579       2.65668076       0.20779391       0.16133475       0.19973898      -0.58473991      -0.49338515       0.50195085      -8.69895997
Si      20.20633239      11.59257518       5.83645997      -0.18257054      -0.00195645      -0.05440322      -0.87930902       0.17808924      -0.10328983      -8.73446981
Si      22.17726965      12.72700137       8.95456730      -0.67593215      -0.52444132      -0.73224699      -0.07198361       0.83056438       0.13180385      -8.68104723
Si       1.06882458       0.57042214       0.33123578      -0.80589139      -0.73432924       0.23244084      -0.47967331      -0.93385873      -0.48261136      -8.71828059
Si       2.81446666       1.70447236       3.45041275      -0.21815235       1.15893597       0.52521161       0.74561042      -0.57922345       0.85207731      -8.74971340
Si       4.80968121       2.65412902       6.56323025       1.25171169       0.17693225      -0.38069546      -0.27107413       1.02409613       0.74197543      -8.72984050
Si       2.79301502       3.91930353       0.38754552      -0.31782561       0.37461901       0.56521356       0.60727924       0.06719036       0.57111188      -8.72321033
Si       4.79934228       4.99350696       3.55449654      -0.15387299      -0.49924706      -0.44144157      -1.17160576       0.77489506      -0.23307106      -8.72676445
Si       6.66635287       6.09896861       6.68833498      -0.25469206      -0.11692229       0.35776806       0.27075171      -1.11667805      -0.46193759      -8.67120306
Si       4.78013339       7.19147425       0.27620464       0.22221047      -0.05574693       0.53194732       0.65841813       0.20466953       0.30711920      -8.78717920
Si       6.69456118       8.23303479       3.49785476       0.39838127       0.81147661      -0.51853929       0.10536358       0.84874935      -1.05245416      -8.73122038
Si       8.54735907       9.34831234       6.55239142      -0.51861337       0.34427621      -0.90644707       0.39256204       0.41839929       0.61231035      -8.69066416
Si       4.81423331       0.64722717       0.42696706       0.64589518      -0.67277480      -0.18234574       0.14291181      -0.93601400      -0.19742012      -8.76497955
Si       6.78440883       1.73395400       3.53474769       0.12413878       1.03016686       0.18819050      -0.08404785      -1.10722636       0.42661891      -8.67889736
Si       8.67685534       2.69067981       6.64735736      -0.43942275       0.21231905       0.28359705      -0.00051221      -0.35622953       0.34284412      -8.75780054
Si       6.72621354       3.96007134       0.51544954      -0.23761237       0.06049860      -0.15263065      -0.11538770      -0.48205015      -0.83045853      -8.67703295
Si       8.61980376       4.98737518       3.60087670      -0.50501121       0.37256757       0.45838275       0.25305425      -0.01399668       0.03114502      -8.72977222
Si      10.43720894       6.05294692       6.73457884       0.16964531       0.10559031       1.11350395       1.69352907       1.32172846       0.06999501      -8.64286658
Si       8.70563287       7.20554901       0.37508527       0.12603014       0.20581378      -1.44890261      -0.00699058      -0.22004817      -0.14026620      -8.74795283
Si      10.60851152       8.44449069       3.57022145      -0.70476848      -1.58441279      -0.36045639      -0.64875147      -0.66977896      -1.20450110      -8.73520512
Si      12.50985676       9.39463934       6.62995991      -1.00931624       0.63382762      -0.16373596       0.32140309      -0.06550144       0.18308468      -8.76231666
Si       8.75532013       0.61635636       0.47094388       0.13433122       0.51748932      -0.06314750      -0.20553962      -0.51841775      -0.44076087      -8.70009620
Si      10.62978462       1.65705608       3.53808495       0.15625608      -0.65732327       0.18521051       1.17346117       0.37540298       0.45599915      -8.74126482
Si      12.51937749       2.77849051       6.74934443       0.01108989       1.35320253      -0.57027949       0.05022575      -0.14559077      -0.38422707      -8.68870192
Si      10.68631974       3.91596816       0.45869592       0.62626510       0.41445856      -0.46914171      -0.83135286       0.09912045       0.20691470      -8.68403983
Si      12.51397806       5.11137173       3.62734112      -0.03845672       0.21432775       0.23525795       0.00421359       0.00219498       0.43144836      -8.71098239
Si      14.47484499       6.11949318       6.79929462      -1.45497063      -0.02251344       0.42282003      -0.71953548       0.55670948      -0.88195585      -8.74895155
Si      12.51789068       7.24681040       0.37393614      -0.44035264       0.42949598       1.36029950       0.25493208       0.45885599       0.27884870      -8.72671146
Si      14.44816181       8.38925444       3.51036847       0.20231749       0.59823223       0.18344902       0.42567345      -0.24925561      -0.05503781      -8.77127052
Si      16.39044521       9.37167895       6.61706517       1.66124728      -0.51457795       0.37540256      -0.41381232       0.41935565       0.33835768      -8.75495078
54
Lattice="11.5478352 0.0 0.0 5.773917198490155 10.000722372470358 0.0 5.773916394327279 3.333571176804646 9.428767828939895" Properties=species:S:1:pos:R:3:momenta:R:3:forces:R:3:energies:R:1 spacegroup="_JSON {\"number\": 1, \"setting\": 1}" unit_cell=conventional occupancy="_JSON {\"0\": {\"Si\": 1.0}, \"1\": {\"Si\": 1.0}, \"2\": {\"Si\": 1.0}, \"3\": {\"Si\": 1.0}, \"4\": {\"Si\": 1.0}, \"5\": {\"Si\": 1.0}, \"6\": {\"Si\": 1.0}, \"7\": {\"Si\": 1.0}, \"8\": {\"Si\": 1.0}, \"9\": {\"Si\": 1.0}, \"10\": {\"Si\": 1.0}, \"11\": {\"Si\": 1.0}, \"12\": {\"Si\": 1.0}, \"13\": {\"Si\": 1.0}, \"14\": {\"Si\": 1.0}, \"15\": {\"Si\": 1.0}, \"16\": {\"Si\": 1.0}, \"17\": {\"Si\": 1.0}, \"18\": {\"Si\": 1.0}, \"19\": {\"Si\": 1.0}, \"20\": {\"Si\": 1.0}, \"21\": {\"Si\": 1.0}, \"22\": {\"Si\": 1.0}, \"23\": {\"Si\": 1.0}, \"24\": {\"Si\": 1.0}, \"25\": {\"Si\": 1.0}, \"26\": {\"Si\": 1.0}, \"27\": {\"Si\": 1.0}, \"28\": {\"Si\": 1.0}, \"29\": {\"Si\": 1.0}, \"30\": {\"Si\": 1.0}, \"31\": {\"Si\": 1.0}, \"32\": {\"Si\": 1.0}, \"33\": {\"Si\": 1.0}, \"34\": {\"Si\": 1.0}, \"35\": {\"Si\": 1.0}, \"36\": {\"Si\": 1.0}, \"37\": {\"Si\": 1.0}, \"38\": {\"Si\": 1.0}, \"39\": {\"Si\": 1.0}, \"40\": {\"Si\": 1.0}, \"41\": {\"Si\": 1.0}, \"42\": {\"Si\": 1.0}, \"43\": {\"Si\": 1.0}, \"44\": {\"Si\": 1.0}, \"45\": {\"Si\": 1.0}, \"46\": {\"Si\": 1.0}, \"47\": {\"Si\": 1.0}, \"48\": {\"Si\": 1.0}, \"49\": {\"Si\": 1.0}, \"50\": {\"Si\": 1.0}, \"51\": {\"Si\": 1.0}, \"52\": {\"Si\": 1.0}, \"53\": {\"Si\": 1.0}}" energy=-472.0388061590281 stress="0.0025464409547597917 -0.0005861110363051274 -0.0005869870108058822 -0.0005861110363051274 -0.0014513561900267565 0.001644970494707991 -0.0005869870108058822 0.001644970494707991 -0.000792045845434317" free_energy=-472.0388061590281 pbc="T T T"
Si       6.72463312       3.91948454       2.84184340       1.51364757       0.48485915      -0.98410867      -0.23127121       0.35218340      -0.47875283      -8.77135774
Si       8.66318885       4.93327395       5.99505729      -0.92558505       1.22504712       0.24395033      -0.58034147       0.20428972      -0.43408971      -8.74092439
Si      10.54538065       6.17917620       9.13884770       0.53995331       0.94648085       0.50533740       0.01349343      -0.13488971      -0.01562014      -8.74780193
Si       8.63526521       7.20285293       2.71243849       0.08820254       0.22005437      -0.84088636       0.39328854      -0.18224985      -0.34537640      -8.72785777
Si      10.52955384       8.30579440       5.84189849      -1.15852401      -2.45286182       1.19328013      -0.08514600      -0.16747727       0.45211632      -8.72931020
Si      12.55111455       9.43136389       8.97422982       0.26223900      -0.40909254       0.31281136      -0.32695086       0.16300547       0.22168416      -8.75608274
Si      10.61680145      10.60968717       2.78633265       0.14197760       0.09993529       0.65596252      -0.38771068       0.04126052      -0.13693601      -8.70493817
Si      12.54438903      11.59922948       5.88684921       0.71737288       0.38271553      -0.85802831      -0.04476552       0.30538611      -0.22028099      -8.76463448
Si      14.51764671      12.78245553       9.00053135      -0.86805739       1.12795201       0.59902047      -0.15532988      -0.16590836       0.25393081      -8.75766863
Si      10.59372711       3.91006619       2.85538597      -0.08071334       0.19215782      -1.22330649       0.18026199       0.26092234      -0.27575798      -8.70707616
Si      12.47228696       5.05739713       6.00185816      -0.82814236      -0.01689301      -1.20186585      -0.16966392       0.02246029      -0.11940835      -8.78717164
Si      14.48536553       6.17324325       9.14620172       0.40780215       0.35078360       1.32424354      -0.20316520       0.24918936      -0.10088782      -8.74849679
Si      12.53466732       7.34257995       2.78092802       0.10897569      -1.20466766      -0.03227823      -0.18955272      -0.60525515       0.07660542      -8.75702955
Si      14.44306400       8.32619720       5.88528492      -0.61262304      -0.69963066       1.44477758       0.06717707      -0.03738756       0.16365568      -8.70727111
Si      16.45342665       9.46399068       8.99396705       0.22179939       0.02238785       1.06725136      -0.25221047      -0.19039290       0.30792890      -8.75971385
Si      14.49966922      10.61499752       2.79261275      -1.66496046       0.38335867      -1.55775175      -0.11626576       0.10001630      -0.21028937      -8.75826518
Si      16.37428643      11.53616321       5.90909775       0.70642496       0.06098618       0.30892984       0.49466473       1.15741355       0.06642827      -8.70950310
Si      18.36083066      12.83903966       9.06984510       1.35260527      -0.29823485      -0.73743382      -0.12332570       0.09354954       0.03865121      -8.75106168
Si      14.35902210       3.93936738       2.75748734      -0.47868320       1.29069035      -1.05378985      -0.09483570       0.26658092       0.17096890      -8.77159312
Si      16.26464615       4.90963886       5.87633377       0.42618825      -1.17308455       0.42635393       0.12151076       0.74736313       0.26931975      -8.71711399
Si      18.28382044       6.07247685       9.02392186       0.02424743      -0.43085104       0.57910474      -0.03705976       0.13400966       0.22480018      -8.75680656
Si      16.33175277       7.20774501       2.67051191       0.25957299      -0.63382408       0.85873337      -0.08189053      -0.00090812       0.05624614      -8.73860054
Si      18.22610500       8.17921409       5.74321666       1.60108366      -0.37370335      -0.24879098       0.35369555       0.35121305       0.45362055      -8.74541492
Si      20.13943909       9.46200540       8.93407915      -1.51777035       0.14524921      -0.91250118       0.14484889      -0.04898888       0.23897355      -8.70598248
Si      18.31339593      10.52907323       2.68305611      -0.32841133      -0.23230509       0.68163634      -0.02791121       0.06890384       0.01339995      -8.74504241
Si      20.17106493      11.60726525       5.83288643      -0.95657069       0.68370659       0.00648442      -0.07261860       0.63163305       0.23644421      -8.74135323
Si      22.14236589      12.73005734       8.92618278      -0.59364439       0.54064970      -0.25184203       0.16461322       0.42564844       0.50737679      -8.72103503
Si       1.00837359       0.50278679       0.32738291      -1.46898699      -1.62167896      -0.27150903      -0.34309262      -0.05429655      -0.05892401      -8.74087979
Si       2.83187256       1.73764590       3.50208879       0.81967898       0.08968692       1.19963854       0.50095265      -0.64211589      -0.11238819      -8.74548993
Si       4.85484154       2.69197812       6.56925108       0.32529954       0.98398342       0.53034446      -0.82796607      -0.08264584       0.42314353      -8.74773767
Si       2.79789504       3.94031790       0.42834822       0.42889746       0.40324315       0.72473872       0.31140802      -0.02564691      -0.46796360      -8.75174353
Si       4.75651074       4.99282067       3.52475913      -1.17631699       0.33077189      -0.61307224      -0.00206764       0.22580027       0.08627729      -8.74102085
Si       6.66285619       6.05118819       6.68847903       0.09501632      -1.57062497      -0.32092964       0.15556254      -0.57467385      -0.32885189      -8.71946433
Si       4.80923410       7.19151104       0.31011155       0.68221512      -0.02339785       0.63584382      -0.13547722      -0.10703854      -0.17558508      -8.74974200
Si       6.71633999       8.30186847       3.43528615       0.37782959       1.60177254      -1.65140817      -0.10356462      -0.00164018      -0.20732739      -8.76429811
Si       8.53628621       9.37692516       6.52945972       0.10021865       0.63265208       0.03610084       0.40700947      -0.02556076       0.61800986      -8.73616954
Si       4.85410198       0.58624346       0.41352682       0.86699830      -1.37468606      -0.25410089       0.10489912       0.13879379       0.10629696      -8.74769897
Si       6.78809788       1.74064276       3.55817956       0.00671007      -0.71970623       0.58023729      -0.12033677      -0.87696171      -0.07031398      -8.73534045
Si       8.66081251       2.68953355       6.67232176      -0.04021904      -0.16142251       0.58717275       0.50815684       0.00727925       0.02515987      -8.74031028
Si       6.71594463       3.94462572       0.48089315      -0.01600350      -0.61065215      -1.01099214       0.42199790      -0.31774709      -0.22112809      -8.72535591
Si       8.60951092       5.00779624       3.62632149       0.22665503       0.44325838       0.48491416       0.68473995       0.12371108      -0.07548068      -8.74004822
Si      10.50473000       6.10441047       6.79212309       2.09485250       1.62202608       0.98328313       0.48819833       0.38753255      -0.28294546      -8.74543828
Si       8.71191146       7.20922329       0.30092682       0.10818955      -0.02174032      -1.22064990      -0.02920335      -0.04860507       0.47218024      -8.73342298
Si      10.55199127       8.34503347       3.51282939      -1.28807909      -1.98050880      -1.53957142       0.00144933       0.22876944      -0.09556775      -8.76291641
Si      12.46922821       9.41811684       6.62715753      -0.57516122       0.14585441       0.03565408       0.19009428      -0.50881644       0.09522282      -8.74874519
Si       8.75527725       0.62098371       0.44962873      -0.11470293      -0.33387494      -0.75416644      -0.11784765      -0.47593883      -0.44818106      -8.73726603
Si      10.67160674       1.63723120       3.56173200       1.09143449      -0.10995483       0.59201609      -0.15634567       0.34932468      -0.02093184      -8.76015661
Si      12.51977125       2.83255455       6.70609964      -0.03906045       0.52115478      -1.00819803      -0.11894430      -0.86030451      -0.10520906      -8.69462680
Si      10.68775475       3.93918191       0.44447219      -0.50334135       0.41232921      -0.04308371      -0.55323286      -0.12818010       0.31939817      -8.73300722
Si      12.50942229       5.12063084       3.64877151      -0.19775558       0.08434230       0.38490048      -0.23587705      -0.20912070      -0.33778395      -8.71961788
Si      14.38506487       6.13210916       6.78951356      -1.66180203       0.31765452      -0.65280395       0.47991440      -0.17078131      -0.33219865      -8.73773809
Si      12.50875106       7.28437170       0.44685759       0.13566121       0.90208602       1.20614922       0.42455048       0.06375159      -0.55337568      -8.74386813
Si      14.47298926       8.40871954       3.52122582       0.64548763       0.11020147       0.29203325       0.04198906      -0.37130011       0.18213071      -8.75841611
Si      16.45497154       9.35363892       6.64809831       0.71787766      -0.30463518       0.76216493      -0.73050551      -0.08515913       0.15158572      -8.74917945
54
Lattice="11.5478352 0.0 0.0 5.773917198490155 10.000722372470358 0.0 5.773916394327279 3.333571176804646 9.428767828939895" Properties=species:S:1:pos:R:3:momenta:R:3:forces:R:3:energies:R:1 spacegroup="_JSON {\"number\": 1, \"setting\": 1}" unit_cell=conventional occupancy="_JSON {\"0\": {\"Si\": 1.0}, \"1\": {\"Si\": 1.0}, \"2\": {\"Si\": 1.0}, \"3\": {\"Si\": 1.0}, \"4\": {\"Si\": 1.0}, \"5\": {\"Si\": 1.0}, \"6\": {\"Si\": 1.0}, \"7\": {\"Si\": 1.0}, \"8\": {\"Si\": 1.0}, \"9\": {\"Si\": 1.0}, \"10\": {\"Si\": 1.0}, \"11\": {\"Si\": 1.0}, \"12\": {\"Si\": 1.0}, \"13\": {\"Si\": 1.0}, \"14\": {\"Si\": 1.0}, \"15\": {\"Si\": 1.0}, \"16\": {\"Si\": 1.0}, \"17\": {\"Si\": 1.0}, \"18\": {\"Si\": 1.0}, \"19\": {\"Si\": 1.0}, \"20\": {\"Si\": 1.0}, \"21\": {\"Si\": 1.0}, \"22\": {\"Si\": 1.0}, \"23\": {\"Si\": 1.0}, \"24\": {\"Si\": 1.0}, \"25\": {\"Si\": 1.0}, \"26\": {\"Si\": 1.0}, \"27\": {\"Si\": 1.0}, \"28\": {\"Si\": 1.0}, \"29\": {\"Si\": 1.0}, \"30\": {\"Si\": 1.0}, \"31\": {\"Si\": 1.0}, \"32\": {\"Si\": 1.0}, \"33\": {\"Si\": 1.0}, \"34\": {\"Si\": 1.0}, \"35\": {\"Si\": 1.0}, \"36\": {\"Si\": 1.0}, \"37\": {\"Si\": 1.0}, \"38\": {\"Si\": 1.0}, \"39\": {\"Si\": 1.0}, \"40\": {\"Si\": 1.0}, \"41\": {\"Si\": 1.0}, \"42\": {\"Si\": 1.0}, \"43\": {\"Si\": 1.0}, \"44\": {\"Si\": 1.0}, \"45\": {\"Si\": 1.0}, \"46\": {\"Si\": 1.0}, \"47\": {\"Si\": 1.0}, \"48\": {\"Si\": 1.0}, \"49\": {\"Si\": 1.0}, \"50\": {\"Si\": 1.0}, \"51\": {\"Si\": 1.0}, \"52\": {\"Si\": 1.0}, \"53\": {\"Si\": 1.0}}" energy=-471.0967638163686 stress="-0.0002843209708049074 0.00044787715128246356 0.0005520145544035078 0.00044787715128246356 -0.0004195227150024383 0.0007673041800644513 0.0005520145544035078 0.0007673041800644513 -0.0005722728931990813" free_energy=-471.0967638163686 pbc="T T T"
Si       6.78189970       3.95012312       2.77985375       0.49167513       0.51649785      -1.19239104      -0.92283537      -0.28737524       0.25915233      -8.69862325
Si       8.61577766       4.99621771       5.99682735      -0.43066104       0.97199418      -0.09139785       1.16546880      -0.57328129      -0.09425514      -8.68407295
Si      10.57186536       6.21071560       9.16546556       0.43650794       0.04637887       0.49790588      -0.11093120      -0.94513919      -0.05174972      -8.71993985
Si       8.64411621       7.20300023       2.65084649       0.03996228      -0.27208609      -1.52585014      -0.39798743      -0.39511284      -0.39698182      -8.73580502
Si      10.47467575       8.19737116       5.90110694      -0.77511039      -1.14133778       0.67696948       0.53525592       1.88477889      -1.04358412      -8.67082322
Si      12.55177630       9.41766256       8.99326702      -0.22908430      -0.09914713       0.30370860      -0.29473827       0.21806736      -0.20646551      -8.75930956
Si      10.61039959      10.60646574       2.81192017      -0.32946922      -0.40181864       0.25165953      -0.16063147      -0.64920086      -0.39907954      -8.70730784
Si      12.57364473      11.62614169       5.84746891       0.28840942       0.53303061      -0.37321490      -0.46628921      -0.11988138       0.80821293      -8.76267291
Si      14.47105767      12.82574465       9.03734979      -0.80196395       0.37528202       0.71549324       0.25721525      -0.72944384      -0.09607599      -8.74764645
Si      10.59697705       3.92731558       2.79285582       0.19244531       0.39134795      -0.91995694       0.12335543      -0.03263710       0.65706161      -8.70014431
Si      12.42796815       5.05687437       5.94183053      -0.73550810      -0.04326835      -0.94517268       0.32267258      -0.12825827       0.42583476      -8.76755339
Si      14.49362802       6.19413155       9.19463041      -0.16019433       0.27573633       0.23021968      -0.44763032      -0.40547781      -1.23780856      -8.70078535
Si      12.53693686       7.26832935       2.78904668       0.04271109      -1.35863427       0.41376266       0.06653201       0.44710201       0.34513207      -8.74119406
Si      14.41757696       8.29866810       5.95675840      -0.29409233      -0.17770922       1.08328420       0.31958435       0.62003539      -0.59811842      -8.73006549
Si      16.45858470       9.46341586       9.05482161       0.03524031       0.05485358       1.10525497      -0.01622422       0.19090153      -0.27210096      -8.75867677
Si      14.42666387      10.63215620       2.71555361      -0.80407919       0.11582966      -1.15870117       1.10771440      -0.48550527       0.65548050      -8.71193100
Si      16.42346807      11.57587107       5.92997001       0.99778940       1.21209647       0.50141538      -0.18946421       0.20784548       0.11030743      -8.75244466
Si      18.41843223      12.82715602       9.02975963       0.67135025      -0.16210750      -0.84187097      -0.79105378       0.06932998      -0.15052257      -8.74004885
Si      14.33071357       4.00340019       2.72178858      -0.55912325       0.88877264      -0.12718262       0.07914582      -0.75517251       0.84591735      -8.74067041
Si      16.28162303       4.88839998       5.89929111       0.05099695       0.48263396       0.27317491      -0.53943975       1.18073634      -0.40340359      -8.69908954
Si      18.28309961       6.05295640       9.05932599      -0.07258697      -0.34529940       0.67504549      -0.11522568       0.01400768      -0.14943609      -8.67965249
Si      16.34311854       7.18445226       2.71261080       0.18897832      -0.07995213       0.64229819      -0.02759231       0.66385527      -0.34539133      -8.76057886
Si      18.31206392       8.17157360       5.74259229       1.43807692       0.04512800       0.13973052      -0.57463352       0.20311905       0.12151909      -8.68894068
Si      20.07672180       9.46990208       8.90493811      -0.67181773       0.18136679      -0.05091001       0.93429727       0.05271666       0.80624981      -8.66944327
Si      18.30323091      10.53022363       2.71026614       0.05858022       0.45957409       0.21028935       0.42271598       0.75563843      -0.53543170      -8.72806936
Si      20.12925819      11.66380055       5.84608245      -0.42973720       1.32103690       0.52124852       0.73824999       0.03950968       0.31418597      -8.73662354
Si      22.11736877      12.76209228       8.93364350      -0.38162457       0.41855644       0.51679696       0.08025124      -0.59392651       0.42255530      -8.75184149
Si       0.92427048       0.43178536       0.32069280      -1.55626367      -0.78133985       0.19643806       0.37177057       1.12138269       0.63395597      -8.72747403
Si       2.88557049       1.72630629       3.54673510       1.04085178      -0.34172037       0.28693186      -0.23376102       0.06390598      -0.93523339      -8.71516520
Si       4.84252152       2.72663508       6.60747550      -0.70651744       0.15450543       0.80581048      -0.47475599      -0.77068127      -0.05782704      -8.72130141
Si       2.82610699       3.95979582       0.43666382       0.52565886       0.31774358      -0.54545192      -0.16473653      -0.11472903      -0.97519018      -8.76585119
Si       4.71085603       5.01004840       3.50231604      -0.30579462       0.18202467      -0.13119597       1.00217146      -0.33297021       0.50680638      -8.71346750
Si       6.66893224       5.96427167       6.66702264       0.02865265      -1.36781133      -0.31897890      -0.25062601       0.88072127       0.35943888      -8.74626542
Si       4.82989939       7.18587364       0.33388193      -0.05456815      -0.17948216       0.24743347      -0.75733344      -0.06483828      -0.26462480      -8.66671849
Si       6.73260920       8.36780211       3.35761888       0.26530952       0.57935322      -1.00256688      -0.01710300      -1.25602788       0.98156665      -8.72490985
Si       8.55599121       9.40694518       6.55222591       0.61764706       0.49956609       0.75616508       0.26429325      -0.07562640       0.31313024      -8.75477192
Si       4.90026109       0.53237348       0.40757019       0.79362038      -0.47967199       0.07916777      -0.28371945       0.91169078       0.30547823      -8.68588894
Si       6.78159650       1.68678560       3.57416675      -0.29532538      -0.98770849      -0.17365095      -0.27045295       0.46391156      -0.83513866      -8.76970075
Si       8.68010669       2.69019991       6.70008102       0.76307999       0.33747633       0.40124159       0.44954619       0.58622327      -0.24720533      -8.71613501
Si       6.73548100       3.90747919       0.42874365       0.78391943      -0.64566998      -0.80900262       0.49000729       0.30483914       0.43469419      -8.76466367
Si       8.64723979       5.03662856       3.64425474       1.13742316       0.63872011       0.09601606       0.38293972       0.05170916      -0.47030827      -8.74089738
Si      10.60939562       6.18046107       6.83394266       1.47372611       0.80522069       0.67765170      -1.16039846      -1.41584418      -0.04993830      -8.70108679
Si       8.71535978       7.20911736       0.25923473      -0.00578510       0.06210247      -0.32426525      -0.14210743       0.12184014       0.63362866      -8.72185375
Si      10.49684914       8.26081540       3.44653144      -0.58371320      -1.03964237      -0.68434173       0.87452253       0.95847482       1.08415140      -8.68289952
Si      12.44240155       9.40730226       6.63178085      -0.50396090      -0.49279605       0.12199990      -0.02799985      -0.24920494       0.02051028      -8.71027217
Si       8.74631776       0.59392335       0.39563006      -0.19861880      -0.49867284      -1.20987830      -0.01070495       0.29354627      -0.06802051      -8.75101399
Si      10.70517965       1.64585707       3.58474582      -0.07646496       0.45918256       0.16910585      -1.18409854       0.40806339      -0.47191008      -8.70108302
Si      12.51156256       2.82943760       6.65560056      -0.28801957      -0.50052817      -0.78013569      -0.16369727      -0.30834416       0.42881199      -8.73380102
Si      10.64936071       3.95331944       0.45226641      -0.76942753       0.08509422       0.27108528       0.19055427      -0.28902770       0.04488068      -8.77633466
Si      12.48742370       5.11355418       3.64574936      -0.66820865      -0.41714852      -0.63789410      -0.33490061      -0.44877808      -0.85014935      -8.73165998
Si      14.32695221       6.13308275       6.75476902      -0.39585394      -0.41171614      -0.46987206       1.08857945      -0.66493074       0.44958405      -8.66872477
Si      12.52947833       7.32655452       0.48158669       0.58059081       0.56463705       0.04137457       0.13119974      -0.48397685      -0.83383311      -8.73332055
Si      14.50054266       8.40197297       3.54484610       0.26258607      -0.31739483       0.61443717      -0.50828379      -0.17544972       0.20428031      -8.70664233
Si      16.46814388       9.33343601       6.69072708      -0.12221492      -0.43307919       0.79076630      -0.35868746       0.03688931      -0.13274300      -8.72090593
54
Lattice="11.5478352 0.0 0.0 5.773917198490155 10.000722372470358 0.0 5.773916394327279 3.333571176804646 9.428767828939895" Properties=species:S:1:pos:R:3:momenta:R:3:forces:R:3:energies:R:1 spacegroup="_JSON {\"number\": 1, \"setting\": 1}" unit_cell=conventional occupancy="_JSON {\"0\": {\"Si\": 1.0}, \"1\": {\"Si\": 1.0}, \"2\": {\"Si\": 1.0}, \"3\": {\"Si\": 1.0}, \"4\": {\"Si\": 1.0}, \"5\": {\"Si\": 1.0}, \"6\": {\"Si\": 1.0}, \"7\": {\"Si\": 1.0}, \"8\": {\"Si\": 1.0}, \"9\": {\"Si\": 1.0}, \"10\": {\"Si\": 1.0}, \"11\": {\"Si\": 1.0}, \"12\": {\"Si\": 1.0}, \"13\": {\"Si\": 1.0}, \"14\": {\"Si\": 1.0}, \"15\": {\"Si\": 1.0}, \"16\": {\"Si\": 1.0}, \"17\": {\"Si\": 1.0}, \"18\": {\"Si\": 1.0}, \"19\": {\"Si\": 1.0}, \"20\": {\"Si\": 1.0}, \"21\": {\"Si\": 1.0}, \"22\": {\"Si\": 1.0}, \"23\": {\"Si\": 1.0}, \"24\": {\"Si\": 1.0}, \"25\": {\"Si\": 1.0}, \"26\": {\"Si\": 1.0}, \"27\": {\"Si\": 1.0}, \"28\": {\"Si\": 1.0}, \"29\": {\"Si\": 1.0}, \"30\": {\"Si\": 1.0}, \"31\": {\"Si\": 1.0}, \"32\": {\"Si\": 1.0}, \"33\": {\"Si\": 1.0}, \"34\": {\"Si\": 1.0}, \"35\": {\"Si\": 1.0}, \"36\": {\"Si\": 1.0}, \"37\": {\"Si\": 1.0}, \"38\": {\"Si\": 1.0}, \"39\": {\"Si\": 1.0}, \"40\": {\"Si\": 1.0}, \"41\": {\"Si\": 1.0}, \"42\": {\"Si\": 1.0}, \"43\": {\"Si\": 1.0}, \"44\": {\"Si\": 1.0}, \"45\": {\"Si\": 1.0}, \"46\": {\"Si\": 1.0}, \"47\": {\"Si\": 1.0}, \"48\": {\"Si\": 1.0}, \"49\": {\"Si\": 1.0}, \"50\": {\"Si\": 1.0}, \"51\": {\"Si\": 1.0}, \"52\": {\"Si\": 1.0}, \"53\": {\"Si\": 1.0}}" energy=-471.1899796412756 stress="-0.003092984922847234 0.000980624629783217 0.0008934773660705731 0.000980624629783217 0.0018780597179047635 -0.0012297895128114385 0.0008934773660705731 -0.0012297895128114385 0.0013059718735029054" free_energy=-471.1899796412756 pbc="T T T"
Si       6.77696548       3.96266773       2.73599255      -0.52868950      -0.07821599      -0.33207284      -0.32574174      -0.44519443       0.82552478      -8.67690712
Si       8.64477376       5.02136351       5.98949629       1.49589518      -0.01388854      -0.17270817       0.98717503      -0.57041072      -0.03576439      -8.70083887
Si      10.59252845       6.17736879       9.18868666       0.39592692      -1.21874028       0.37330618       0.05093781      -0.53780884      -0.11241500      -8.73151061
Si       8.63129059       7.17730092       2.56560998      -0.43084388      -0.59125258      -1.43976780      -0.02919364       0.05722054       0.71226085      -8.73982178
Si      10.45766620       8.21283605       5.89339005       0.17220719       1.54673288      -0.88251026       0.69817009       1.17527311      -0.69434257      -8.70744130
Si      12.53000578       9.41975289       8.99897807      -0.57189004       0.15504999      -0.10588773      -0.17878362       0.12369595      -0.28097237      -8.74129158
Si      10.59277108      10.55854300       2.80866924      -0.23652729      -1.38295689      -0.37290149       0.24623870      -0.46229933      -0.37752781      -8.74890204
Si      12.57094268      11.64632810       5.86027411      -0.35994040       0.20013288       0.78232675      -0.33935058      -0.25899344       0.50003166      -8.73353923
Si      14.44177985      12.81996084       9.06871066      -0.27565013      -0.48190583       0.43924305       0.40630644      -0.27435611      -0.25903506      -8.71285785
Si      10.60673288       3.94173070       2.77352745       0.04835828       0.05830331       0.16713219      -0.39096574      -0.42326511       0.57816350      -8.73918579
Si      12.40670907       5.04646798       5.90939362       0.00059473      -0.39021053      -0.30908610       0.60688209      -0.25887557       0.36174580      -8.72454546
Si      14.47371284       6.18682684       9.15575250      -0.43895626      -0.61504560      -1.68708239       0.16518400      -0.62376734      -1.10702437      -8.70896792
Si      12.54270798       7.22447969       2.81783021       0.17727023      -0.16937647       0.53142786       0.06227681       0.98714281      -0.23827169      -8.72528845
Si      14.41413335       8.31091069       5.98848633       0.13767197       0.53216892       0.13293639       0.21887168       0.18599766      -0.56823842      -8.74409051
Si      16.46094128       9.47396993       9.09744020       0.05755695       0.31343774       0.44149673      -0.00426420       0.05581656      -0.57504196      -8.75088258
Si      14.42813088      10.61603917       2.68254336       0.77771640      -0.74131626      -0.09005979       0.76859387      -0.51942821       0.68805499      -8.71308866
Si      16.45742131      11.63120324       5.95572691       0.09109708       0.60427438       0.35565582      -0.96686988      -0.92403529      -0.36796204      -8.73385062
Si      18.41909717      12.82096840       8.98063744      -0.67881396      -0.06600709      -0.95842929      -0.90248422       0.09994657       0.14432541      -8.73193192
Si      14.31157846       4.01519730       2.74007096      -0.00965163      -0.49444647       0.60728746       0.69211644      -0.95464575       0.01096936      -8.71891602
Si      16.26325217       4.94643467       5.89733548      -0.67596077       1.40803002      -0.31113746      -0.22262185      -0.07049655      -0.26367302      -8.74421690
Si      18.27357559       6.03660246       9.08393725      -0.30488944      -0.22248399       0.17384921      -0.16530459       0.23403573      -0.49444924      -8.67232508
Si      16.35095463       7.20510927       2.73120030       0.07160685       0.77928213       0.05985504      -0.17331526       0.31557655      -0.36525115      -8.76632460
Si      18.35920943       8.18023264       5.75473566       0.28347634       0.26824121       0.35614849      -0.86405559       0.13659743       0.24470602      -8.65962246
Si      20.08132011       9.48058857       8.93169041       0.87472336       0.19504273       0.98075887       1.01635483      -0.07163298       0.44419612      -8.72490355
Si      18.31935986      10.58007700       2.70443420       0.43853241       1.27741353      -0.28465391      -0.03791856       0.12580709       0.04354476      -8.74411790
Si      20.13845261      11.72236993       5.87818795       0.76078520       0.68222991       0.52560587       0.63565409      -0.84795832      -0.36853475      -8.73563986
Si      22.09878955      12.75401895       8.97178312      -0.32719782      -0.77921885       0.83181895       0.08393366      -0.77586185       0.01130301      -8.75376680
Si       0.86768787       0.43829700       0.35708036      -0.43019392       1.01143842       1.14063946       1.01512253       1.02365308       0.41883828      -8.73600805
Si       2.92442525       1.71696712       3.52915666       0.34876874       0.06508255      -0.82019701      -0.57913724       0.36588751      -0.40131720      -8.71267245
Si       4.79537263       2.71409706       6.64367438      -0.90086041      -0.38377263       0.52474221       0.28347541       0.18386302      -0.24740716      -8.72955769
Si       2.84425706       3.96923630       0.38084184       0.13136818      -0.03298978      -1.30649565      -0.29652626      -0.40846629       0.09597533      -8.75892146
Si       4.73303818       5.00743782       3.51384862       1.05764948      -0.21525853       0.49955611       0.62242049      -0.07515085       0.22407605      -8.73331632
Si       6.66128820       5.93664915       6.66901392      -0.23229560       0.41324461       0.42438543       0.08600439       1.25227532       0.46449278      -8.72071115
Si       4.79786364       7.17521019       0.34013657      -1.09851873      -0.20545580       0.07408931      -0.46806918       0.02149811       0.06359073      -8.67979284
Si       6.74798162       8.35221267       3.34643241       0.35308711      -0.98389536       0.57291487       0.10517333      -0.52346937       0.96401524      -8.73176165
Si       8.59496350       9.43352004       6.59943160       0.77621073       0.57336422       0.95052626      -0.09810015       0.14793648      -0.05929691      -8.73604962
Si       4.92480540       0.54013311       0.42292597       0.03236563       0.65218399       0.46998481      -0.70218338       0.41098083       0.15795801      -8.68642670
Si       6.75648773       1.66012279       3.53505642      -0.60925521       0.03482644      -1.18205771      -0.05771746       0.70857193      -0.30518555      -8.76768710
Si       8.73091428       2.73105585       6.71124951       1.01400480       1.16805205       0.03764708      -0.18324579       0.36757615      -0.19179967      -8.73644452
Si       6.78637642       3.89117583       0.40512685       0.93200002       0.10263359      -0.08502885      -0.37125662       0.60039939       0.45690866      -8.77092557
Si       8.71184046       5.06788767       3.62807014       1.11182821       0.45900024      -0.73246215      -0.45702802      -0.31346935      -0.52914744      -8.71051336
Si      10.63511926       6.16588392       6.86706036      -0.54911624      -1.20380751       0.48005686      -1.35141719      -0.81759932      -0.44383754      -8.70464049
Si       8.70790454       7.21627738       0.26081078      -0.30253801       0.17483343       0.22615493      -0.23045519      -0.01899183       0.01014317      -8.74382841
Si      10.49902601       8.24225976       3.45322644       0.55844483       0.24867083       0.86033203       0.45903656       0.62520967       0.76100142      -8.69187128
Si      12.41594977       9.37898917       6.63817063      -0.44984019      -0.43651683       0.10578902       0.18829297       0.33983197      -0.04232236      -8.71576687
Si       8.73463709       0.58485831       0.33682163      -0.27783663       0.19365447      -0.88702082      -0.12657792       0.43687734       0.49681465      -8.74548901
Si      10.65812119       1.68337272       3.57576352      -1.57062879       0.88520795      -0.46333305      -0.59560168       0.06247980      -0.27476947      -8.69677938
Si      12.49405588       2.80474343       6.63503403      -0.26805403      -0.21168178       0.02798142       0.26236386       0.56373108       0.53317431      -8.74944863
Si      10.62090625       3.94635220       0.46315272      -0.27260671      -0.34686269       0.05408356       0.35861245      -0.26804073      -0.30258754      -8.75772944
Si      12.44244931       5.07423778       3.58642403      -0.93423100      -1.03136824      -1.40753954       0.12430216      -0.23058598      -0.00747256      -8.76072884
Si      14.34524694       6.09078214       6.74673139       0.96432318      -1.02649190       0.08356122       0.55986662       0.01890730       0.13484643      -8.70477500
Si      12.56037518       7.33577905       0.45917795       0.50531894      -0.20599213      -0.71024694      -0.22963830      -0.44904344      -0.11120180      -8.72813899
Si      14.49344518       8.38122229       3.58349995      -0.51008082      -0.42508934       0.81438437      -0.40781924       0.02044763       0.02248736      -8.70915861
Si      16.45371556       9.31781582       6.72429177      -0.32372156      -0.04828455       0.43500116       0.05227675       0.47661038      -0.34429964      -8.68606068
54
Lattice="11.5478352 0.0 0.0 5.773917198490155 10.000722372470358 0.0 5.773916394327279 3.333571176804646 9.428767828939895" Properties=species:S:1:pos:R:3:momenta:R:3:forces:R:3:energies:R:1 spacegroup="_JSON {\"number\": 1, \"setting\": 1}" unit_cell=conventional occupancy="_JSON {\"0\": {\"Si\": 1.0}, \"1\": {\"Si\": 1.0}, \"2\": {\"Si\": 1.0}, \"3\": {\"Si\": 1.0}, \"4\": {\"Si\": 1.0}, \"5\": {\"Si\": 1.0}, \"6\": {\"Si\": 1.0}, \"7\": {\"Si\": 1.0}, \"8\": {\"Si\": 1.0}, \"9\": {\"Si\": 1.0}, \"10\": {\"Si\": 1.0}, \"11\": {\"Si\": 1.0}, \"12\": {\"Si\": 1.0}, \"13\": {\"Si\": 1.0}, \"14\": {\"Si\": 1.0}, \"15\": {\"Si\": 1.0}, \"16\": {\"Si\": 1.0}, \"17\": {\"Si\": 1.0}, \"18\": {\"Si\": 1.0}, \"19\": {\"Si\": 1.0}, \"20\": {\"Si\": 1.0}, \"21\": {\"Si\": 1.0}, \"22\": {\"Si\": 1.0}, \"23\": {\"Si\": 1.0}, \"24\": {\"Si\": 1.0}, \"25\": {\"Si\": 1.0}, \"26\": {\"Si\": 1.0}, \"27\": {\"Si\": 1.0}, \"28\": {\"Si\": 1.0}, \"29\": {\"Si\": 1.0}, \"30\": {\"Si\": 1.0}, \"31\": {\"Si\": 1.0}, \"32\": {\"Si\": 1.0}, \"33\": {\"Si\": 1.0}, \"34\": {\"Si\": 1.0}, \"35\": {\"Si\": 1.0}, \"36\": {\"Si\": 1.0}, \"37\": {\"Si\": 1.0}, \"38\": {\"Si\": 1.0}, \"39\": {\"Si\": 1.0}, \"40\": {\"Si\": 1.0}, \"41\": {\"Si\": 1.0}, \"42\": {\"Si\": 1.0}, \"43\": {\"Si\": 1.0}, \"44\": {\"Si\": 1.0}, \"45\": {\"Si\": 1.0}, \"46\": {\"Si\": 1.0}, \"47\": {\"Si\": 1.0}, \"48\": {\"Si\": 1.0}, \"49\": {\"Si\": 1.0}, \"50\": {\"Si\": 1.0}, \"51\": {\"Si\": 1.0}, \"52\": {\"Si\": 1.0}, \"53\": {\"Si\": 1.0}}" energy=-471.4361045453595 stress="-0.0006127108258945464 -0.00041470373055824686 -0.00033515085925238435 -0.00041470373055824686 7.932459901760506e-05 -0.0005253576430582021 -0.00033515085925238435 -0.0005253576430582021 -0.0002559800444162747" free_energy=-471.4361045453595 pbc="T T T"
Si       6.74788235       3.94334702       2.74953527      -0.36924886      -0.59139562       0.76998782       0.49329375      -0.17137518       0.50486032      -8.73224480
Si       8.73968602       5.00661743       5.97625798       1.63080871      -0.39375698      -0.42796487      -0.93686121       0.02674138      -0.41055896      -8.74692635
Si      10.61509452       6.10727092       9.20231483       0.42914645      -1.13840224       0.08567714      -0.08307722       0.68052065      -0.34892443      -8.74006627
Si       8.61699301       7.15523280       2.53210539       0.04616392      -0.13113102       0.36469078       0.59234807       0.52192948       1.46132084      -8.70687587
Si      10.48990894       8.31471361       5.83817643       0.92728691       1.88694076      -0.85347946       0.18512447      -0.59665900       0.74690349      -8.72536705
Si      12.49291355       9.43196175       8.98533906      -0.84149019       0.29934300      -0.34056874      -0.16397012       0.07599821       0.00940713      -8.72469580
Si      10.59016984      10.48044881       2.77854424       0.11224890      -1.30223894      -0.67464987       0.15154140       0.66997781       0.02173530      -8.76039118
Si      12.54328611      11.65008709       5.90860939      -0.59708715       0.03290530       0.82375564       0.04793589       0.09254175      -0.42557369      -8.67201486
Si      14.44146732      12.79538271       9.08136700       0.21750365      -0.23918572       0.03841647       0.21656556       0.55588422      -0.27305602      -8.69113736
Si      10.58727872       3.92550352       2.79207701      -0.86438024      -0.68800882       0.27713203      -0.64313171      -0.44137187      -0.43379434      -8.77126776
Si      12.42793174       5.01971004       5.90358403       0.72173016      -0.52327284       0.01961260       0.26015802       0.15423053       0.08541296      -8.70699554
Si      14.46290765       6.13830712       9.03928343       0.08182231      -1.02377886      -2.36879750       0.37779853       0.19165609       0.40483726      -8.74905663
Si      12.55126657       7.24731497       2.83093138       0.07049306       0.84420116      -0.11465073      -0.23890521       0.22040476      -0.55951069      -8.72812741
Si      14.42703775       8.33738457       5.97989699       0.30174326       0.33067886      -0.32058345       0.01220978      -0.38247158      -0.01770164      -8.72120038
Si      16.46159922       9.48702931       9.09885374      -0.08252934       0.07275669      -0.35878153      -0.19656644      -0.37264748      -0.45291746      -8.74820771
Si      14.48292775      10.56341109       2.69893241       0.97527863      -1.11305471       0.58322643      -0.54200449       0.07631641       0.16550775      -8.73126083
Si      16.42602274      11.62622607       5.95562173      -1.16711169      -0.70208988      -0.40939099      -0.49288764      -0.55276424      -0.55496750      -8.72553412
Si      18.35406065      12.82292802       8.94537794      -1.65677875       0.16100412      -0.18999314      -0.32729699       0.16785851       0.88452883      -8.73010308
Si      14.34181823       3.95998743       2.76144595       1.17599819      -1.39231797       0.03348057       0.73013170      -0.08865581      -0.66885167      -8.71329024
Si      16.23420243       5.00353901       5.87658416      -0.10685928       0.54793495      -0.36518873       1.01927461      -0.92738194       0.18764852      -8.73893189
Si      18.25266426       6.03951403       9.07342528      -0.44435367       0.43150360      -0.55213631       0.02528088       0.59561595      -0.39415917      -8.75015217
Si      16.34599692       7.24851256       2.72458136      -0.27488751       0.69347410      -0.20441848      -0.21618710      -0.39092056       0.06384606      -8.74523241
Si      18.34493978       8.20155893       5.78731901      -0.70969559       0.59599645       0.95826868      -0.39096431       0.33229823       0.50935742      -8.70434107
Si      20.15759733       9.48439534       8.99118390       1.76702636      -0.14105039       1.09734481      -0.04504272      -0.42827847      -0.30166449      -8.77959708
Si      18.33189215      10.64055585       2.70376262      -0.12099994       0.82857764       0.48158271      -0.65372208      -0.65737589       0.89076319      -8.70573871
Si      20.19036201      11.72287778       5.88498281       0.95733949      -0.63683854      -0.35010633      -0.35805842      -0.72364425      -0.68161560      -8.73048075
Si      22.08828869      12.69516062       9.01385501      -0.00994003      -1.15723707       0.73928861       0.32025281       0.42046908      -0.12614708      -8.74293447
Si       0.88105039       0.51604797       0.42100293       0.82514491       1.61445313       1.03686726       0.56533717      -0.29171911      -0.57728792      -8.74884452
Si       2.92531042       1.72969190       3.48113346      -0.17748607       0.26734180      -0.80718826      -0.04732333      -0.23184768       0.40066584      -8.72882095
Si       4.76853657       2.71260876       6.66445758       0.02338175       0.48463052       0.32840565       0.82418662       0.78474555      -0.01859867      -8.72548138
Si       2.84286707       3.94719442       0.32885446      -0.09966487      -0.86742170      -0.46800724       0.03543600      -0.62050254       0.90273710      -8.69987885
Si       4.79971301       5.00045566       3.54134618       1.21635674       0.07762327       0.40554245      -0.42138482       0.41713973      -0.33410602      -8.74029486
Si       6.66074859       5.99727487       6.70166956       0.33406460       1.65792199       0.64028800       0.55558597       0.30150776      -0.23885852      -8.69991648
Si       4.73521276       7.16594392       0.35194847      -0.97605190      -0.12458399       0.47971920       0.75715007       0.11791830       0.46209633      -8.73872030
Si       6.76977477       8.29766754       3.40594682       0.43147443      -0.78835077       1.52019999      -0.08019619       0.67927529       0.26515515      -8.72635757
Si       8.62817662       9.46921240       6.64385217       0.43662981       0.74188455       0.68411803      -0.30297205      -0.03477838      -0.28670250      -8.72462120
Si       4.89882198       0.57484027       0.44951795      -0.99660011       0.35573031       0.45236014      -0.58822458      -0.80040470      -0.20212124      -8.72596011
Si       6.72795741       1.68064869       3.47382097      -0.36708810       0.52277168      -0.90557370       0.37150450      -0.17466115       0.66094632      -8.71813245
Si       8.76879797       2.79644320       6.70929869       0.27967000       1.08634378      -0.03937040      -0.76446744      -0.56156585       0.08845272      -8.74903879
Si       6.81457053       3.91567052       0.41390837       0.08753470       0.69984144       0.31867101      -0.58745682       0.08323982       0.05931970      -8.75095144
Si       8.74417543       5.07651769       3.57517656      -0.01989706      -0.18344606      -1.12434148      -0.99601388      -0.51616374       0.09760678      -8.67738539
Si      10.56787741       6.09206087       6.86693620      -1.62141414      -1.21170421      -0.57401624       0.20313296       0.75996311      -0.76751601      -8.70348664
Si       8.68369997       7.22163146       0.26439445      -0.59556498      -0.02464323      -0.19800893      -0.13143222      -0.22293190      -0.39094023      -8.75279211
Si      10.53603127       8.26928176       3.51362697       0.68019033       0.57898770       1.13694575      -0.21932279      -0.17086429      -0.43258769      -8.72763387
Si      12.40543050       9.37452133       6.64164978       0.16698206       0.34102414       0.02122267       0.63673502       0.62311970      -0.06314599      -8.75743814
Si       8.71340660       0.60201727       0.31264023      -0.54698032       0.22597814       0.00595588      -0.18389064      -0.46308371       0.64966262      -8.73964076
Si      10.56757626       1.72443122       3.54802197      -1.57835855       0.51223273      -0.43764063       0.58637920      -0.59215693       0.33480169      -8.71584872
Si      12.49368676       2.81248211       6.64917298       0.26662489       0.35093458       0.31655428       0.30832038      -0.03475735      -0.21329416      -8.77496074
Si      10.61604550       3.91948363       0.45312122      -0.01733134      -0.62881027      -0.44026125      -0.05189924      -0.07122324      -0.31581145      -8.71399384
Si      12.41012384       5.02014446       3.52435532      -0.06572916      -0.85091189      -0.76346903       0.99483726       0.44953346       0.74462586      -8.74340282
Si      14.40277629       6.05019702       6.74506031       0.92688348      -0.29587859      -0.38601634      -0.60497434       0.88355391      -0.79215853      -8.73069472
Si      12.57617350       7.31316169       0.42534227       0.08547304      -0.53718522      -0.46355846      -0.27092936       0.01528171       0.34440477      -8.72503497
Si      14.45804228       8.36104596       3.62390055      -0.68102354      -0.31913094       0.65040528       0.20833239       0.11755417      -0.27376070      -8.75687293
Si      16.44027746       9.33627087       6.73262660      -0.18644834       0.76281010      -0.13155780       0.06031038       0.50493131      -0.39027162      -8.71772820
54
Lattice="11.5478352 0.0 0.0 5.773917198490155 10.000722372470358 0.0 5.773916394327279 3.333571176804646 9.428767828939895" Properties=species:S:1:pos:R:3:momenta:R:3:forces:R:3:energies:R:1 spacegroup="_JSON {\"number\": 1, \"setting\": 1}" unit_cell=conventional occupancy="_JSON {\"0\": {\"Si\": 1.0}, \"1\": {\"Si\": 1.0}, \"2\": {\"Si\": 1.0}, \"3\": {\"Si\": 1.0}, \"4\": {\"Si\": 1.0}, \"5\": {\"Si\": 1.0}, \"6\": {\"Si\": 1.0}, \"7\": {\"Si\": 1.0}, \"8\": {\"Si\": 1.0}, \"9\": {\"Si\": 1.0}, \"10\": {\"Si\": 1.0}, \"11\": {\"Si\": 1.0}, \"12\": {\"Si\": 1.0}, \"13\": {\"Si\": 1.0}, \"14\": {\"Si\": 1.0}, \"15\": {\"Si\": 1.0}, \"16\": {\"Si\": 1.0}, \"17\": {\"Si\": 1.0}, \"18\": {\"Si\": 1.0}, \"19\": {\"Si\": 1.0}, \"20\": {\"Si\": 1.0}, \"21\": {\"Si\": 1.0}, \"22\": {\"Si\": 1.0}, \"23\": {\"Si\": 1.0}, \"24\": {\"Si\": 1.0}, \"25\": {\"Si\": 1.0}, \"26\": {\"Si\": 1.0}, \"27\": {\"Si\": 1.0}, \"28\": {\"Si\": 1.0}, \"29\": {\"Si\": 1.0}, \"30\": {\"Si\": 1.0}, \"31\": {\"Si\": 1.0}, \"32\": {\"Si\": 1.0}, \"33\": {\"Si\": 1.0}, \"34\": {\"Si\": 1.0}, \"35\": {\"Si\": 1.0}, \"36\": {\"Si\": 1.0}, \"37\": {\"Si\": 1.0}, \"38\": {\"Si\": 1.0}, \"39\": {\"Si\": 1.0}, \"40\": {\"Si\": 1.0}, \"41\": {\"Si\": 1.0}, \"42\": {\"Si\": 1.0}, \"43\": {\"Si\": 1.0}, \"44\": {\"Si\": 1.0}, \"45\": {\"Si\": 1.0}, \"46\": {\"Si\": 1.0}, \"47\": {\"Si\": 1.0}, \"48\": {\"Si\": 1.0}, \"49\": {\"Si\": 1.0}, \"50\": {\"Si\": 1.0}, \"51\": {\"Si\": 1.0}, \"52\": {\"Si\": 1.0}, \"53\": {\"Si\": 1.0}}" energy=-471.45507312084305 stress="0.0019408190373995232 -0.0011334561851488489 -0.0008593415558724051 -0.0011334561851488489 -0.003049952056343023 0.0014446196959508274 -0.0008593415558724051 0.0014446196959508274 -0.0018487719155746215" free_energy=-471.45507312084305 pbc="T T T"
Si       6.75016583       3.91170090       2.79922042       0.42485509      -0.50367953       0.90626476       0.35206654       0.24795239      -0.35241577      -8.77280060
Si       8.77002480       4.98974623       5.93122998      -0.70908953      -0.21146991      -1.34395402      -1.79479975       0.19666406      -0.58004915      -8.70667292
Si      10.63112855       6.08051012       9.18869349       0.12428079       0.13970068      -0.67420874      -0.30269759       0.75200246      -0.60541106      -8.72683519
Si       8.64337151       7.17041219       2.59910030       0.91862121       0.70792900       1.93626649       0.41077355       0.49499054       0.47033999      -8.72958651
Si      10.53731791       8.38101119       5.83288618       0.74683376       0.51019713       0.75367388      -0.32783464      -1.10395420       1.11717480      -8.68991687
Si      12.44423978       9.45010699       8.97218053      -0.94016067       0.37044000      -0.08404252       0.13554654      -0.01637771       0.30651796      -8.73649374
Si      10.59855848      10.44814868       2.74947423       0.14493616       0.19140535      -0.33020840      -0.09430057       1.11730133       0.42085258      -8.73079739
Si      12.51834900      11.66104088       5.92911561      -0.27326799       0.47221968      -0.12203740       0.35633571       0.42255919      -0.72963059      -8.66624525
Si      14.45638650      12.80610000       9.07364479       0.23568121       0.58973229      -0.31323573      -0.24517621       0.31473172      -0.19409322      -8.73161719
Si      10.52723738       3.88036620       2.78347608      -1.15881919      -0.84730397      -0.65502547       0.37681087       0.26582317      -0.62237731      -8.77613620
Si      12.46864810       5.00332405       5.90416544       0.69117666      -0.03365963      -0.06923633      -0.28435514       0.40560865      -0.19409925      -8.72760196
Si      14.47688805       6.10027343       8.94854569       0.32980182      -0.32693401      -0.83721749      -0.10343675       0.57245952       1.35812323      -8.72949018
Si      12.54319666       7.28765139       2.80406018      -0.39002426       0.47038398      -0.85816178      -0.27418388      -0.65417318      -0.34338786      -8.73322175
Si      14.44239764       8.33968324       5.96757414       0.27368563      -0.19884431      -0.08875539      -0.03081299      -0.19997541       0.20948152      -8.71820967
Si      16.44763376       9.47447279       9.06643106      -0.47698809      -0.54813863      -0.78794688      -0.29840203      -0.34916795      -0.09411719      -8.74297452
Si      14.50224458      10.51427449       2.72958059      -0.37741405      -0.65038369       0.48570011      -1.06823833       0.50387038      -0.22200736      -8.71668359
Si      16.35731010      11.58418255       5.91591976      -1.24215823      -0.56881348      -1.00770186       0.33428909       0.73663626      -0.16255396      -8.72186430
Si      18.26276780      12.83511843       8.97102702      -1.64391568       0.21863514       1.10003507       0.38804280      -0.16809952       0.60116134      -8.73554165
Si      14.42485712       3.89692989       2.73726288       1.81945798      -0.78929017      -0.88925069       0.05375520       0.75779778      -0.38729846      -8.72775262
Si      16.27513340       4.99922719       5.86846611       1.68093639      -0.56445679       0.10821791       1.05089182      -0.33213349       0.37884175      -8.74379948
Si      18.23403714       6.08320492       9.03498276      -0.18763930       1.12749401      -0.77781375       0.32918940       0.17024026       0.13683650      -8.79260421
Si      16.32764575       7.26707557       2.72358796      -0.31122731       0.00288418       0.30491248       0.22505059      -0.42990747       0.59656705      -8.72743826
Si      18.30094301       8.24916038       5.85582798      -0.80122123       1.26425204       1.56437550       0.26526999       0.49249295       0.15030409      -8.74853023
Si      20.23145827       9.45591981       9.03206112       0.78070203      -0.97988226       0.41277513      -1.05519647      -0.53339979      -0.47426327      -8.74963633
Si      18.29919940      10.65535555       2.76317546      -1.07930999      -0.30083158       1.66851433      -0.45360766      -0.79134610       0.42825582      -8.69607813
Si      20.22394743      11.67407344       5.84488900       0.34163576      -0.93682999      -1.03205506      -0.29952176       0.38952068      -0.09794146      -8.74090066
Si      22.10056705      12.66491869       9.04729399       0.47306855       0.21584671       0.52484793       0.29745938       1.22627861      -0.16212991      -8.70257121
Si       0.93798511       0.57879392       0.44842063       1.17596485       0.64560301      -0.00266801      -0.11690073      -0.80266577      -0.61528790      -8.72035416
Si       2.92067100       1.72446965       3.45971159       0.08197167      -0.61770996       0.05360964       0.26496095      -0.79064689       0.63201045      -8.74295732
Si       4.79641496       2.76280197       6.68225525       0.87140603       1.23772969       0.35368707       0.17393919       0.03357067       0.00332757      -8.75555065
Si       2.84400922       3.88176892       0.33892676       0.22354948      -1.49145191       0.78258261       0.34215439      -0.08487086       0.61260967      -8.70683387
Si       4.84063852       5.02090283       3.54643406       0.28023605       0.64846073      -0.24074413      -0.66048188       0.19746210      -0.43659604      -8.73808863
Si       6.69885896       6.08315518       6.71801503       1.06926098       1.38105944      -0.14353365       0.35647028      -0.61714504      -0.72177474      -8.68319547
Si       4.72544731       7.16641181       0.39626583       0.72423540       0.18210340       1.16442045       1.18056871       0.26137985       0.26239569      -8.76039220
Si       6.78437677       8.28774264       3.48925399       0.03219825       0.45252477       1.54176721      -0.43079855       0.83646760      -0.18668211      -8.70443462
Si       8.64091957       9.50055286       6.66902181       0.08888906       0.32251580       0.29881555      -0.14528392      -0.53127560      -0.19190094      -8.73141837
Si       4.82892440       0.55819144       0.46143130      -1.53599438      -0.93363475      -0.06643567      -0.05218551      -0.55879695      -0.45555728      -8.77142632
Si       6.72513829       1.68913523       3.45846903       0.27541953      -0.38124263       0.40405723       0.42623772      -0.85880321       0.97176356      -8.66886744
Si       8.75193173       2.82291777       6.71182891      -0.92073636      -0.18275266       0.12181738      -0.74130849      -0.94724336       0.02746257      -8.73966599
Si       6.80191937       3.94682785       0.42887530      -0.45009140       0.33462003       0.19349802      -0.11517250      -0.51217305      -0.17186424      -8.70728851
Si       8.70507947       5.04760582       3.52777721      -1.39138028      -0.86808248      -0.55727883      -0.65311380      -0.29680786       0.57679211      -8.72284512
Si      10.51452151       6.06974333       6.81370078      -0.05577933       0.50567604      -1.31810695       1.54107273       1.28545186      -0.24966633      -8.64210270
Si       8.64927511       7.21247005       0.24636093      -0.66728552      -0.27802980      -0.29106109       0.06844715      -0.03764301       0.36935672      -8.73950333
Si      10.56087533       8.28775052       3.54761760       0.25083929       0.07789345       0.07784327      -0.27803762      -0.34536280      -0.72790089      -8.75178034
Si      12.44060436       9.41461665       6.64073093       1.15352563       1.11411078      -0.04359713       0.53752096       0.32596872      -0.01098253      -8.77957300
Si       8.67856363       0.58857858       0.33585962      -0.75207491      -0.79742510       0.80846681      -0.06612581      -0.67933497       0.35806910      -8.72970413
Si      10.51455832       1.72265835       3.54268088      -0.36909324      -0.64710253       0.27256227       0.86055405      -0.82735914       0.46625535      -8.74654737
Si      12.51426081       2.81691839       6.65165681       0.40683440      -0.37994120      -0.26342467      -0.12692090      -0.78838514      -0.37427813      -8.74047857
Si      10.60756102       3.88715518       0.41931013      -0.39445638      -0.53020224      -0.80725432      -0.38858977       0.21577190      -0.14627048      -8.71478356
Si      12.44491904       4.99338939       3.51112811       1.29303388      -0.20698670       0.16415679       0.60641227       0.31095397       0.36854864      -8.71051881
Si      14.42338700       6.06968877       6.68693311      -0.12340148       0.96642138      -1.85288389      -0.52712976       0.57727926      -0.83290453      -8.75957470
Si      12.57263632       7.28876823       0.41316856      -0.17849053      -0.36028236      -0.05406706      -0.11088127       0.14033282       0.13262558      -8.73072439
Si      14.43483719       8.34864012       3.64416285      -0.16216585      -0.16661616       0.06255887       0.36284415       0.06537896      -0.49790085      -8.76800210
Si      16.42908812       9.39028117       6.71286162      -0.32085235       1.15213971      -0.55351986      -0.25116974      -0.05989917      -0.11433082      -8.76646084
54
Lattice="11.5478352 0.0 0.0 5.773917198490155 10.000722372470358 0.0 5.773916394327279 3.333571176804646 9.428767828939895" Properties=species:S:1:pos:R:3:momenta:R:3:forces:R:3:energies:R:1 spacegroup="_JSON {\"number\": 1, \"setting\": 1}" unit_cell=conventional occupancy="_JSON {\"0\": {\"Si\": 1.0}, \"1\": {\"Si\": 1.0}, \"2\": {\"Si\": 1.0}, \"3\": {\"Si\": 1.0}, \"4\": {\"Si\": 1.0}, \"5\": {\"Si\": 1.0}, \"6\": {\"Si\": 1.0}, \"7\": {\"Si\": 1.0}, \"8\": {\"Si\": 1.0}, \"9\": {\"Si\": 1.0}, \"10\": {\"Si\": 1.0}, \"11\": {\"Si\": 1.0}, \"12\": {\"Si\": 1.0}, \"13\": {\"Si\": 1.0}, \"14\": {\"Si\": 1.0}, \"15\": {\"Si\": 1.0}, \"16\": {\"Si\": 1.0}, \"17\": {\"Si\": 1.0}, \"18\": {\"Si\": 1.0}, \"19\": {\"Si\": 1.0}, \"20\": {\"Si\": 1.0}, \"21\": {\"Si\": 1.0}, \"22\": {\"Si\": 1.0}, \"23\": {\"Si\": 1.0}, \"24\": {\"Si\": 1.0}, \"25\": {\"Si\": 1.0}, \"26\": {\"Si\": 1.0}, \"27\": {\"Si\": 1.0}, \"28\": {\"Si\": 1.0}, \"29\": {\"Si\": 1.0}, \"30\": {\"Si\": 1.0}, \"31\": {\"Si\": 1.0}, \"32\": {\"Si\": 1.0}, \"33\": {\"Si\": 1.0}, \"34\": {\"Si\": 1.0}, \"35\": {\"Si\": 1.0}, \"36\": {\"Si\": 1.0}, \"37\": {\"Si\": 1.0}, \"38\": {\"Si\": 1.0}, \"39\": {\"Si\": 1.0}, \"40\": {\"Si\": 1.0}, \"41\": {\"Si\": 1.0}, \"42\": {\"Si\": 1.0}, \"43\": {\"Si\": 1.0}, \"44\": {\"Si\": 1.0}, \"45\": {\"Si\": 1.0}, \"46\": {\"Si\": 1.0}, \"47\": {\"Si\": 1.0}, \"48\": {\"Si\": 1.0}, \"49\": {\"Si\": 1.0}, \"50\": {\"Si\": 1.0}, \"51\": {\"Si\": 1.0}, \"52\": {\"Si\": 1.0}, \"53\": {\"Si\": 1.0}}" energy=-471.87974532753105 stress="-5.827704376453216e-05 0.00019711453812013515 7.583557682934321e-05 0.00019711453812013515 -0.0008137169153163363 0.00047099785429927674 7.583557682934321e-05 0.00047099785429927674 -0.0009541976503963417" free_energy=-471.87974532753105 pbc="T T T"
Si       6.77263483       3.89245076       2.82460248       0.13788473      -0.33423772      -0.08134327      -0.76876378      -0.14654689      -0.89794972      -8.74509394
Si       8.68055562       4.98800982       5.85077235      -2.23958961       0.15857135      -1.41532301       0.00432749       0.22696017       0.59491432      -8.73719776
Si      10.62640302       6.10460560       9.13043539      -0.26809381       0.52624729      -1.51266235      -0.15415119      -0.22749846      -0.46609284      -8.71923091
Si       8.69558835       7.21971063       2.70474556       0.78297774       0.99738355       1.82845130      -0.70885475      -0.17925030      -0.56212337      -8.71618634
Si      10.56624190       8.37021828       5.90344934       0.44014211      -0.74256918       1.62583103      -0.00486799      -0.37045722      -0.09698622      -8.74016702
Si      12.40777801       9.46602208       8.98014061      -0.28100048       0.16807971       0.37427672       0.78253009      -0.27754052       0.25395512      -8.75667368
Si      10.60132194      10.49250543       2.74903032      -0.04160754       1.25687767       0.28342244      -0.09525284       0.16573307       0.29636836      -8.74119769
Si      12.51721626      11.70017058       5.89871134       0.17827725       0.92280949      -0.90168625       0.14209951       0.03845579      -0.18665809      -8.74492082
Si      14.45176703      12.83533371       9.05011322      -0.54331240       0.23806554      -0.57552697      -0.73380997      -0.78332672      -0.14968099      -8.76253717
Si      10.49139714       3.85017859       2.73254478      -0.05713154      -0.27057889      -1.09409676       0.96084916       0.40107233       0.12823555      -8.71169211
Si      12.49142112       5.01289270       5.89117696       0.16314811       0.27343614      -0.44375687      -0.32969471      -0.08090979      -0.26260442      -8.77847442
Si      14.48210127       6.09960426       8.94744729      -0.28938840       0.15587851       0.53786172      -0.71083308       0.00270800       0.36350370      -8.70793619
Si      12.51714664       7.28271693       2.75254330      -0.48685048      -0.69950801      -0.95371170       0.17320430      -0.80358359       0.24848344      -8.74873296
Si      14.45584660       8.33047775       5.96577858       0.23431329       0.03770491      -0.11783213      -0.05463110       0.52300921      -0.32027388      -8.74154318
Si      16.41122641       9.43818413       9.02589994      -0.89559385      -0.69013075      -0.66785407      -0.23466917       0.21805354       0.25677158      -8.73032708
Si      14.44782145      10.49963927       2.74742753      -1.48832998       0.05624184       0.23271794      -0.23913539       0.35020604      -0.08061477      -8.74970814
Si      16.30879781      11.59166207       5.86540946      -0.55830449       0.93391318      -0.72064019       0.52331777       1.03140578       0.60128352      -8.72745946
Si      18.19860371      12.83345280       9.03839174      -0.67598876      -0.40327025       1.18162027       0.86315097      -0.62817153      -0.51305906      -8.73654558
Si      14.51388456       3.88149933       2.68889993       1.39724643       0.06834587      -0.65142404      -0.64085220       0.24753474       0.78103911      -8.73961387
Si      16.38989649       4.97338333       5.88464683       2.36394088      -0.11284563       0.38234598      -0.24262603       0.84068362      -0.10800813      -8.73275100
Si      18.23936873       6.13881766       9.00446743       0.41637319       0.79588958      -0.31628705       0.41631323      -0.58998502       0.40217405      -8.75958205
Si      16.32567102       7.25622181       2.76484780       0.32525509      -0.28385462       1.24513827       0.56530503       0.09027193       0.48880006      -8.74696402
Si      18.27392567       8.33176317       5.93513293      -0.16659282       1.76898694       1.28052521       0.49784229       0.03318681      -0.53821940      -8.75537179
Si      20.23762759       9.39260305       9.04276258      -0.36240113      -1.21543927       0.15716252      -0.35490759       0.30945693       0.14653550      -8.71963270
Si      18.23639306      10.61178798       2.85210938      -1.04948199      -1.26949561       1.40297462       0.57566223      -0.41389908      -0.81439851      -8.71602626
Si      20.23694341      11.64903001       5.79884235       0.26917763       0.07899311      -0.47564837       0.15003557       0.75860105       0.86256719      -8.73956484
Si      22.13529468      12.71919861       9.06996432       0.79999640       1.67834973       0.37006744       0.08639673       0.53259536      -0.04292412      -8.72801052
Si       0.98733847       0.58820757       0.43355522       0.55556659      -0.11842546      -0.37295682      -0.69138207      -0.14466971       0.13246777      -8.69752382
Si       2.93121265       1.66767381       3.48123056       0.20309021      -1.34159147       0.61782890      -0.18796538       0.00619226       0.05728387      -8.75952935
Si       4.83933245       2.81572205       6.70054609       0.60541022       0.54941463       0.33290285      -0.45014467      -0.84190085      -0.04250585      -8.74536033
Si       2.86826595       3.80925541       0.39175040       0.65260268      -1.09514624       0.96229316       0.15251637       0.60649381      -0.43425790      -8.75062985
Si       4.83743639       5.05321872       3.52225999      -0.22015160       0.38376789      -0.53608290       0.05067200      -0.57146852       0.12999832      -8.74391457
Si       6.76397608       6.12985303       6.68447576       1.29161022       0.43434269      -1.03132083      -0.13076078      -0.46204899      -0.30007617      -8.74210135
Si       4.79348887       7.18580424       0.45722132       1.49379601       0.55388228       0.95501125      -0.26793131       0.25151087      -0.51254233      -8.77158248
Si       6.76955674       8.33700299       3.56310244      -0.55123360       1.23517441       1.28462513      -0.24449094       0.07460426      -0.14469276      -8.71500265
Si       8.64319722       9.49546698       6.68066781       0.06873970      -0.48917766       0.20812302       0.13958038      -0.41272687       0.05785794      -8.75360798
Si       4.75529068       0.50632430       0.44242763      -1.07896803      -0.66587892      -0.57495166       0.68436600       0.88953196      -0.13772167      -8.75968593
Si       6.75245893       1.64199036       3.51209455       0.65787727      -1.19822264       1.47421984      -0.01195345      -0.01085903       0.30374507      -8.72197347
Si       8.68083743       2.78587428       6.71370064      -1.63040826      -0.97565586      -0.16349966      -0.10285303       0.04723850      -0.39879468      -8.74321115
Si       6.77869529       3.94303619       0.43246556      -0.36040594      -0.47494760      -0.05309027       0.17445662      -0.49186648      -0.16300448      -8.70038292
Si       8.62163502       4.99924336       3.51833361      -1.44132934      -0.77398759       0.09974429       0.69512545       0.47751932       0.18866251      -8.77982756
Si      10.56056553       6.13395068       6.73563493       1.48552060       1.60609555      -1.63252411       0.29097153      -0.03517208      -0.11518564      -8.72388968
Si       8.61991161       7.20119544       0.25471510      -0.38904998      -0.06692106       0.75224146       0.30925510       0.28677378       0.91900150      -8.67718708
Si      10.56843379       8.28574797       3.53522371       0.16840469       0.01819096      -0.28250046       0.23192991       0.31533879       0.30233104      -8.77528798
Si      12.51346391       9.47956180       6.63961971       1.41880108       1.22959334       0.04010693      -0.26360298      -0.19355727       0.14158740      -8.75185829
Si       8.63813642       0.52954758       0.38582587      -0.74627386      -1.22561987       0.95956217       0.10381189       0.20621692      -0.18066847      -8.73815252
Si      10.51977073       1.66418930       3.56650799       0.34906344      -1.36509374       0.41930462       0.00519156       0.02032210      -0.36876041      -8.78311706
Si      12.52658380       2.76951754       6.62963011      -0.00489143      -1.27962850      -0.43819294      -0.38679903      -0.20832326       0.16409010      -8.68543044
Si      10.57308391       3.86968733       0.37372687      -0.84273130      -0.11090080      -0.87536672      -0.08209564       0.30535001       0.07053831      -8.77808402
Si      12.52495771       4.98949489       3.52395693       1.52981451      -0.03120692       0.12779045      -0.29404039      -0.04783244      -0.40033007      -8.66061541
Si      14.40994820       6.12760313       6.57531844      -0.12100765       0.91097676      -1.98269250       0.50459078      -0.69689569       0.77855933      -8.74582731
Si      12.55841412       7.27139349       0.40965107      -0.38663073      -0.39791938      -0.19050554      -0.19316942      -0.23237783      -0.29393870      -8.73353240
Si      14.43481296       8.34057347       3.62830823       0.03207217      -0.17295359      -0.64147193      -0.13641556      -0.05911693      -0.39074235      -8.74540384
Si      16.39937824       9.44264957       6.68448710      -0.84435322       0.76799432      -0.43320015      -0.36684753      -0.34704187       0.25206037      -8.76388440
54
Lattice="11.5478352 0.0 0.0 5.773917198490155 10.000722372470358 0.0 5.773916394327279 3.333571176804646 9.428767828939895" Properties=species:S:1:pos:R:3:momenta:R:3:forces:R:3:energies:R:1 spacegroup="_JSON {\"number\": 1, \"setting\": 1}" unit_cell=conventional occupancy="_JSON {\"0\": {\"Si\": 1.0}, \"1\": {\"Si\": 1.0}, \"2\": {\"Si\": 1.0}, \"3\": {\"Si\": 1.0}, \"4\": {\"Si\": 1.0}, \"5\": {\"Si\": 1.0}, \"6\": {\"Si\": 1.0}, \"7\": {\"Si\": 1.0}, \"8\": {\"Si\": 1.0}, \"9\": {\"Si\": 1.0}, \"10\": {\"Si\": 1.0}, \"11\": {\"Si\": 1.0}, \"12\": {\"Si\": 1.0}, \"13\": {\"Si\": 1.0}, \"14\": {\"Si\": 1.0}, \"15\": {\"Si\": 1.0}, \"16\": {\"Si\": 1.0}, \"17\": {\"Si\": 1.0}, \"18\": {\"Si\": 1.0}, \"19\": {\"Si\": 1.0}, \"20\": {\"Si\": 1.0}, \"21\": {\"Si\": 1.0}, \"22\": {\"Si\": 1.0}, \"23\": {\"Si\": 1.0}, \"24\": {\"Si\": 1.0}, \"25\": {\"Si\": 1.0}, \"26\": {\"Si\": 1.0}, \"27\": {\"Si\": 1.0}, \"28\": {\"Si\": 1.0}, \"29\": {\"Si\": 1.0}, \"30\": {\"Si\": 1.0}, \"31\": {\"Si\": 1.0}, \"32\": {\"Si\": 1.0}, \"33\": {\"Si\": 1.0}, \"34\": {\"Si\": 1.0}, \"35\": {\"Si\": 1.0}, \"36\": {\"Si\": 1.0}, \"37\": {\"Si\": 1.0}, \"38\": {\"Si\": 1.0}, \"39\": {\"Si\": 1.0}, \"40\": {\"Si\": 1.0}, \"41\": {\"Si\": 1.0}, \"42\": {\"Si\": 1.0}, \"43\": {\"Si\": 1.0}, \"44\": {\"Si\": 1.0}, \"45\": {\"Si\": 1.0}, \"46\": {\"Si\": 1.0}, \"47\": {\"Si\": 1.0}, \"48\": {\"Si\": 1.0}, \"49\": {\"Si\": 1.0}, \"50\": {\"Si\": 1.0}, \"51\": {\"Si\": 1.0}, \"52\": {\"Si\": 1.0}, \"53\": {\"Si\": 1.0}}" energy=-471.18447070516856 stress="-0.004066005667877768 0.000974662829445228 0.0004449020574517258 0.000974662829445228 -6.928229854291343e-05 -0.0019276672635318065 0.0004449020574517258 -0.0019276672635318065 -0.0008295978846334445" free_energy=-471.18447070516856 pbc="T T T"
Si       6.74552236       3.86307518       2.78685879      -1.11676962      -0.84149385      -1.26050132      -0.54270931      -0.35694601      -0.50486733      -8.71816104
Si       8.58823213       5.00005959       5.80860872      -0.84021715       0.18972133      -0.10143093       1.70819995      -0.18673740       0.93967460      -8.65415698
Si      10.61114054       6.11656066       9.03574855      -0.22083530      -0.14870872      -2.01702328       0.20267205      -0.53176472      -0.13850451      -8.71202855
Si       8.69894479       7.25929859       2.77511548      -0.74466539       0.45205778       0.83945545      -1.02869894      -0.40759482      -0.60827815      -8.69374831
Si      10.59501455       8.33639158       5.96941739       0.74100934      -0.16545246       0.62623537       0.32077042       1.07522718      -1.10813614      -8.71394346
Si      12.42766220       9.46232167       9.00783925       1.06059871      -0.31285140       0.65913550       0.84402262      -0.28175357       0.16617489      -8.76061441
Si      10.59904393      10.55177726       2.76927861       0.02838149       0.78781242       0.36638452       0.17645563      -0.66889411      -0.18020679      -8.73277902
Si      12.52375309      11.74085271       5.85568958      -0.10149603       0.44930597      -0.50740671      -0.51715550      -0.64927801       0.70800496      -8.75185343
Si      14.39757926      12.81234143       9.01668329      -1.38468361      -1.10962624      -0.61319272      -0.19624544      -0.74858814       0.18586212      -8.77297782
Si      10.52395752       3.84863119       2.68857282       1.22280420       0.15562458      -0.45896041       0.64879407       0.17750517       0.59979183      -8.65234388
Si      12.49287871       5.01661659       5.85857389       0.02709092      -0.25525841      -0.77295464       0.19685328      -0.55856411      -0.15497883      -8.76915826
Si      14.43727263       6.09966086       8.97727503      -1.37857324      -0.28740765       0.40417401      -0.52575206      -0.51372286      -0.40802980      -8.67808993
Si      12.50172597       7.21967743       2.71660701      -0.06577822      -1.56335106      -0.36489409       0.30627787      -0.23797920       0.44179339      -8.75863745
Si      14.46345019       8.35457394       5.94079413      -0.01349211       0.81245874      -0.91617706      -0.31891926       0.24843171      -0.62777420      -8.75535094
Si      16.35623435       9.41695385       9.00330796      -1.16878831      -0.01785423      -0.15276890      -0.10431920       0.60301414       0.41185243      -8.72981625
Si      14.37528699      10.50925569       2.75831098      -1.00731732       0.17445231       0.19207231       0.79822643      -0.17299043      -0.04026900      -8.75605220
Si      16.29707874      11.67093635       5.85601228       0.03728676       1.83905576       0.37802755       0.22363794       0.05042345       0.63944740      -8.75169403
Si      18.19475823      12.78733897       9.07198282       0.44576456      -1.30969586      -0.01514266       0.52738731      -0.43904038      -0.94959211      -8.74260512
Si      14.55696492       3.88456114       2.69349381       0.15949968      -0.12696501       0.87859736      -0.95713417      -0.43872364       0.96134352      -8.71918218
Si      16.49040937       5.00037198       5.89424127       1.21702295       1.02669965      -0.09772918      -1.21412892       0.39657422      -0.41793356      -8.70025797
Si      18.27378597       6.15447746       9.00125596       0.79466196      -0.21455216       0.13485745       0.01869890      -0.63988959       0.17165875      -8.71133403
Si      16.36360433       7.25032561       2.83969898       1.05230778       0.12135341       1.39223489       0.28146116       0.31995012      -0.35371752      -8.75810456
Si      18.28044676       8.41716030       5.97823581       0.30443538       1.32237101       0.34024495       0.06835621      -0.59559674      -0.61230077      -8.73282240
Si      20.21486886       9.34977358       9.06137657      -0.33919389      -0.27112004       0.59413729       0.30561574       0.87736053       0.30928445      -8.68141566
Si      18.21248580      10.53923173       2.88402800       0.23170064      -1.25679244      -0.33044929       0.92126489       0.51834341      -1.35604617      -8.69743226
Si      20.25823827      11.67516671       5.81366554       0.52219972       0.73197039       1.08425212       0.06179052       0.03140971       1.00968316      -8.74604397
Si      22.17492450      12.81372652       9.08888301       0.56727644       1.64809331       0.35286625      -0.47584177      -0.55436777      -0.03840516      -8.74957539
Si       0.98911069       0.58530316       0.42609447      -0.43732223       0.14192075       0.18878011      -0.47794268       0.37403611       0.51793491      -8.69931962
Si       2.92781411       1.60981884       3.51089160      -0.42980669      -0.65583515       0.47172454      -0.54801208       0.81275663      -0.10331450      -8.72579326
Si       4.85275506       2.81475348       6.71532396      -0.07261952      -0.43362942       0.20879665      -0.36203827      -0.24428324      -0.11714396      -8.73240373
Si       2.90462804       3.77916136       0.41713704       0.67231631      -0.00207319      -0.06814648      -0.08483418       0.79217400      -0.70733599      -8.76868055
Si       4.83623608       5.04657358       3.50707891       0.29487605      -0.65754632       0.08086451       0.51131047      -0.63642270       0.60089579      -8.73672912
Si       6.81917788       6.14773681       6.63113078       0.66476980       0.50900532      -0.74368928      -0.69194380       0.53541140       0.69783059      -8.74366741
Si       4.84829032       7.22520616       0.48578757       0.42486067       0.93449234       0.14296979      -0.92857149       0.18162125      -0.48351424      -8.70619460
Si       6.73781679       8.39072557       3.62739310      -0.51899904       0.54443276       1.19120497       0.30061999      -0.95031236      -0.05584075      -8.73064233
Si       8.65705246       9.46217907       6.69667171       0.54882517      -0.59965190       0.45287256       0.47691793       0.28890748       0.25519790      -8.74528170
Si       4.72791670       0.51177285       0.41038812       0.02901948       0.86417503      -0.61944704       0.65650429       0.83995329      -0.02567252      -8.73946932
Si       6.77683589       1.59365328       3.58701810       0.07885968      -0.38998897       1.08451201      -0.74549390       0.97120602      -0.85459299      -8.71302655
Si       8.60205018       2.75166265       6.68883637      -1.15436826      -0.06642683      -0.74748924       0.74196550       1.05910207      -0.24982637      -8.71368822
Si       6.76470486       3.90282355       0.42210924      -0.24347052      -0.97109984      -0.38222119      -0.10213224      -0.14281021      -0.31773449      -8.73535817
Si       8.58340174       4.98169047       3.52124239       0.07665085       0.11412983      -0.16883824       1.04850240       0.50563958      -0.50150195      -8.76265157
Si      10.63230889       6.19502452       6.65069172       0.95760678       0.32298074      -1.48038314      -0.85694728      -1.55732192       0.35155816      -8.68576976
Si       8.61228076       7.20906573       0.32948859       0.09451924       0.34517116       2.03674344       0.28895330       0.19942408       0.66059534      -8.69003544
Si      10.59172445       8.30400999       3.54060316       0.75629188       0.70112103       0.56947481       0.35921267       0.39395972       0.61420999      -8.73868294
Si      12.56935917       9.53217356       6.64958051       0.58125093       0.69656636       0.38101118      -0.76585811      -0.50432785       0.29955139      -8.69724283
Si       8.60517972       0.48344403       0.42398788      -0.46478114      -0.36827617       0.40454986       0.27547683       0.83738857      -0.53293095      -8.72084106
Si      10.52824959       1.60537201       3.56597881      -0.14818003      -0.67600152      -0.52072448      -0.45740040       0.80201336      -0.67175575      -8.75122406
Si      12.51229824       2.70779098       6.61868499      -0.47958375      -0.80887741       0.11776686      -0.13944035       0.82105013       0.53887321      -8.67230029
Si      10.53310859       3.87307241       0.33213394      -0.54809547       0.16541409      -0.67736565       0.42664912       0.00946335       0.20061457      -8.80215174
Si      12.58644052       4.98250038       3.51022561       0.68654882      -0.30135192      -0.68795802      -0.79097468      -0.30790892      -0.53197776      -8.68418725
Si      14.42874080       6.14065955       6.51482817       0.86718459      -0.45071828      -0.14581178       0.61164118      -0.83226609       1.46443607      -8.67760839
Si      12.52913281       7.23596797       0.38651597      -0.74617481      -1.03663555      -0.67994501      -0.25200006      -0.54908853      -0.24133950      -8.74504230
Si      14.42643768       8.32834813       3.58283646      -0.40286902      -0.30709839      -1.02033267      -0.33005100      -0.11651635      -0.10521787      -8.71778766
Si      16.34474043       9.47431717       6.67251667      -1.11754012       0.55595433      -0.02296288       0.10630644       0.10134301       0.25247021      -8.74851135
54
Lattice="11.5478352 0.0 0.0 5.773917198490155 10.000722372470358 0.0 5.773916394327279 3.333571176804646 9.428767828939895" Properties=species:S:1:pos:R:3:momenta:R:3:forces:R:3:energies:R:1 spacegroup="_JSON {\"number\": 1, \"setting\": 1}" unit_cell=conventional occupancy="_JSON {\"0\": {\"Si\": 1.0}, \"1\": {\"Si\": 1.0}, \"2\": {\"Si\": 1.0}, \"3\": {\"Si\": 1.0}, \"4\": {\"Si\": 1.0}, \"5\": {\"Si\": 1.0}, \"6\": {\"Si\": 1.0}, \"7\": {\"Si\": 1.0}, \"8\": {\"Si\": 1.0}, \"9\": {\"Si\": 1.0}, \"10\": {\"Si\": 1.0}, \"11\": {\"Si\": 1.0}, \"12\": {\"Si\": 1.0}, \"13\": {\"Si\": 1.0}, \"14\": {\"Si\": 1.0}, \"15\": {\"Si\": 1.0}, \"16\": {\"Si\": 1.0}, \"17\": {\"Si\": 1.0}, \"18\": {\"Si\": 1.0}, \"19\": {\"Si\": 1.0}, \"20\": {\"Si\": 1.0}, \"21\": {\"Si\": 1.0}, \"22\": {\"Si\": 1.0}, \"23\": {\"Si\": 1.0}, \"24\": {\"Si\": 1.0}, \"25\": {\"Si\": 1.0}, \"26\": {\"Si\": 1.0}, \"27\": {\"Si\": 1.0}, \"28\": {\"Si\": 1.0}, \"29\": {\"Si\": 1.0}, \"30\": {\"Si\": 1.0}, \"31\": {\"Si\": 1.0}, \"32\": {\"Si\": 1.0}, \"33\": {\"Si\": 1.0}, \"34\": {\"Si\": 1.0}, \"35\": {\"Si\": 1.0}, \"36\": {\"Si\": 1.0}, \"37\": {\"Si\": 1.0}, \"38\": {\"Si\": 1.0}, \"39\": {\"Si\": 1.0}, \"40\": {\"Si\": 1.0}, \"41\": {\"Si\": 1.0}, \"42\": {\"Si\": 1.0}, \"43\": {\"Si\": 1.0}, \"44\": {\"Si\": 1.0}, \"45\": {\"Si\": 1.0}, \"46\": {\"Si\": 1.0}, \"47\": {\"Si\": 1.0}, \"48\": {\"Si\": 1.0}, \"49\": {\"Si\": 1.0}, \"50\": {\"Si\": 1.0}, \"51\": {\"Si\": 1.0}, \"52\": {\"Si\": 1.0}, \"53\": {\"Si\": 1.0}}" energy=-471.7714067779066 stress="-0.0020830706377095434 0.0002400325874284763 -0.0001145177849910144 0.0002400325874284763 0.000576950228761772 -0.0010726952163607145 -0.0001145177849910144 -0.0010726952163607145 0.00013365598301460523" free_energy=-471.7714067779066 pbc="T T T"
Si       6.68323054       3.81034230       2.71181684      -0.91402639      -1.03227929      -1.39841884       0.78637105       0.18495586       0.27914538      -8.72692642
Si       8.61193349       5.00408026       5.83126230       1.61076997       0.06955159       0.76030645       1.15858393       0.22050311       0.12659470      -8.71745695
Si      10.60819681       6.09270133       8.92996146       0.08638958      -0.63439757      -1.88559761       0.11056940      -0.03729650       0.37030699      -8.75073194
Si       8.63359422       7.27208407       2.80539876      -1.41936865       0.12802799       0.52819533       0.24840578      -0.05679982       0.22273719      -8.72777745
Si      10.64554132       8.36903070       5.96102712       1.12360506       1.22199113      -0.81627305       0.06778823       0.35747849      -0.59255960      -8.75709773
Si      12.50703071       9.43961280       9.05035605       1.73915588      -0.44800087       0.98217460      -0.04623995       0.12480551       0.23290720      -8.74035340
Si      10.60606020      10.56770472       2.77763921       0.16185509      -0.11562068      -0.11212740      -0.12258990      -0.41531578      -0.43465450      -8.74288954
Si      12.49601532      11.73699315       5.86082322      -0.91601512      -0.57963870       0.70262640      -0.34967255      -0.56777170       0.68652950      -8.75086921
Si      14.32818208      12.73882438       8.99695641      -1.06287467      -1.37591636      -0.05878003       0.58097141       0.48908128       0.48795794      -8.71927632
Si      10.60393015       3.86116419       2.68374722       1.59714761       0.26994099       0.14723778      -0.26509067      -0.03580845       0.09720741      -8.69934980
Si      12.50870068       4.98142071       5.81416206       0.67535618      -1.03846865      -0.85733879       0.57226058      -0.35686263       0.09799283      -8.73867137
Si      14.35783222       6.06471724       8.98165967      -1.35143884      -0.98993269      -0.21219945       0.62660660      -0.28649745      -0.30620340      -8.72553682
Si      12.50641768       7.13902668       2.71019156       0.14937887      -1.29422278       0.01543158      -0.06659244       0.60304115       0.03457339      -8.74352339
Si      14.44777459       8.39415876       5.87218302      -0.59798126       0.46560455      -1.56099191      -0.35924542      -0.63872832      -0.07215132      -8.74325433
Si      16.29214516       9.43676258       9.01067123      -1.24151243       0.66618900       0.40501551       0.02624991       0.17504253       0.28994871      -8.75811089
Si      14.35395224      10.50985365       2.76493632       0.11990419      -0.13887739       0.01950539       0.50940468      -0.12300348      -0.19794054      -8.76703930
Si      16.30181335      11.75636357       5.88878775       0.04523889       1.19002497       0.61824523      -0.14877440      -0.82839048      -0.33696794      -8.74097138
Si      18.23023028      12.71007083       9.03932334       0.74941097      -1.44448731      -1.06735391      -0.09158554       0.30820881      -0.29422020      -8.75183846
Si      14.53230193       3.85851228       2.76329962      -0.95574959      -0.85181610       1.47235023      -0.37702309      -0.37077154      -0.24755341      -8.74064519
Si      16.50711441       5.05554187       5.87681403      -0.49122053       0.82246732      -0.44472595      -0.84454219      -0.58897483       0.06387633      -8.72654807
Si      18.31056795       6.12575214       9.01171859       0.51385195      -0.69633188       0.21218748      -0.34207950       0.08765532      -0.03188931      -8.71225826
Si      16.42015975       7.26315476       2.89057953       0.88926122       0.21322961       0.40293657      -0.54907275      -0.27417459      -0.91296197      -8.72527419
Si      18.29416747       8.46373797       5.98003473       0.16292871       0.50715132      -0.08226770      -0.14873566      -0.37983410       0.12993875      -8.72990504
Si      20.21210661       9.36967561       9.10075631       0.27015434       0.98843440       0.80971553       0.44355588       0.69880007      -0.06970078      -8.72237697
Si      18.25113743      10.50077842       2.82090310       1.01400444      -0.14387804      -1.83449153       0.03510087       0.76580018      -0.38107825      -8.73132416
Si      20.28051982      11.70493592       5.89980364       0.15773565       0.23676136       1.96162208      -0.58370366      -0.60826349       0.07864441      -8.74215262
Si      22.17932784      12.87222989       9.10369538      -0.49208889       0.50570175       0.16460532      -0.81175122      -0.84295069      -0.21422160      -8.74717640
Si       0.95774351       0.60497820       0.45283849      -0.56285821       0.50350819       0.69774944       0.27290726      -0.03508145      -0.02010561      -8.75910473
Si       2.88876313       1.60695465       3.53718445      -0.90464331       0.48074302       0.64188956       0.04938919       0.53918974       0.32000034      -8.73878844
Si       4.84072495       2.79748030       6.72344460      -0.27215987       0.04422017       0.15121464       0.07557641       0.79506610       0.07344514      -8.72030436
Si       2.93727416       3.80623722       0.39557192       0.58716658       0.92765239      -0.54629598      -0.03441395       0.36119596       0.09516638      -8.76138968
Si       4.86772893       4.99608790       3.53230148       0.76538138      -1.07280445       0.77680861      -0.03672844       0.11722431       0.18605959      -8.75081973
Si       6.82775375       6.19781319       6.62444123      -0.26577669       1.31723976       0.51041128      -0.41091409       0.20830043       0.77491148      -8.74211521
Si       4.84114983       7.27653260       0.47905460      -0.51537032       0.90703047      -0.30433738      -0.21700739      -0.26397624      -0.10096642      -8.67916089
Si       6.72654888       8.38242271       3.68446779       0.14142280      -0.73554084       0.86704458       0.49066065      -0.45508742      -0.50690372      -8.76768749
Si       8.70438072       9.44783802       6.73124024       1.20325489       0.12980976       0.85350684       0.26591001       0.58155188       0.20202424      -8.73285283
Si       4.74838161       0.57346217       0.37438711       0.62452210       1.12080698      -0.77845664       0.15243287      -0.59159729      -0.11451309      -8.69683733
Si       6.75042454       1.61118326       3.60327966      -1.03474200       0.98175385      -0.51323795      -0.53573113       0.65406074      -1.01467282      -8.73135802
Si       8.57316189       2.78966707       6.64686589       0.03542328       1.41314171      -0.70392811       0.66034741       0.63551756       0.33248074      -8.74682098
Si       6.74142201       3.85089796       0.38670532      -0.75112461      -0.91404194      -1.00899761      -0.50145714       0.22779775      -0.46626256      -8.76463052
Si       8.61849652       4.99791367       3.49160923       1.06015016       0.31083981      -0.91344476       0.26079960      -0.24665813      -0.31424844      -8.72312091
Si      10.64687881       6.15294909       6.58606689      -0.36950643      -1.72804518      -1.03846001      -0.69968725      -0.78246392       0.14750254      -8.73067769
Si       8.62527025       7.23129331       0.45289041       0.33049699       0.42964498       2.44245924       0.01309877      -0.08104835      -0.22944463      -8.76430599
Si      10.63760963       8.34743181       3.58610024       0.82373223       0.76354601       0.94970918      -0.29043576      -0.34101318      -0.23090444      -8.72028468
Si      12.57269762       9.54819981       6.68197365      -0.35345977      -0.09606829       0.85561993      -0.36016769      -0.53702121       0.30185369      -8.72254689
Si       8.59117352       0.49488199       0.42400430      -0.09529945       0.70774032      -0.38930099       0.16749190       0.44386934      -0.46241797      -8.73753275
Si      10.51036328       1.60189975       3.52049789      -0.33119043       0.51857932      -1.02330491       0.31776708       0.69388801       0.06478919      -8.72664288
Si      12.48977144       2.70313898       6.64585714      -0.22166067       0.68086125       0.86937855       0.45788336       0.99185138       0.32857007      -8.71710965
Si      10.52095118       3.87690327       0.30513734       0.05410114      -0.10657906      -0.33200929       0.30895044      -0.32411455       0.27396140      -8.74841154
Si      12.59133497       4.95243306       3.46077397      -0.46986922      -0.86248390      -1.01141475      -0.65082880      -0.35797527       0.19421812      -8.77217502
Si      14.48829468       6.09700168       6.55794602       1.15770758      -0.95023901       1.59965470      -0.34885580       0.19475552       0.69615184      -8.69797142
Si      12.48136684       7.16190080       0.34756989      -1.02529725      -1.69073509      -0.66670509      -0.04941603      -0.15887570       0.29416947      -8.76330324
Si      14.39689551       8.30668967       3.52749507      -0.60246748      -0.53250485      -1.04659257       0.13988995      -0.16393662       0.06526565      -8.73622086
Si      16.29651097       9.51250288       6.67851805      -0.63180565       0.95071691       0.18945018       0.44336918       0.29065214       0.00361189      -8.73989747
54
Lattice="11.5478352 0.0 0.0 5.773917198490155 10.000722372470358 0.0 5.773916394327279 3.333571176804646 9.428767828939895" Properties=species:S:1:pos:R:3:momenta:R:3:forces:R:3:energies:R:1 spacegroup="_JSON {\"number\": 1, \"setting\": 1}" unit_cell=conventional occupancy="_JSON {\"0\": {\"Si\": 1.0}, \"1\": {\"Si\": 1.0}, \"2\": {\"Si\": 1.0}, \"3\": {\"Si\": 1.0}, \"4\": {\"Si\": 1.0}, \"5\": {\"Si\": 1.0}, \"6\": {\"Si\": 1.0}, \"7\": {\"Si\": 1.0}, \"8\": {\"Si\": 1.0}, \"9\": {\"Si\": 1.0}, \"10\": {\"Si\": 1.0}, \"11\": {\"Si\": 1.0}, \"12\": {\"Si\": 1.0}, \"13\": {\"Si\": 1.0}, \"14\": {\"Si\": 1.0}, \"15\": {\"Si\": 1.0}, \"16\": {\"Si\": 1.0}, \"17\": {\"Si\": 1.0}, \"18\": {\"Si\": 1.0}, \"19\": {\"Si\": 1.0}, \"20\": {\"Si\": 1.0}, \"21\": {\"Si\": 1.0}, \"22\": {\"Si\": 1.0}, \"23\": {\"Si\": 1.0}, \"24\": {\"Si\": 1.0}, \"25\": {\"Si\": 1.0}, \"26\": {\"Si\": 1.0}, \"27\": {\"Si\": 1.0}, \"28\": {\"Si\": 1.0}, \"29\": {\"Si\": 1.0}, \"30\": {\"Si\": 1.0}, \"31\": {\"Si\": 1.0}, \"32\": {\"Si\": 1.0}, \"33\": {\"Si\": 1.0}, \"34\": {\"Si\": 1.0}, \"35\": {\"Si\": 1.0}, \"36\": {\"Si\": 1.0}, \"37\": {\"Si\": 1.0}, \"38\": {\"Si\": 1.0}, \"39\": {\"Si\": 1.0}, \"40\": {\"Si\": 1.0}, \"41\": {\"Si\": 1.0}, \"42\": {\"Si\": 1.0}, \"43\": {\"Si\": 1.0}, \"44\": {\"Si\": 1.0}, \"45\": {\"Si\": 1.0}, \"46\": {\"Si\": 1.0}, \"47\": {\"Si\": 1.0}, \"48\": {\"Si\": 1.0}, \"49\": {\"Si\": 1.0}, \"50\": {\"Si\": 1.0}, \"51\": {\"Si\": 1.0}, \"52\": {\"Si\": 1.0}, \"53\": {\"Si\": 1.0}}" energy=-471.10265686911674 stress="0.0011416467913399851 -0.0009816798749314763 -0.0005193637955725211 -0.0009816798749314763 -0.0010336536520148371 0.0015427401716651783 -0.0005193637955725211 0.0015427401716651783 -0.0017782306278475168" free_energy=-471.10265686911674 pbc="T T T"
Si       6.67316682       3.77318069       2.65168769       0.59710915      -0.17310625      -0.88260323       1.04034933       0.99435750       0.33207581      -8.71581948
Si       8.71454829       5.02493346       5.86280026       1.70976729       0.80938843       0.18160626      -1.15330814       0.51569964      -0.88246837      -8.73624430
Si      10.61072908       6.06432842       8.84940238      -0.12836703      -0.36389660      -1.11769619      -0.42632114       0.27638461       0.63013826      -8.76708897
Si       8.58465087       7.27691180       2.85014298      -0.16514574       0.02335664       1.26663574       1.33997898      -0.17622750       0.55499796      -8.70715132
Si      10.69887942       8.42680130       5.91023104       0.73355744       0.63089664      -0.83479346      -0.60374766      -1.00095611       0.51369853      -8.71966682
Si      12.58460384       9.42460426       9.10944591       0.99570902      -0.07199081       1.21042887      -0.91335710       0.32792973      -0.00364435      -8.68236869
Si      10.60270417      10.55326653       2.75375330      -0.40611349      -0.29530407      -0.79985230      -0.56520828       0.12954487      -0.42720001      -8.73290803
Si      12.44531822      11.69433782       5.91271580      -0.80294165      -0.82803883       1.02985139       0.47158341       0.27940649      -0.26149986      -8.74484345
Si      14.29931988      12.69835404       9.01090529       0.03237230       0.01966614       0.52666606       0.85036357       1.20079515       0.23650019      -8.63409099
Si      10.66337238       3.87050625       2.68521652       0.40193262       0.01724102      -0.26836149      -1.28071247      -0.29607960      -0.58352588      -8.74267876
Si      12.56399420       4.92218218       5.77738743       1.33851266      -1.00643905      -0.45854374       0.20420176       0.47841141       0.42448743      -8.70145295
Si      14.31972361       6.01166405       8.96589411      -0.01006417      -0.79747124      -0.22506153       0.97606084       0.62690318       0.33139682      -8.74926804
Si      12.50636832       7.09837674       2.70784252      -0.23582776      -0.23612201      -0.16291524      -0.38971121       0.67283779      -0.19017486      -8.71085830
Si      14.40775758       8.39147309       5.79973183      -0.79986487      -0.56208341      -0.95519340       0.13818395      -0.61597722       0.87318752      -8.67766789
Si      16.22878809       9.46789197       9.03865580      -1.14252443       0.31353654       0.55443834       0.15615570      -0.62440112      -0.13244874      -8.75962947
Si      14.36928629      10.50365759       2.75688272       0.28092521       0.02042941      -0.34138467      -0.20278301       0.32847447      -0.24706565      -8.74687477
Si      16.29990897      11.78724476       5.90111849      -0.05211198       0.06843627      -0.22855843       0.09482303      -0.50593144      -0.65177032      -8.72824361
Si      18.26187711      12.65265633       8.98700216       0.39217815      -0.64948404      -0.62423502      -0.35005658       0.67267868       0.87447472      -8.70886861
Si      14.48045218       3.80829872       2.81841316      -0.77702366      -0.85998444       0.42498607       0.56923363       0.40872968      -1.03893666      -8.71648841
Si      16.46371581       5.07304830       5.86520010      -0.87536618      -0.14587259       0.16304625       0.27002277      -0.54494955       0.67455781      -8.74925594
Si      18.32503035       6.10292258       9.02192458       0.07650088      -0.00459521       0.20061691      -0.18945231       0.73608682       0.06044019      -8.73034815
Si      16.43945077       7.25694654       2.87618266      -0.20674427      -0.53781752      -0.90585623      -0.74215969      -0.60982557      -0.71594569      -8.69332616
Si      18.29971059       8.48397156       5.99001621       0.10742057       0.40977129       0.58130540       0.07362069       0.17942184       0.57829338      -8.73058114
Si      20.24078841       9.44048215       9.13635764       0.74047985       1.51843188       0.47992981       0.11267694      -0.06333942      -0.33125162      -8.77188281
Si      18.29589995      10.51605813       2.73276298       0.54575229       0.59146196      -1.08024618      -0.53982677       0.23919266       1.32316799      -8.70165170
Si      20.26296987      11.69509275       5.99597481      -0.81011350      -0.51106414       1.53508318      -0.50605006      -0.20648000      -0.59218087      -8.72884688
Si      22.12821752      12.87193939       9.10385985      -1.27663869      -0.37726970      -0.14637825      -0.10922970      -0.29833705      -0.16774267      -8.75023024
Si       0.94102641       0.62102237       0.47385736      -0.08233543      -0.04313665      -0.18201182       0.25018615      -0.60925808      -1.09397512      -8.76880876
Si       2.85204864       1.64057150       3.58599461      -0.35632627       0.53162774       1.23004546       0.58773715      -0.50274456       0.35564141      -8.72400482
Si       4.83031287       2.83299230       6.73603548      -0.14868512       1.25253936       0.33386993      -0.01054342       0.55451749       0.09167288      -8.73557668
Si       2.96670287       3.86053520       0.37739477       0.51509270       0.98207711      -0.05640771      -0.10967138      -0.26332399       0.44940978      -8.69228401
Si       4.89649094       4.95050248       3.56974180       0.16893249      -0.57905185       0.44565473      -0.65790495       0.45568426      -0.60155202      -8.72433888
Si       6.80557401       6.25961405       6.67237411      -0.44895652       0.75351928       1.11768419       0.10555034      -0.88174439      -0.01066323      -8.71899084
Si       4.81725001       7.30976323       0.46408023      -0.18689226       0.29658483      -0.18164159       0.60099640      -0.50620001       0.22740744      -8.68266022
Si       6.74729597       8.34280941       3.70465612       0.47781800      -0.47416850      -0.15373132      -0.18214791       0.70900468      -0.70501160      -8.76617205
Si       8.77089259       9.47337150       6.77987145       1.18697330       0.72451163       0.90638873      -0.30219613       0.10882942      -0.16287057      -8.72711943
Si       4.78229739       0.59490706       0.33140457       0.58169688      -0.50016201      -0.79862476      -0.19286616      -1.33650938       0.11947297      -8.63562431
Si       6.68635457       1.67311198       3.55100227      -1.18394843       1.04519636      -1.16187886       0.33326023      -0.64112357       0.21285084      -8.75388115
Si       8.59035258       2.87043182       6.62840639       0.42141949       1.29778059       0.08509197      -0.10817492      -0.77873986       0.65035634      -8.74474280
Si       6.68520615       3.81418283       0.31790441      -1.26314554      -0.44774112      -1.52246682       0.00744828       0.37640685      -0.09773975      -8.76390103
Si       8.67698412       4.99873595       3.44024890       1.03954320      -0.34968794      -0.86645256      -0.26320154      -0.51518469       0.37896866      -8.63580060
Si      10.61791404       6.05462820       6.53285086      -0.30606931      -1.57083630      -1.01724242       0.96569344       0.98261631       0.04707513      -8.70522540
Si       8.64018745       7.24990824       0.56195012       0.18768283       0.28895873       1.54207759      -0.18649972      -0.04615991      -0.89075401      -8.77096045
Si      10.66491683       8.36875774       3.61438441       0.15325614      -0.01488625      -0.08746942      -0.54071251      -0.58554150      -1.05181735      -8.69252541
Si      12.55087222       9.52421458       6.73747997      -0.27335219      -0.76623201       1.22038778       0.43141782      -0.32176937       0.13456152      -8.76361124
Si       8.58848179       0.53664047       0.39136380      -0.08965135       0.61984371      -0.71337698      -0.15298030      -0.58177515       0.09573771      -8.75111756
Si      10.51363211       1.64852986       3.47700325       0.55137255       1.07756584      -0.51373195       0.67879131      -0.02838937       0.53814134      -8.69148735
Si      12.49624729       2.76731637       6.69412733       0.41030049       1.50196187       0.74907974       0.23175980      -0.04776863      -0.51948976      -8.74905652
Si      10.53146320       3.85902351       0.29821219       0.26167977      -0.53780825       0.05575264      -0.02805448      -0.17660235       0.21834544      -8.66867150
Si      12.55098367       4.89922108       3.42439651      -0.84332790      -0.99660836      -0.22696292       0.22314694       0.29830903       0.76213681      -8.77809613
Si      14.52362588       6.06408427       6.65144069       0.01232667      -0.16276915       1.59184879      -1.01930272       0.74784590      -0.76560152      -8.68467004
Si      12.43087795       7.07768039       0.32866742      -0.78047450      -1.29507937       0.00786352       0.40859044       0.70949407       0.52758620      -8.72688032
Si      14.37695531       8.27356885       3.47537928      -0.06087072      -0.68175144      -0.92784283       0.50873831       0.02989413       0.11869048      -8.77014591
Si      16.27687798       9.56866917       6.68499485      -0.20742900       1.04567583       0.00118200       0.09560903      -0.27411730      -0.21014109      -8.73796759
54
Lattice="11.5478352 0.0 0.0 5.773917198490155 10.000722372470358 0.0 5.773916394327279 3.333571176804646 9.428767828939895" Properties=species:S:1:pos:R:3:momenta:R:3:forces:R:3:energies:R:1 spacegroup="_JSON {\"number\": 1, \"setting\": 1}" unit_cell=conventional occupancy="_JSON {\"0\": {\"Si\": 1.0}, \"1\": {\"Si\": 1.0}, \"2\": {\"Si\": 1.0}, \"3\": {\"Si\": 1.0}, \"4\": {\"Si\": 1.0}, \"5\": {\"Si\": 1.0}, \"6\": {\"Si\": 1.0}, \"7\": {\"Si\": 1.0}, \"8\": {\"Si\": 1.0}, \"9\": {\"Si\": 1.0}, \"10\": {\"Si\": 1.0}, \"11\": {\"Si\": 1.0}, \"12\": {\"Si\": 1.0}, \"13\": {\"Si\": 1.0}, \"14\": {\"Si\": 1.0}, \"15\": {\"Si\": 1.0}, \"16\": {\"Si\": 1.0}, \"17\": {\"Si\": 1.0}, \"18\": {\"Si\": 1.0}, \"19\": {\"Si\": 1.0}, \"20\": {\"Si\": 1.0}, \"21\": {\"Si\": 1.0}, \"22\": {\"Si\": 1.0}, \"23\": {\"Si\": 1.0}, \"24\": {\"Si\": 1.0}, \"25\": {\"Si\": 1.0}, \"26\": {\"Si\": 1.0}, \"27\": {\"Si\": 1.0}, \"28\": {\"Si\": 1.0}, \"29\": {\"Si\": 1.0}, \"30\": {\"Si\": 1.0}, \"31\": {\"Si\": 1.0}, \"32\": {\"Si\": 1.0}, \"33\": {\"Si\": 1.0}, \"34\": {\"Si\": 1.0}, \"35\": {\"Si\": 1.0}, \"36\": {\"Si\": 1.0}, \"37\": {\"Si\": 1.0}, \"38\": {\"Si\": 1.0}, \"39\": {\"Si\": 1.0}, \"40\": {\"Si\": 1.0}, \"41\": {\"Si\": 1.0}, \"42\": {\"Si\": 1.0}, \"43\": {\"Si\": 1.0}, \"44\": {\"Si\": 1.0}, \"45\": {\"Si\": 1.0}, \"46\": {\"Si\": 1.0}, \"47\": {\"Si\": 1.0}, \"48\": {\"Si\": 1.0}, \"49\": {\"Si\": 1.0}, \"50\": {\"Si\": 1.0}, \"51\": {\"Si\": 1.0}, \"52\": {\"Si\": 1.0}, \"53\": {\"Si\": 1.0}}" energy=-471.0161538573801 stress="0.001818749283663154 -0.00029909798615674536 -0.00013316433446551462 -0.00029909798615674536 -0.0002475521321985415 0.002081575359579381 -0.00013316433446551462 0.002081575359579381 -0.000733230716232001" free_energy=-471.0161538573801 pbc="T T T"
Si       6.73680881       3.80576650       2.61598575       1.61189783       1.36336938      -0.49327476       0.16729771       0.76429689       0.27284449      -8.73127092
Si       8.74025730       5.07744400       5.83422246      -0.88246235       0.98262712      -1.22447512      -1.69339690      -0.28311821      -0.67211298      -8.71023151
Si      10.58268347       6.05116377       8.81442242      -0.97805788      -0.25673701      -0.23015135      -0.54696715      -0.17090300       0.56854692      -8.74165011
Si       8.62922211       7.26779256       2.93069766       1.75136101      -0.41695117       1.59799573       0.85011689      -0.34609296      -0.25203126      -8.73812334
Si      10.71163331       8.41744305       5.89067115      -0.22823221      -0.97326469       0.09670275      -0.52065997      -0.92846540       0.54496616      -8.68603530
Si      12.59756659       9.43278472       9.16842346      -0.52299910       0.35630932       0.94367629      -0.97377468       0.21633767      -0.37473496      -8.68165777
Si      10.56012647      10.54496950       2.69921774      -1.15598992      -0.01377463      -1.16810368      -0.31575289       0.15939853       0.01621646      -8.72391486
Si      12.42500866      11.66871745       5.95048034       0.05535210      -0.06847389       0.34286985       0.57802725       0.58599954      -0.52760246      -8.69082648
Si      14.33357756      12.74058191       9.04277037       1.22961659       1.39665215       0.58742087       0.64642819       0.42661600      -0.16449113      -8.69242875
Si      10.63548446       3.86019858       2.64843714      -1.31862962      -0.36836771      -1.04582458      -0.69259587      -0.13709944      -0.22482645      -8.77501347
Si      12.63531276       4.89738995       5.77014654       1.24434975       0.20188562       0.16784018      -0.33592536       1.00051040       0.36605903      -8.70278227
Si      14.35040367       6.00253391       8.97261141       1.01594872       0.53304185       0.52576782       0.32246524       0.92621556       0.48234667      -8.73724673
Si      12.48019566       7.10551705       2.69408014      -0.68938244       0.37568553      -0.29150099      -0.09796768       0.15265145       0.08479047      -8.72903423
Si      14.37693088       8.34387757       5.78713426      -0.27332308      -1.11366960       0.46950949       0.53587907      -0.05494820       0.83547631      -8.66374716
Si      16.17829727       9.45648175       9.05761243      -0.69390278      -0.75281532       0.09048104       0.49408915      -0.62608507      -0.42992638      -8.74036745
Si      14.37495380      10.51937780       2.73206944      -0.04215329       0.56837828      -0.52282239      -0.11992965       0.27871948       0.07773990      -8.70615406
Si      16.30413720      11.78212374       5.86793916       0.24510003      -0.07103356      -0.91700007       0.21379875       0.23618808      -0.17179697      -8.73346528
Si      18.26836916      12.64207927       8.99302183      -0.14406691       0.16584072       0.83674352      -0.34031167       0.34919073       0.79260340      -8.70802057
Si      14.46586413       3.78404680       2.80122080       0.24216610      -0.03825972      -0.98953625       0.64574315       0.50514886      -0.66217619      -8.73035024
Si      16.43300123       5.05416841       5.89825821      -0.26930170      -0.34492689       0.98234861       0.38011998       0.34794189       0.21873545      -8.75977081
Si      18.32584948       6.12973912       9.03770157       0.03185026       0.93012810       0.44659522       0.11184544       0.34934974       0.22661867      -8.74877656
Si      16.40762131       7.20826610       2.81010979      -0.82426827      -1.21221906      -1.40023958      -0.02936214      -0.18502175       0.12750994      -8.73244752
Si      18.30912319       8.51286201       6.03752571       0.24336161       0.63934313       1.07120537       0.03966137      -0.02307187      -0.04086123      -8.71333319
Si      20.27791779       9.50809899       9.14936873       0.56432118       0.88525969       0.04687006      -0.31368456      -0.73959769      -0.20776103      -8.75372936
Si      18.30458676      10.55247357       2.73024094      -0.16223852       0.72911520       0.87339701      -0.32886497      -0.04222409       0.89261055      -8.72504771
Si      20.21131483      11.67203768       6.05102509      -0.93050418      -0.15784773       0.52809694       0.38818775       0.59380496      -0.72299098      -8.71916103
Si      22.06782418      12.84646635       9.09151614      -0.82908629      -0.51329374      -0.28626215       0.65920685       0.02239712      -0.01494554      -8.73527682
Si       0.94155828       0.59705937       0.42374303       0.01067393      -0.75997687      -1.53982740      -0.10727501      -0.16863363      -0.35950078      -8.76675674
Si       2.85577841       1.64217954       3.65889987       0.46057705      -0.50593360       1.39059018       0.43280154      -0.63087810      -0.27557443      -8.71508663
Si       4.81821295       2.90419054       6.75429594      -0.36895097       1.10408196       0.30395545      -0.22399562      -0.83387305      -0.13577250      -8.73674906
Si       2.98735983       3.89904475       0.38948323       0.22474542       0.46021789       0.43630314      -0.29339375      -0.36654670       0.12573795      -8.68359548
Si       4.88124084       4.93620202       3.56733154      -0.66482050      -0.01366476      -0.51648984      -0.31513034       0.26629830      -0.51318459      -8.71876042
Si       6.78844464       6.26348596       6.72136764      -0.17625656      -0.54727539       0.58747186       0.21599681      -0.64663553      -0.64139778      -8.70977193
Si       4.83473812       7.30691862       0.46311617       0.86973271      -0.36238621       0.10177116       0.64320083      -0.33233778       0.05473734      -8.71760050
Si       6.75529401       8.34889753       3.67651027      -0.29884938       0.68124385      -0.75195853      -0.65009121       0.59786600      -0.05148475      -8.74508243
Si       8.81693798       9.50647960       6.81785179       0.49128638       0.36874759       0.48587137      -0.60300987      -0.54259955      -0.38283072      -8.72555346
Si       4.80307889       0.52534070       0.29629554       0.17705686      -1.87621305      -0.49329413      -0.31739045      -0.24106622       0.30936951      -8.70175721
Si       6.64278204       1.69359665       3.50819472      -0.40162421      -0.33150867      -0.35797737       0.63189042      -0.88842264       0.65377570      -8.73430333
Si       8.60435613       2.90190472       6.65484256       0.08089328      -0.12367061       0.80694549      -0.23876067      -0.87922171       0.18820242      -8.71814138
Si       6.63113856       3.80520011       0.24309464      -0.57808651       0.09899489      -1.13698140       0.84834372       0.34131714       0.65128276      -8.72521465
Si       8.71691626       4.96457555       3.41441222       0.39648627      -0.82975537      -0.05108310      -0.59470567      -0.02921276       0.63767885      -8.65368088
Si      10.65433464       6.02222186       6.48544417       1.75239069       0.43708881      -0.71929073       1.12722287       1.35066817       0.31041659      -8.67120471
Si       8.64205107       7.26637440       0.61036679      -0.11705811       0.38707677       0.37624623      -0.18160471       0.13130537      -0.61147729      -8.73989056
Si      10.65384512       8.35023213       3.57143588      -0.50411928      -0.54840460      -1.39527853      -0.24305163      -0.01610669      -0.43428766      -8.74497187
Si      12.55586591       9.47623722       6.80210928       0.44147007      -0.95349079       1.11903766       0.34005754       0.11364101      -0.35650343      -8.76068439
Si       8.57551829       0.54015300       0.36485195      -0.42364354      -0.51516030      -0.18292192      -0.21785975      -0.67495248       0.53586313      -8.75667950
Si      10.56229554       1.69373505       3.47048045       1.11959630       0.46901139       0.22455793      -0.04662992      -0.70530975       0.37096291      -8.71761931
Si      12.51839887       2.82880349       6.70955916       0.27180971       0.57379247      -0.14881293      -0.40232888      -1.07775721      -0.47255740      -8.72439111
Si      10.54094072       3.82867343       0.30658679       0.05257446      -0.51764259       0.19082308      -0.20641032       0.22342494      -0.06932050      -8.68981820
Si      12.52251143       4.86619345       3.43955877      -0.18148807      -0.16419177       0.68485734       0.46105810       0.67446093       0.28179823      -8.73960624
Si      14.48964266       6.08337033       6.69289959      -1.13640311       0.83050299      -0.14882286      -0.33612302       0.47202814      -1.26516481      -8.71648221
Si      12.40856811       7.04251657       0.34627236      -0.05112300       0.00927525       0.56476955       0.47547309       0.91307145       0.13611155      -8.69581187
Si      14.39125232       8.24363731       3.43285180       0.51660050      -0.35845554      -0.63955543       0.15451732       0.42108405       0.32905056      -8.77304623
Si      16.26592371       9.60429983       6.67796453      -0.25419699       0.16169491      -0.22923610      -0.07647471      -0.84975093      -0.05673772      -8.72403008
54
Lattice="11.5478352 0.0 0.0 5.773917198490155 10.000722372470358 0.0 5.773916394327279 3.333571176804646 9.428767828939895" Properties=species:S:1:pos:R:3:momenta:R:3:forces:R:3:energies:R:1 spacegroup="_JSON {\"number\": 1, \"setting\": 1}" unit_cell=conventional occupancy="_JSON {\"0\": {\"Si\": 1.0}, \"1\": {\"Si\": 1.0}, \"2\": {\"Si\": 1.0}, \"3\": {\"Si\": 1.0}, \"4\": {\"Si\": 1.0}, \"5\": {\"Si\": 1.0}, \"6\": {\"Si\": 1.0}, \"7\": {\"Si\": 1.0}, \"8\": {\"Si\": 1.0}, \"9\": {\"Si\": 1.0}, \"10\": {\"Si\": 1.0}, \"11\": {\"Si\": 1.0}, \"12\": {\"Si\": 1.0}, \"13\": {\"Si\": 1.0}, \"14\": {\"Si\": 1.0}, \"15\": {\"Si\": 1.0}, \"16\": {\"Si\": 1.0}, \"17\": {\"Si\": 1.0}, \"18\": {\"Si\": 1.0}, \"19\": {\"Si\": 1.0}, \"20\": {\"Si\": 1.0}, \"21\": {\"Si\": 1.0}, \"22\": {\"Si\": 1.0}, \"23\": {\"Si\": 1.0}, \"24\": {\"Si\": 1.0}, \"25\": {\"Si\": 1.0}, \"26\": {\"Si\": 1.0}, \"27\": {\"Si\": 1.0}, \"28\": {\"Si\": 1.0}, \"29\": {\"Si\": 1.0}, \"30\": {\"Si\": 1.0}, \"31\": {\"Si\": 1.0}, \"32\": {\"Si\": 1.0}, \"33\": {\"Si\": 1.0}, \"34\": {\"Si\": 1.0}, \"35\": {\"Si\": 1.0}, \"36\": {\"Si\": 1.0}, \"37\": {\"Si\": 1.0}, \"38\": {\"Si\": 1.0}, \"39\": {\"Si\": 1.0}, \"40\": {\"Si\": 1.0}, \"41\": {\"Si\": 1.0}, \"42\": {\"Si\": 1.0}, \"43\": {\"Si\": 1.0}, \"44\": {\"Si\": 1.0}, \"45\": {\"Si\": 1.0}, \"46\": {\"Si\": 1.0}, \"47\": {\"Si\": 1.0}, \"48\": {\"Si\": 1.0}, \"49\": {\"Si\": 1.0}, \"50\": {\"Si\": 1.0}, \"51\": {\"Si\": 1.0}, \"52\": {\"Si\": 1.0}, \"53\": {\"Si\": 1.0}}" energy=-470.7540640555684 stress="-0.0009332344621038795 0.0006222220674082014 0.0006509967230908002 0.0006222220674082014 0.002008660630880103 -0.0004494394416311913 0.0006509967230908002 -0.0004494394416311913 0.0017356461570375201" free_energy=-470.7540640555684 pbc="T T T"
Si       6.81175183       3.89069441       2.60195722       0.91930978       1.52969056      -0.01932712      -1.09530194      -0.57885900       0.35160412      -8.69132773
Si       8.65403779       5.11215603       5.76153974      -1.85609479       0.22940790      -1.17457459       0.42821688      -0.71971859       0.77338902      -8.68833517
Si      10.51931721       6.02769695       8.82251817      -1.19492953      -0.64980174       0.49468850       0.39632956      -0.21108856       0.38270814      -8.67608128
Si       8.72855883       7.23393338       2.99285776       1.48890843      -0.82874620       0.54697558      -1.24884086      -0.15516811      -1.11778516      -8.69175666
Si      10.68814352       8.34407091       5.90859524      -0.49547333      -1.47578624       0.40893539       0.14349102       0.45027203      -0.15286419      -8.69154579
Si      12.54277748       9.45683212       9.19978492      -1.28571149       0.48063981       0.17130972       0.13764696      -0.10703333      -0.68955653      -8.72072457
Si      10.49558323      10.54686698       2.64580090      -1.10786847       0.01520989      -0.72150923       0.45984622      -0.11206077       0.58787123      -8.70870213
Si      12.44638750      11.68214921       5.95171868       0.66250363       0.43215876      -0.21290660       0.18701039       0.00621221      -0.20502660      -8.68725140
Si      14.41173889      12.81306810       9.06299558       1.44199892       1.02570168       0.10472578      -0.56255802      -0.89745228      -0.46820340      -8.73391793
Si      10.55836768       3.83876031       2.59894461      -1.26698427      -0.40070353      -0.55304338       0.68457366       0.06059788       0.88062959      -8.73444971
Si      12.68264335       4.93970266       5.79014021       0.45383181       1.17660571       0.52481030      -0.74913232       0.08218262       0.08309062      -8.74589781
Si      14.40533919       6.05544406       9.00899353       0.85325801       1.20767317       0.62354454      -0.55765362      -0.14849566      -0.43014370      -8.71585779
Si      12.44832995       7.12702931       2.68703236      -0.36210567       0.38984690       0.10633907       0.53255902      -0.06466165       0.40062740      -8.74860115
Si      14.38437516       8.29337043       5.83256820       0.54614748      -0.58722119       0.99834890       0.47955061       0.82052201      -0.19865126      -8.70243284
Si      16.16361997       9.40252800       9.04697383       0.16279288      -1.06464962      -0.44416828       0.59728064       0.31313109      -0.22400933      -8.71628279
Si      14.37329161      10.55339324       2.71375705       0.07888185       0.58072944      -0.05995432       0.26549760      -0.29372799       0.51996848      -8.70638642
Si      16.32161581      11.78812920       5.82283968       0.32145106       0.24035203      -0.60590492      -0.17769933       0.00644445       0.58820319      -8.74170204
Si      18.25013945      12.65696713       9.05317686      -0.48589993       0.26389837       1.14714087      -0.07997441      -0.18227237      -0.41101832      -8.73209563
Si      14.49621520       3.79372452       2.73771422       0.74082708       0.24648794      -1.13062934      -0.03750026      -0.11674130       0.50940379      -8.73929500
Si      16.42723692       5.05781775       5.94622095      -0.08577360       0.55285769       0.62314036      -0.14456145       0.59152874      -0.64353719      -8.72862838
Si      18.33327435       6.18112157       9.06767618       0.24847460       0.80682807       0.60800777       0.09488827      -0.51554715      -0.11962943      -8.73405515
Si      16.37078245       7.14672740       2.75161284      -0.46394462      -0.92908774      -0.65698466       0.42553998       0.61811693       0.79384712      -8.75273926
Si      18.31987446       8.53793253       6.08245654       0.08718789       0.16257476       0.45882568      -0.26590996      -0.61713173      -0.75429226      -8.66816642
Si      20.29506104       9.52443226       9.14719930       0.10818099      -0.24956832      -0.07054146      -0.24465712      -0.67917106       0.01865773      -8.71578988
Si      18.29014838      10.58619030       2.79106727      -0.24633756       0.49257162       1.07325292       0.22230211      -0.28977092      -0.56350641      -8.73689952
Si      20.18620783      11.68611133       6.05365983       0.10132584       0.59849407      -0.35405262       0.86804895       0.21936784      -0.42923451      -8.73845594
Si      22.05234113      12.81916100       9.07783649       0.23708494      -0.55729820      -0.19563390       0.64235465      -0.07993394       0.13867479      -8.72975181
Si       0.93669726       0.56258270       0.34796796      -0.17773922      -0.32990921      -1.00844796      -0.03089874       0.69388898       0.96659522      -8.69692257
Si       2.89101552       1.60193357       3.71041153       0.75185748      -0.79060591       0.37066591      -0.08696671       0.29455491      -1.04850186      -8.69894615
Si       4.79155075       2.91880213       6.76249379      -0.58550025      -0.64656367      -0.04675437       0.02745063      -1.19197303      -0.34953744      -8.73147079
Si       2.98646516       3.91172153       0.40978138      -0.26940022       0.07582551       0.18851922      -0.32450268      -0.16145377      -0.44855599      -8.74239558
Si       4.84435149       4.94175018       3.52922720      -0.53358066       0.14944207      -0.74463702       0.49093887      -0.03162490       0.23732676      -8.71247996
Si       6.78601594       6.22207128       6.72717287       0.04126371      -0.77412136      -0.31269052       0.04838828       0.35901023      -0.42535438      -8.74401922
Si       4.89475431       7.27965782       0.46481653       1.13701612      -0.56860076      -0.13022281      -0.46305821       0.09976040      -0.29023005      -8.73545403
Si       6.72151892       8.39484331       3.64259278      -0.80854594       0.79025108      -0.40771603       0.04279721      -0.48912380       0.46933856      -8.66226696
Si       8.81912130       9.50331761       6.82774758      -0.39453588      -0.46645996      -0.12079399      -0.53751190      -0.44911654      -0.42301601      -8.73964994
Si       4.80268409       0.43959978       0.28554760      -0.10657056      -0.96157710       0.15513019       0.01797449       1.42669819       0.57613606      -8.72590914
Si       6.64418987       1.65436989       3.50923045       0.39161155      -0.89050961       0.26960856       0.37155121       0.17458974       0.15588608      -8.70702919
Si       8.60270866       2.87187865       6.69450308      -0.06581102      -0.79312007       0.51429837       0.06705520       0.01498876      -0.55018579      -8.70593345
Si       6.63409109       3.82100107       0.21443045       0.62418833       0.43889179       0.12312448       0.58268448       0.08726089       0.94837803      -8.69359588
Si       8.71452632       4.92816690       3.43378381      -0.44797122      -0.40900156       0.70197192      -0.42606238       0.54407977       0.28323661      -8.72177684
Si      10.76014810       6.08216922       6.46035554       1.66359004       1.48361794      -0.18927363      -1.24786193      -0.09080687       0.50370349      -8.69536504
Si       8.63158128       7.28990219       0.61156334      -0.21908788       0.43664224      -0.25789722       0.06268243      -0.15317586      -0.31738157      -8.67992811
Si      10.62759631       8.33176232       3.49842387      -0.29139844       0.04411501      -1.05407231       0.53501632       0.74181194       0.86207561      -8.73201941
Si      12.58313891       9.43595201       6.84029428       0.41266637      -0.48199389       0.21754577      -0.37712003       0.50228577      -0.81067941      -8.70720083
Si       8.54940236       0.49986934       0.37500691      -0.44273928      -0.73666452       0.51592842       0.28502688       0.41724055       0.31873051      -8.75895175
Si      10.60746395       1.69218235       3.49015177       0.38227650      -0.44484007       0.38763936      -0.89583258      -0.38161841      -0.16465133      -8.74578906
Si      12.51294672       2.81852644       6.69231595      -0.51440207      -0.83656615      -0.34103555      -0.52003175      -0.56997346       0.18094076      -8.71466331
Si      10.53802061       3.81424101       0.31019747      -0.08188200       0.03475590      -0.10250098       0.11386833       0.47900930      -0.24841561      -8.75467834
Si      12.52504541       4.87980231       3.47425207       0.16937388       0.58218753       0.41574175       0.04022076       0.27591091      -0.57255369      -8.68738522
Si      14.43263913       6.13670555       6.65095769      -0.71572615       1.01265787      -1.07313830       0.90904895      -0.27698944       0.19330550      -8.74547025
Si      12.41983520       7.07245578       0.37412229       0.38485384       0.97794931       0.37127032       0.10074323       0.29661886      -0.34799658      -8.70243455
Si      14.41662776       8.24411366       3.41550786       0.31407995       0.40818900       0.04333332      -0.37114085       0.53232069       0.57321899      -8.71473081
Si      16.25176081       9.58053612       6.66623715      -0.21892889      -0.99285700      -0.17641187       0.18419323      -0.54371522       0.10697061      -8.72046745
54
Lattice="11.5478352 0.0 0.0 5.773917198490155 10.000722372470358 0.0 5.773916394327279 3.333571176804646 9.428767828939895" Properties=species:S:1:pos:R:3:momenta:R:3:forces:R:3:energies:R:1 spacegroup="_JSON {\"number\": 1, \"setting\": 1}" unit_cell=conventional occupancy="_JSON {\"0\": {\"Si\": 1.0}, \"1\": {\"Si\": 1.0}, \"2\": {\"Si\": 1.0}, \"3\": {\"Si\": 1.0}, \"4\": {\"Si\": 1.0}, \"5\": {\"Si\": 1.0}, \"6\": {\"Si\": 1.0}, \"7\": {\"Si\": 1.0}, \"8\": {\"Si\": 1.0}, \"9\": {\"Si\": 1.0}, \"10\": {\"Si\": 1.0}, \"11\": {\"Si\": 1.0}, \"12\": {\"Si\": 1.0}, \"13\": {\"Si\": 1.0}, \"14\": {\"Si\": 1.0}, \"15\": {\"Si\": 1.0}, \"16\": {\"Si\": 1.0}, \"17\": {\"Si\": 1.0}, \"18\": {\"Si\": 1.0}, \"19\": {\"Si\": 1.0}, \"20\": {\"Si\": 1.0}, \"21\": {\"Si\": 1.0}, \"22\": {\"Si\": 1.0}, \"23\": {\"Si\": 1.0}, \"24\": {\"Si\": 1.0}, \"25\": {\"Si\": 1.0}, \"26\": {\"Si\": 1.0}, \"27\": {\"Si\": 1.0}, \"28\": {\"Si\": 1.0}, \"29\": {\"Si\": 1.0}, \"30\": {\"Si\": 1.0}, \"31\": {\"Si\": 1.0}, \"32\": {\"Si\": 1.0}, \"33\": {\"Si\": 1.0}, \"34\": {\"Si\": 1.0}, \"35\": {\"Si\": 1.0}, \"36\": {\"Si\": 1.0}, \"37\": {\"Si\": 1.0}, \"38\": {\"Si\": 1.0}, \"39\": {\"Si\": 1.0}, \"40\": {\"Si\": 1.0}, \"41\": {\"Si\": 1.0}, \"42\": {\"Si\": 1.0}, \"43\": {\"Si\": 1.0}, \"44\": {\"Si\": 1.0}, \"45\": {\"Si\": 1.0}, \"46\": {\"Si\": 1.0}, \"47\": {\"Si\": 1.0}, \"48\": {\"Si\": 1.0}, \"49\": {\"Si\": 1.0}, \"50\": {\"Si\": 1.0}, \"51\": {\"Si\": 1.0}, \"52\": {\"Si\": 1.0}, \"53\": {\"Si\": 1.0}}" energy=-470.37694788270505 stress="-0.0034192570512075224 0.0004223405054738488 0.00025292662333121265 0.0004223405054738488 6.944030990310998e-05 -0.0016140130393102101 0.00025292662333121265 -0.0016140130393102101 0.0021180092047392417" free_energy=-470.37694788270505 pbc="T T T"
Si       6.81089511       3.93740220       2.61485930      -0.97628466       0.08542354       0.53021263      -1.15621192      -1.21808084       0.42351887      -8.66774469
Si       8.59022711       5.09421078       5.74197931      -0.33279278      -0.91266014       0.59703631       1.38128982      -0.68928435       1.40592317      -8.61120590
Si      10.48372425       5.99225467       8.86017396       0.02533318      -0.52174598       0.88074698       1.11519764       0.49846769       0.14102091      -8.63329527
Si       8.74747562       7.19166419       2.97561449      -0.80601815      -0.58190956      -1.18996125      -1.39458985       0.62167851      -1.03898225      -8.65640683
Si      10.67088119       8.30378759       5.91705856      -0.14199136       0.24265591      -0.18488505       0.22810930       1.56967927      -0.52151569      -8.68819425
Si      12.49767745       9.47230372       9.17867693      -0.16750212       0.02002552      -1.01488818       1.13475160      -0.43222546      -0.80791443      -8.72120383
Si      10.46506689      10.54238534       2.63470776       0.12011868      -0.17383482       0.35614153       1.12869907      -0.05843327       0.80235158      -8.70723583
Si      12.48227721      11.69718106       5.93544267       0.59008464       0.01606805      -0.37292615      -0.26355942      -0.47352946      -0.06354980      -8.71689253
Si      14.45125567      12.82583766       9.05026282      -0.09967313      -0.55536573      -0.54432531      -1.16864583      -0.93776651      -0.27221974      -8.73062353
Si      10.52462595       3.82184090       2.60921471       0.03639162      -0.19203687       0.95374183       0.89987017       0.26676970       0.90016193      -8.69839391
Si      12.67460862       4.98982489       5.81684767      -0.77639645       0.50791464       0.42418553      -0.78679950      -0.78892447      -0.18217989      -8.73901630
Si      14.42314958       6.10094122       9.01725867      -0.20054699       0.34900098      -0.38600028      -0.64027041      -0.83458765      -0.71498799      -8.68795442
Si      12.45340641       7.14674657       2.70710944       0.57623692       0.41341249       0.60039808       0.59932490       0.13171064       0.16704025      -8.75983138
Si      14.42574247       8.30133810       5.86692934       0.88064741       0.93447488       0.16911639      -0.11833529       0.94990456      -0.74351090      -8.72873356
Si      16.19324332       9.37053695       9.01959609       0.91825063       0.03885799      -0.50408238       0.39875538       1.05366478       0.15648526      -8.69625932
Si      14.38915225      10.56762215       2.73187258       0.50874193      -0.10209035       0.72586648       0.18534550      -0.53522120       0.40636765      -8.75689976
Si      16.32558072      11.79155283       5.81756128      -0.26649578      -0.29647448       0.41630608      -0.53407925      -0.71090174       0.62277455      -8.73152195
Si      18.22565601      12.66340078       9.08790542      -0.36797150       0.03939813       0.05418931       0.23093207       0.04644748      -0.88125834      -8.74253753
Si      14.52584719       3.79830518       2.70666161       0.26528646      -0.09849325       0.03398802      -0.51777817      -0.21405395       0.83615568      -8.71087130
Si      16.41335581       5.09800038       5.95062880      -0.45717876       0.70308098      -0.47710203      -0.18193597      -0.47465090      -0.72201319      -8.70099594
Si      18.34540144       6.19765128       9.08778344       0.10916740      -0.24112324       0.02498608      -0.30710017      -0.75267380      -0.63226181      -8.71897306
Si      16.36230344       7.12996434       2.74793495       0.10320605       0.40807459       0.47531752       0.27513265       1.05423109       0.62475893      -8.74708865
Si      18.31165942       8.51849202       6.07312582      -0.42185493      -0.94306349      -0.85855758      -0.33713173      -0.75178017      -0.90621473      -8.68507084
Si      20.29331118       9.49134482       9.14356143      -0.15440418      -0.87067297      -0.11123234      -0.16430821      -0.11667545      -0.14781096      -8.71010043
Si      18.28897816      10.59888654       2.81683618       0.20621595      -0.03997389      -0.18706907       0.23082221      -0.40844682      -0.92937879      -8.72326922
Si      20.21915484      11.71441899       6.02189776       0.94599008       0.25320476      -0.81207360       0.04243590      -0.66481559      -0.24468848      -8.76135441
Si      22.08294527      12.78747234       9.07347936       0.78747767      -0.59606468       0.02372727       0.08337771       0.14228448       0.11274556      -8.74894791
Si       0.93179540       0.57446507       0.33774508       0.09436073       0.75056918       0.65404836       0.35847915       0.54852512       1.08789786      -8.67112071
Si       2.92068379       1.58090954       3.68796158       0.26729136       0.12889779      -1.18338577      -0.51722645       0.83092999      -0.86075721      -8.70086349
Si       4.76958868       2.85285510       6.74545013      -0.07704356      -1.52637302      -0.58448820       0.70000876       0.13874965      -0.26318837      -8.74843932
Si       2.96271500       3.91020047       0.40023528      -0.55584790      -0.14562008      -0.52841541      -0.00667822      -0.20533058      -0.34181224      -8.77966819
Si       4.83981194       4.94690153       3.50639242       0.37722161       0.04505866      -0.02106816       0.53646329      -0.03365536       0.63972371      -8.72299091
Si       6.78713400       6.20292544       6.70248577      -0.05065883       0.12151358      -0.47556973      -0.15374168       0.64083846       0.16889623      -8.74931370
Si       4.92094425       7.25866832       0.44959557      -0.36467096      -0.17423842      -0.35576020      -1.29720958       0.30115859       0.06379799      -8.73155008
Si       6.68827462       8.40856949       3.64032610      -0.33595360      -0.37299040       0.29120619       0.52790556      -0.88908414       0.33581491      -8.62393166
Si       8.78146527       9.46797789       6.80597896      -0.95125859      -0.74117934      -0.67857723      -0.17847677       0.10210993      -0.29533874      -8.73271991
Si       4.80183164       0.45131124       0.31623132       0.08579668       1.38880296       0.96124509       0.05295757       1.30698505       0.34796610      -8.74198328
Si       6.67321593       1.62395807       3.52388332       0.59769198      -0.12651240       0.20212342      -0.08950412       0.72936362      -0.18776259      -8.64933948
Si       8.60557938       2.83947918       6.69704916       0.22633145      -0.31421659      -0.42827380       0.25614008       0.50929366      -0.58224423      -8.71919168
Si       6.67904254       3.84455639       0.25458072       0.87975913       0.41142971       1.30717302      -0.24157950      -0.10412459       0.53198019      -8.68832722
Si       8.68118070       4.92801681       3.47396778      -0.70191512       0.35692619       0.68285407       0.04447851       0.35841481      -0.28464487      -8.75637263
Si      10.78379642       6.13707615       6.47539350      -0.94115447       0.28994934       0.84442762      -1.93632169      -1.29833363       0.78912631      -8.62486285
Si       8.62483155       7.30129025       0.58544583      -0.00513517      -0.10452704      -0.75994178       0.19236395      -0.54353392      -0.39300711      -8.66002547
Si      10.63379861       8.36093339       3.48344394       0.43638222       0.91662260       0.54130659       0.18515912       0.14399688       1.07452255      -8.72333752
Si      12.58582786       9.43157929       6.81979214      -0.34553487       0.32395606      -0.97978141      -0.50635809       0.52632883      -0.72031629      -8.67897103
Si       8.54406812       0.48509047       0.40834732       0.33767979       0.24922871       0.62410128       0.65494191       0.70862972      -0.19898613      -8.72208285
Si      10.59099435       1.66157225       3.50070187      -0.95422657      -0.59532286      -0.00409415      -0.64888906       0.12006585      -0.23043691      -8.76462476
Si      12.47344494       2.76643862       6.68531039      -0.78782358      -0.89500131       0.11460331       0.27231760       0.42572408       0.33388412      -8.70082758
Si      10.54344147       3.83349994       0.29925153       0.34797705       0.63951119      -0.19822219       0.32687141       0.23440412       0.20106741      -8.77495807
Si      12.53334005       4.91492243       3.47237440       0.12394979       0.63587971      -0.44630502      -0.05505851      -0.20319088      -0.40549409      -8.66886329
Si      14.43689902       6.17190189       6.61764181       0.88184202       0.23354859      -0.00099429       0.88804286      -0.63261094       0.94500798      -8.74004273
Si      12.44084227       7.12517753       0.37998493       0.37426000       0.83746064      -0.10964832      -0.06607042      -0.46292123      -0.19823545      -8.70889088
Si      14.41849266       8.28250158       3.44039782      -0.20375245       0.95185722       0.89196315      -0.21490673       0.11790855       0.50640709      -8.69093702
Si      16.25241438       9.51778003       6.66178232       0.34039402      -1.17131364       0.01661672       0.55259284       0.35657177       0.14531442      -8.72208905
54
Lattice="11.5478352 0.0 0.0 5.773917198490155 10.000722372470358 0.0 5.773916394327279 3.333571176804646 9.428767828939895" Properties=species:S:1:pos:R:3:momenta:R:3:forces:R:3:energies:R:1 spacegroup="_JSON {\"number\": 1, \"setting\": 1}" unit_cell=conventional occupancy="_JSON {\"0\": {\"Si\": 1.0}, \"1\": {\"Si\": 1.0}, \"2\": {\"Si\": 1.0}, \"3\": {\"Si\": 1.0}, \"4\": {\"Si\": 1.0}, \"5\": {\"Si\": 1.0}, \"6\": {\"Si\": 1.0}, \"7\": {\"Si\": 1.0}, \"8\": {\"Si\": 1.0}, \"9\": {\"Si\": 1.0}, \"10\": {\"Si\": 1.0}, \"11\": {\"Si\": 1.0}, \"12\": {\"Si\": 1.0}, \"13\": {\"Si\": 1.0}, \"14\": {\"Si\": 1.0}, \"15\": {\"Si\": 1.0}, \"16\": {\"Si\": 1.0}, \"17\": {\"Si\": 1.0}, \"18\": {\"Si\": 1.0}, \"19\": {\"Si\": 1.0}, \"20\": {\"Si\": 1.0}, \"21\": {\"Si\": 1.0}, \"22\": {\"Si\": 1.0}, \"23\": {\"Si\": 1.0}, \"24\": {\"Si\": 1.0}, \"25\": {\"Si\": 1.0}, \"26\": {\"Si\": 1.0}, \"27\": {\"Si\": 1.0}, \"28\": {\"Si\": 1.0}, \"29\": {\"Si\": 1.0}, \"30\": {\"Si\": 1.0}, \"31\": {\"Si\": 1.0}, \"32\": {\"Si\": 1.0}, \"33\": {\"Si\": 1.0}, \"34\": {\"Si\": 1.0}, \"35\": {\"Si\": 1.0}, \"36\": {\"Si\": 1.0}, \"37\": {\"Si\": 1.0}, \"38\": {\"Si\": 1.0}, \"39\": {\"Si\": 1.0}, \"40\": {\"Si\": 1.0}, \"41\": {\"Si\": 1.0}, \"42\": {\"Si\": 1.0}, \"43\": {\"Si\": 1.0}, \"44\": {\"Si\": 1.0}, \"45\": {\"Si\": 1.0}, \"46\": {\"Si\": 1.0}, \"47\": {\"Si\": 1.0}, \"48\": {\"Si\": 1.0}, \"49\": {\"Si\": 1.0}, \"50\": {\"Si\": 1.0}, \"51\": {\"Si\": 1.0}, \"52\": {\"Si\": 1.0}, \"53\": {\"Si\": 1.0}}" energy=-471.99893529683106 stress="0.0006490851507237027 8.871044672789499e-05 -9.91116887385018e-05 8.871044672789499e-05 -0.001247672580955283 0.000741497827574913 -9.91116887385018e-05 0.000741497827574913 0.00018025387934795056" free_energy=-471.99893529683106 pbc="T T T"
Si       6.73036907       3.89726812       2.66143354      -1.72592440      -1.49703440       1.26138440       0.27469820      -0.71889299       0.45919645      -8.75189232
Si       8.62147942       5.02846109       5.82055418       1.32383661      -1.35269586       2.14466952       0.56077040       0.25738981       0.39001308      -8.73487352
Si      10.52695470       5.99589495       8.91113397       1.53135106       0.86604778       1.05245719       0.73748125       1.26008420       0.10043319      -8.69718667
Si       8.66734498       7.19315556       2.88240721      -1.89846632       0.70253238      -2.13223778      -0.00512257       0.83954032      -0.12566116      -8.70914043
Si      10.66747823       8.36522397       5.89248685      -0.11408590       1.71352547      -0.57944432      -0.27226192       0.07969376       0.15242100      -8.76672027
Si      12.52494543       9.45995931       9.09993193       0.94721003      -0.39939152      -1.81790351       0.13314229      -0.09061294      -0.14327271      -8.75305165
Si      10.51527427      10.53602963       2.68290009       1.71640842       0.04298373       1.41308499       0.79538727       0.36361372       0.51428165      -8.74938946
Si      12.50196365      11.68169478       5.91203562       0.17229696      -0.50361499      -0.55253978      -0.21339938      -0.06211394      -0.18840487      -8.75180610
Si      14.41248178      12.77475297       9.01898084      -1.11055420      -1.07245008      -0.49646368      -0.12935933       0.30366991       0.31108480      -8.72158323
Si      10.55474419       3.82542593       2.68328946       0.94206516       0.37767419       1.62048972       0.22079442       0.44169389      -0.07910073      -8.73251855
Si      12.60919834       4.98899891       5.83284802      -1.58189464      -0.42420878       0.21760323      -0.25453091      -0.33945762      -0.06025468      -8.72443218
Si      14.39831675       6.09074154       8.97894631      -0.52207486      -0.60333480      -0.81407910       0.22387198      -0.30083050       0.30349495      -8.74085299
Si      12.50071925       7.17640315       2.73966533       1.07049470       0.73671257       0.53864842      -0.01960141       0.19360055      -0.22814298      -8.75294714
Si      14.45930840       8.37365761       5.85284307       0.27161054       1.51308208      -0.51625001      -0.59559612      -0.24560518       0.01134700      -8.74783814
Si      16.25488700       9.41144491       9.00323082       1.38301963       1.39217045      -0.04742880       0.19580298       0.52986138       0.43059046      -8.73444586
Si      14.41535804      10.54478770       2.77748323       0.31352910      -0.66289119       0.81372011      -0.48914657      -0.11075263      -0.37104023      -8.78231694
Si      16.29480428      11.74459301       5.85646328      -0.75308671      -1.49181203       0.91202802       0.07222466      -0.67558633       0.01480554      -8.73690878
Si      18.21700331      12.67636692       9.06250289       0.06181462       0.61129719      -0.84647165       0.32286758       0.63391546      -0.18291387      -8.75745851
Si      14.52026270       3.79168473       2.73207543      -0.43458033       0.02262349       0.71898613      -0.34241442       0.47276582      -0.00866625      -8.72646109
Si      16.39104482       5.10599569       5.90301161      -0.19960758      -0.54592325      -1.18388412       0.54508575      -1.03336286      -0.09431197      -8.70708767
Si      18.33607387       6.16220923       9.06313394      -0.49258313      -0.93602459      -0.94193917      -0.40798801      -0.07057247      -0.52264847      -8.75329532
Si      16.37358468       7.18720416       2.79069052       0.22485991       1.59908475       1.01172227      -0.12752448       0.35470935       0.05046667      -8.73885383
Si      18.28082980       8.44525963       5.99830501      -0.63208769      -1.68517470      -1.82565166       0.13720103      -0.10160665      -0.22919061      -8.75923890
Si      20.27657687       9.44694085       9.12723087      -0.53632148      -0.73156811      -0.59448574      -0.35859144       0.23255974      -0.46050386      -8.74143582
Si      18.30159261      10.58115430       2.77910598       0.12803721      -0.61840699      -1.01858396      -0.32851171      -0.32747837      -0.00149623      -8.73111408
Si      20.25567016      11.69731264       5.96901503       0.21673763      -0.91114809      -1.19920685      -0.82689088      -0.65962450      -0.20972489      -8.74431592
Si      22.12333529      12.76859874       9.07680228       0.69398205       0.01139479       0.05945054      -0.14840445       0.64419242      -0.05487910      -8.74948593
Si       0.95048259       0.62262279       0.40486210       0.57284477       0.79940597       1.64649732       0.17961344      -0.55806071       0.05163248      -8.73833378
Si       2.91504908       1.61703603       3.60218109      -0.43254160       1.10965165      -1.86729132      -0.31519408       0.26688364       0.00911568      -8.75926367
Si       4.79703754       2.79156325       6.70994755       1.11450138      -0.61936504      -0.66401573       0.63059484       0.87255890       0.13913870      -8.73252719
Si       2.93752789       3.89124304       0.36803519      -0.33612360      -0.63186299      -0.51876701       0.25318032      -0.39871514       0.35222121      -8.76499708
Si       4.86933370       4.95256946       3.52784772       0.48352262       0.27694554       0.74725852      -0.48510893       0.36948208       0.26416434      -8.75142271
Si       6.77783085       6.22346801       6.68609206      -0.29879058       0.37326565      -0.14605506      -0.13027716      -0.48264284       0.18308355      -8.74091280
Si       4.86164277       7.25445334       0.43718025      -1.59509614      -0.13111158      -0.07000300      -0.13501970      -0.23554206       0.25016620      -8.77434771
Si       6.69223319       8.36114246       3.65886093       0.48170014      -1.24080149       0.18234641       0.49341773      -0.11864520      -0.57302517      -8.72053617
Si       8.72802824       9.43798246       6.76077403      -1.02558101      -0.32615585      -1.00584612       0.06109208       0.39353729      -0.13706928      -8.72094571
Si       4.80162442       0.55167595       0.37184297      -0.20194276       1.91864931       1.00056447      -0.35187037      -0.69787818      -0.26219941      -8.76290441
Si       6.69862221       1.64346677       3.52716930       0.35060176       0.76698635      -0.05023690      -0.16373092       0.30581046      -0.07740042      -8.68689488
Si       8.62451197       2.83874639       6.65921828       0.40462745       0.13433224      -0.82862206      -0.09430814      -0.09711564       0.15041980      -8.77197497
Si       6.71033858       3.86145851       0.33416414       0.25512564       0.22301391       1.51033268      -0.45652334      -0.13869878      -0.31399801      -8.71571770
Si       8.64708420       4.95414470       3.49819832      -0.58749964       0.52397516       0.27856847       0.09788816      -0.08766653      -0.14083614      -8.77098470
Si      10.66931698       6.10828014       6.54554975      -3.09538385      -1.13810642       1.67762675      -0.59986513      -0.32871283       0.19925224      -8.72739801
Si       8.63180066       7.27391330       0.52748439       0.25900876      -0.91202044      -1.49076814       0.14223993      -0.42102603      -0.53650070      -8.73270724
Si      10.65276853       8.39896236       3.54384617       0.10097302       0.25600743       1.49680983      -0.53737813      -0.91842212       0.01718171      -8.73828853
Si      12.55402858       9.46572545       6.74504243      -0.71351826       0.88592483      -1.74649383       0.09339028       0.15234137      -0.21920090      -8.74131502
Si       8.58457930       0.51874207       0.42843144       1.11534496       0.85858186       0.06474625       0.29094604       0.02052386      -0.49048091      -8.71129783
Si      10.53117613       1.63698754       3.49786226      -0.98851690      -0.30879511       0.03555767       0.65490970       0.25161682       0.30461560      -8.76209506
Si      12.45149478       2.74007557       6.69959157       0.06315121      -0.08391325       0.29591922       0.69642155       0.52095997      -0.19124490      -8.72067654
Si      10.56881084       3.87019875       0.30267529       0.48165324       0.65058626       0.41523917      -0.19803866      -0.18621860       0.52960468      -8.74884144
Si      12.53877381       4.93742606       3.44318145       0.11006976       0.19707112      -0.45305248       0.04876079      -0.28648174       0.42681199      -8.72537991
Si      14.49912973       6.16532225       6.64508009       1.08285948      -0.34284460       0.78870391      -0.67866206      -0.09134254      -0.06401960      -8.77314399
Si      12.45935614       7.14892045       0.37206313       0.37414604       0.09645320      -0.08903145       0.10217310      -0.33200198       0.20406517      -8.72740045
Si      14.40589136       8.33029047       3.50312294      -0.14766279       0.73561155       1.39198020       0.28456562      -0.40399315       0.07130603      -8.73986430
Si      16.29298142       9.47828824       6.66791923       1.17654050      -0.22493477       0.20035783       0.41679881       0.75865632       0.07527388      -8.74211219
54
Lattice="11.5478352 0.0 0.0 5.773917198490155 10.000722372470358 0.0 5.773916394327279 3.333571176804646 9.428767828939895" Properties=species:S:1:pos:R:3:momenta:R:3:forces:R:3:energies:R:1 spacegroup="_JSON {\"number\": 1, \"setting\": 1}" unit_cell=conventional occupancy="_JSON {\"0\": {\"Si\": 1.0}, \"1\": {\"Si\": 1.0}, \"2\": {\"Si\": 1.0}, \"3\": {\"Si\": 1.0}, \"4\": {\"Si\": 1.0}, \"5\": {\"Si\": 1.0}, \"6\": {\"Si\": 1.0}, \"7\": {\"Si\": 1.0}, \"8\": {\"Si\": 1.0}, \"9\": {\"Si\": 1.0}, \"10\": {\"Si\": 1.0}, \"11\": {\"Si\": 1.0}, \"12\": {\"Si\": 1.0}, \"13\": {\"Si\": 1.0}, \"14\": {\"Si\": 1.0}, \"15\": {\"Si\": 1.0}, \"16\": {\"Si\": 1.0}, \"17\": {\"Si\": 1.0}, \"18\": {\"Si\": 1.0}, \"19\": {\"Si\": 1.0}, \"20\": {\"Si\": 1.0}, \"21\": {\"Si\": 1.0}, \"22\": {\"Si\": 1.0}, \"23\": {\"Si\": 1.0}, \"24\": {\"Si\": 1.0}, \"25\": {\"Si\": 1.0}, \"26\": {\"Si\": 1.0}, \"27\": {\"Si\": 1.0}, \"28\": {\"Si\": 1.0}, \"29\": {\"Si\": 1.0}, \"30\": {\"Si\": 1.0}, \"31\": {\"Si\": 1.0}, \"32\": {\"Si\": 1.0}, \"33\": {\"Si\": 1.0}, \"34\": {\"Si\": 1.0}, \"35\": {\"Si\": 1.0}, \"36\": {\"Si\": 1.0}, \"37\": {\"Si\": 1.0}, \"38\": {\"Si\": 1.0}, \"39\": {\"Si\": 1.0}, \"40\": {\"Si\": 1.0}, \"41\": {\"Si\": 1.0}, \"42\": {\"Si\": 1.0}, \"43\": {\"Si\": 1.0}, \"44\": {\"Si\": 1.0}, \"45\": {\"Si\": 1.0}, \"46\": {\"Si\": 1.0}, \"47\": {\"Si\": 1.0}, \"48\": {\"Si\": 1.0}, \"49\": {\"Si\": 1.0}, \"50\": {\"Si\": 1.0}, \"51\": {\"Si\": 1.0}, \"52\": {\"Si\": 1.0}, \"53\": {\"Si\": 1.0}}" energy=-471.4382515432787 stress="0.0015431123174711242 -0.0007652271386721646 -0.0005170727794157006 -0.0007652271386721646 -0.0028376641750176386 0.001717830089999584 -0.0005170727794157006 0.001717830089999584 -0.003928857350319526" free_energy=-471.4382515432787 pbc="T T T"
Si       6.66370832       3.80835661       2.73945325      -0.63702295      -1.46084651       1.53870268       0.96588409       0.96786141      -0.21690985      -8.75048258
Si       8.68900711       4.97824123       5.92754443       0.75191121      -0.44423525       1.53458729      -1.35002500       0.68783730      -1.14718021      -8.72473805
Si      10.62397038       6.08557556       8.97158346       1.87961374       2.30964362       1.25734200      -0.40369963       0.29504887       0.11135587      -8.77572194
Si       8.58374905       7.25012847       2.77431989      -0.97201020       1.16456104      -1.86409727       1.22867913      -0.34481777       0.35086161      -8.69829670
Si      10.64278535       8.43611458       5.87936057      -0.94302172       0.62007666       0.25361562      -0.69927906      -1.35955648       0.80425468      -8.69484335
Si      12.56407522       9.43797908       9.00775683       0.28022455      -0.40664934      -1.53084839      -0.89643974       0.04675672       0.50179336      -8.70474012
Si      10.62164557      10.55344777       2.76894305       1.99074986       0.56912827       1.67155925      -0.57111553       0.14691853      -0.25462872      -8.75026567
Si      12.50742129      11.66380259       5.87413479       0.12337060       0.02268100      -0.89297440       0.12364261       0.69955579      -0.17459146      -8.74631878
Si      14.35943913      12.74054892       9.00730768      -0.73476991      -0.10381816       0.06741911       0.57356828       0.79283466       0.37349032      -8.67561985
Si      10.60215192       3.85977735       2.75584890       0.66839935       0.84714982       0.99616693      -0.54137510       0.11073645      -0.65641148      -8.74919557
Si      12.52101292       4.96279861       5.84457692      -1.68296569      -0.39721123       0.27087133       0.13507625       0.35866365       0.10259654      -8.67754618
Si      14.38584419       6.05889625       8.96153456       0.12542027      -0.38625813       0.33976873       0.53664482       0.57438664       1.01294716      -8.74972749
Si      12.54816939       7.21751869       2.75810402       0.59850029       0.70119572       0.16961552      -0.55912615      -0.30102081      -0.20333617      -8.71972129
Si      14.45410150       8.43347320       5.84188032      -0.35113209       0.61221133       0.37725341      -0.13306005      -0.85768406       1.06868471      -8.70462037
Si      16.33265437       9.48968047       9.01696637       1.51741692       1.27387939       0.52885704      -0.05317295      -0.69653198       0.26159364      -8.75917720
Si      14.40946199      10.51476903       2.79738725      -0.51848942      -0.30624983      -0.17585688      -0.39543644       0.55802338      -0.82842572      -8.74309525
Si      16.27042790      11.65237792       5.89894894       0.03575919      -1.70697056       0.60081587       0.88356724       0.55774131      -0.40309537      -8.72664021
Si      18.23261388      12.73237665       9.02283747       0.52291312       1.44778217      -0.46440610       0.27451678       0.33691838       0.58779951      -8.72902220
Si      14.48908133       3.82018404       2.75925981      -0.65686530       1.17143357       0.15952641       0.03880256       0.85829533      -0.61679122      -8.73363345
Si      16.40324827       5.04206617       5.85047634       0.60433642      -1.72134667      -0.54915892       0.30542961      -0.36035902       0.92831117      -8.74920506
Si      18.29763468       6.11876901       9.00284385      -0.88969885      -0.59739038      -1.12037648      -0.08139425       0.40401357       0.39950536      -8.75864826
Si      16.37636947       7.27112335       2.83801371      -0.17412165       1.33047101       0.63519010      -0.33398294      -0.69320976      -0.56278653      -8.70806585
Si      18.25931526       8.36246008       5.90580911      -0.08796080      -1.31153720      -1.46870328       0.51960406       0.50376853       0.65574461      -8.74621601
Si      20.23355984       9.41561952       9.07809177      -1.07959269      -0.51548625      -1.23552168      -0.25247934       0.03394121      -0.28401065      -8.76862798
Si      18.29299059      10.53925783       2.74238575      -0.46269938      -0.89212174      -0.08777563      -0.35285385       0.01912462       1.10286387      -8.70165352
Si      20.23888550      11.63678436       5.90060233      -0.72050531      -1.09626646      -1.34001658      -0.30377594       0.50140646       0.05365179      -8.72523658
Si      22.15532759      12.79304793       9.07696641       0.55439333       0.82360751      -0.06467332      -0.03847774       0.25579105      -0.10504963      -8.73867205
Si       0.98188912       0.63396214       0.47471494       0.50746373      -0.45719954       0.66892243      -0.27825775      -0.89551103      -1.26479855      -8.74891214
Si       2.88685858       1.67078345       3.51361953      -0.50562773       0.66571813      -1.34510543       0.21817316      -0.76868649       0.64087484      -8.74915935
Si       4.86567211       2.78756550       6.68181399       1.18657879       0.30643186      -0.39022626      -0.58433143       0.23986149       0.21725055      -8.72543387
Si       2.92817992       3.84548981       0.35797743      -0.07469370      -1.00011869       0.15515040       0.03869254       0.04155455       0.42494575      -8.72338541
Si       4.86688711       4.98426030       3.56638222      -0.66405641       0.93367629       0.48441975      -0.81376760       0.37024006      -0.64557910      -8.72635583
Si       6.75926593       6.20906860       6.68102000      -0.36232010      -1.13132795      -0.14820673       0.04960242      -1.26723130      -0.20965763      -8.70657536
Si       4.78794427       7.23755851       0.44118271      -0.97139198      -0.47652688       0.15767431       0.81074690      -0.10705212      -0.00943441      -8.71773389
Si       6.73110727       8.30478868       3.63600243       0.85233590      -0.65395429      -1.17260523      -0.09225055       0.85956203      -1.00372790      -8.75720165
Si       8.67652645       9.43427560       6.70380677      -0.94156340       0.12279453      -1.12650225       0.04444073       0.15085198       0.02222158      -8.73433908
Si       4.77908118       0.61122605       0.41202947      -0.58107332       0.21918407       0.50387565      -0.05009918      -1.20656411      -0.36918903      -8.69801787
Si       6.71535441       1.68243231       3.52698605       0.40050402       0.43795869       0.15894609       0.27644598      -0.77080747       0.36134417      -8.73368676
Si       8.63759010       2.82781819       6.63173032       0.03979477      -0.78114324      -0.05572009      -0.29413189      -0.95190024       0.77214170      -8.74745561
Si       6.71338417       3.86948119       0.39525168       0.05633133       0.13564742       0.75804084       0.31238940       0.07471698      -0.53439854      -8.73832371
Si       8.62058442       4.97771693       3.51321386      -0.39801769       0.38720520       0.38811954       0.18863293      -0.04422567       0.22354866      -8.68280969
Si      10.51444428       6.05607974       6.63561379      -2.15755351      -0.45621768       1.68837640       1.90160049       1.20786989      -0.07101237      -8.66306172
Si       8.64919098       7.21707716       0.42987713       0.35842145      -1.07878393      -2.14404917      -0.03877101       0.26450114      -0.19314081      -8.79040349
Si      10.63526502       8.37562149       3.60521552      -0.76829424      -1.08466080       0.52457335      -0.53232457      -0.67358138      -1.19058783      -8.70779765
Si      12.52701728       9.51070755       6.65285799      -0.23030467       0.67205863      -1.59749917       0.40997219      -0.45232521       0.43981814      -8.76725893
Si       8.64754788       0.55563347       0.41443198       1.14163645       0.39747079      -0.53583084      -0.27206837      -0.55834335      -0.24112652      -8.72383214
Si      10.51338693       1.63013383       3.51526515       0.37899679       0.02516605       0.64929167       0.91005543       0.16101695       0.38199614      -8.72687451
Si      12.47676731       2.74920696       6.69974539       0.76824692       0.28383008      -0.40400605       0.18193612      -0.05553324      -0.61593022      -8.74444844
Si      10.58200438       3.89640423       0.34329759      -0.02941790       0.35119404       1.06475433      -0.39231787      -0.17806340       0.25822891      -8.68724551
Si      12.54749573       4.94299977       3.44353712       0.22157117       0.16808730       0.57251349       0.03499588       0.30339982       0.83024025      -8.76373027
Si      14.51896925       6.14794634       6.66918025      -0.43586373      -0.28624410      -0.09334370      -1.10851381       0.04389389      -0.90653697      -8.70152107
Si      12.48713476       7.15367286       0.37776965       0.75869115       0.34662389       0.33548293       0.38125398       0.67615686       0.31446277      -8.74741881
Si      14.41205690       8.35101390       3.57113998       0.39779321       0.04958838       1.04076061       0.33486459      -0.40825546      -0.53705283      -8.76923532
Si      16.36279965       9.48782601       6.68013066       1.30965978       0.35610835       0.25531077      -0.25669044      -0.15198916       0.04286204      -8.74630189
54
Lattice="11.5478352 0.0 0.0 5.773917198490155 10.000722372470358 0.0 5.773916394327279 3.333571176804646 9.428767828939895" Properties=species:S:1:pos:R:3:momenta:R:3:forces:R:3:energies:R:1 spacegroup="_JSON {\"number\": 1, \"setting\": 1}" unit_cell=conventional occupancy="_JSON {\"0\": {\"Si\": 1.0}, \"1\": {\"Si\": 1.0}, \"2\": {\"Si\": 1.0}, \"3\": {\"Si\": 1.0}, \"4\": {\"Si\": 1.0}, \"5\": {\"Si\": 1.0}, \"6\": {\"Si\": 1.0}, \"7\": {\"Si\": 1.0}, \"8\": {\"Si\": 1.0}, \"9\": {\"Si\": 1.0}, \"10\": {\"Si\": 1.0}, \"11\": {\"Si\": 1.0}, \"12\": {\"Si\": 1.0}, \"13\": {\"Si\": 1.0}, \"14\": {\"Si\": 1.0}, \"15\": {\"Si\": 1.0}, \"16\": {\"Si\": 1.0}, \"17\": {\"Si\": 1.0}, \"18\": {\"Si\": 1.0}, \"19\": {\"Si\": 1.0}, \"20\": {\"Si\": 1.0}, \"21\": {\"Si\": 1.0}, \"22\": {\"Si\": 1.0}, \"23\": {\"Si\": 1.0}, \"24\": {\"Si\": 1.0}, \"25\": {\"Si\": 1.0}, \"26\": {\"Si\": 1.0}, \"27\": {\"Si\": 1.0}, \"28\": {\"Si\": 1.0}, \"29\": {\"Si\": 1.0}, \"30\": {\"Si\": 1.0}, \"31\": {\"Si\": 1.0}, \"32\": {\"Si\": 1.0}, \"33\": {\"Si\": 1.0}, \"34\": {\"Si\": 1.0}, \"35\": {\"Si\": 1.0}, \"36\": {\"Si\": 1.0}, \"37\": {\"Si\": 1.0}, \"38\": {\"Si\": 1.0}, \"39\": {\"Si\": 1.0}, \"40\": {\"Si\": 1.0}, \"41\": {\"Si\": 1.0}, \"42\": {\"Si\": 1.0}, \"43\": {\"Si\": 1.0}, \"44\": {\"Si\": 1.0}, \"45\": {\"Si\": 1.0}, \"46\": {\"Si\": 1.0}, \"47\": {\"Si\": 1.0}, \"48\": {\"Si\": 1.0}, \"49\": {\"Si\": 1.0}, \"50\": {\"Si\": 1.0}, \"51\": {\"Si\": 1.0}, \"52\": {\"Si\": 1.0}, \"53\": {\"Si\": 1.0}}" energy=-471.270109987233 stress="-0.0022199691573875843 0.0005021220928794255 -3.3044996399420823e-06 0.0005021220928794255 -0.0008440446703033151 -0.00029672028949634247 -3.3044996399420823e-06 -0.00029672028949634247 -0.0015780647598156543" free_energy=-471.270109987233 pbc="T T T"
Si       6.66343473       3.78748078       2.80335689       0.51357592       0.86898060       0.77449064       0.52238875       1.72173755      -0.68631026      -8.69956181
Si       8.67065194       4.97249568       5.95962150      -1.30009016       0.05407259      -0.25935384      -0.74630613       0.02531594      -0.94069099      -8.74951305
Si      10.69134412       6.19468854       9.03977581       0.43528035       1.41881143       1.29710754      -1.34603733      -1.36141992      -0.04543153      -8.73525778
Si       8.58661147       7.28426428       2.68619270       1.08402960      -0.06633771      -1.56595793       1.19488188      -1.12491741       0.09245877      -8.70047356
Si      10.57162961       8.41260432       5.91779272      -1.58767255      -1.48998515       1.00372999       0.00721895      -1.22609970      -0.00194091      -8.70782026
Si      12.54203128       9.41978236       8.94989426      -1.08617876      -0.24364454      -0.63146251      -0.75049465       0.21616555       0.66598535      -8.69479309
Si      10.68722416      10.57768204       2.83729057       0.24190284       0.13155070       0.76493206      -1.57793937      -0.70220223      -0.90351883      -8.68220528
Si      12.51965019      11.69117287       5.82738294       0.32651533       0.90555437      -0.69715673       0.05905736       0.24666822       0.57102524      -8.74362813
Si      14.34749916      12.75922200       9.02235667       0.34764236       0.63604143       0.43503538       0.82848109       0.09558900       0.09227032      -8.72146561
Si      10.61384050       3.90323047       2.78470322      -0.21626862       0.71332571       0.18848775      -0.51318431      -0.26563238      -0.31871523      -8.74990798
Si      12.44191355       4.96120154       5.86378434      -1.23970006       0.40321663       0.48008566       0.49502721       0.60862751       0.17917529      -8.70845374
Si      14.41167417       6.06641445       9.01080098       0.80523228       0.71402064       1.30419366       0.31717838       0.71665987       0.10543547      -8.75422594
Si      12.55740935       7.23834925       2.76321980      -0.21937042       0.04985194       0.11539021      -0.44954403      -0.45737433       0.14718291      -8.72798040
Si      14.43887494       8.43141693       5.90170921      -0.08405305      -0.68432551       1.75197290       0.42815847      -0.81650983       0.47760092      -8.72294555
Si      16.40853915       9.52159889       9.05036027       1.34361767      -0.13621997       0.66360594      -0.18017061      -0.99250687      -0.05330295      -8.74812739
Si      14.37978857      10.52121090       2.75967299      -0.32827229       0.49723161      -1.13972658       0.70755903       0.34233256      -0.34384686      -8.70960628
Si      16.30730323      11.59876172       5.91406012       1.32278660      -0.15059512       0.00201578       0.68883361       1.24666227      -0.28360944      -8.73072559
Si      18.26858273      12.81322143       9.02009017       0.78764682       1.45911114       0.26936683       0.02968618      -0.35019110       0.23769177      -8.72000504
Si      14.45821353       3.90518093       2.74551883      -0.50523268       1.79951980      -0.59768983       0.09065980      -0.18019930      -0.27967277      -8.75738016
Si      16.43411772       4.95187491       5.85817689       0.29646080      -1.42908640       0.71926579      -0.77635300       0.76059951       0.44530488      -8.75579435
Si      18.25211323       6.10100488       8.97054332      -0.76121058      -0.14418622       0.04581664       0.25063325       0.15449471       0.99121010      -8.72636715
Si      16.35740057       7.30812960       2.84447963      -0.45493941       0.01903592      -0.46509594       0.02813261      -0.91921401      -0.85208623      -8.72947230
Si      18.27342643       8.31007757       5.85462491       0.55726030      -0.78818766      -0.53863897       0.24219393       0.10945559       0.43949322      -8.72294468
Si      20.17388953       9.38819384       9.00888128      -1.03815245      -0.52523367      -1.25066705       0.35495120       0.05658105       0.31127238      -8.73965897
Si      18.26005905      10.49986970       2.77563497      -0.66932612      -0.45449277       1.11574647       0.13329256       0.62784884       0.17846354      -8.73874631
Si      20.19855659      11.60982194       5.83463972      -0.64207504       0.21363710      -1.11821281       0.38817400       1.05260867       0.28104307      -8.69846769
Si      22.18368561      12.83362341       9.06830655       0.51013421       0.46165028      -0.29624588      -0.11249365      -0.76338114      -0.22195408      -8.73729792
Si       0.99338488       0.58417554       0.46226322      -0.13737638      -1.21219196      -0.96847459      -0.53194622       0.00116591      -0.58872227      -8.76209841
Si       2.87290578       1.67673519       3.46837809       0.02639445      -0.32970177      -0.40335785       0.41698049      -0.35195675       0.54349868      -8.72210373
Si       4.89534951       2.80009273       6.67021691      -0.19168693      -0.07884026      -0.04204543      -1.11349779      -0.73153852       0.24469251      -8.68693601
Si       2.92066477       3.80364852       0.37691276      -0.31034597      -0.42416369       0.43583954      -0.34656304       0.70202090      -0.08685474      -8.70990069
Si       4.80895832       5.04124453       3.56297934      -1.33107949       1.08716422      -0.58060226       0.02308044      -0.22371184      -0.51013037      -8.72647021
Si       6.74301893       6.10918126       6.66208776      -0.25786856      -2.39485239      -0.57016272       0.03971338      -0.15889310      -0.17517176      -8.75496591
Si       4.76770984       7.21231633       0.44303313       0.12979906      -0.42434304      -0.20746709       0.53365019       0.13308462      -0.47434376      -8.64639677
Si       6.76397415       8.30606971       3.54556296       0.28479644       0.63678130      -2.00998955      -0.52118833       0.57243404       0.01860499      -8.77268635
Si       8.62728873       9.44259578       6.64851097      -0.94876473       0.14102750      -0.91426053       0.00125821      -0.05520734       0.27968059      -8.77520092
Si       4.75438412       0.58869104       0.42625027      -0.20349576      -0.79419686       0.09443877       0.55675338      -0.09814606      -0.14557314      -8.65378679
Si       6.75187403       1.67170082       3.54934335       1.01934861      -0.77450652       0.60048367       0.35615965      -0.47452195      -0.01439383      -8.75092682
Si       8.63303521       2.75622743       6.65684881      -0.08383321      -1.70764951       0.92255235       0.20983576      -0.02459480       0.41456594      -8.73834319
Si       6.74070812       3.88446461       0.42197566       1.15786036       0.51457839       0.41990104       0.93925011       0.36492994       0.06924110      -8.73104615
Si       8.60815660       4.99884315       3.54239696      -0.05439897       0.46061082       0.69107684       0.27074329       0.12128495       0.09013874      -8.65857449
Si      10.48471010       6.08494205       6.72179260       0.94826523       1.50118606       1.53777530       1.59430689       0.97136123      -0.30301742      -8.68814067
Si       8.66378009       7.17792149       0.31759097       0.15301554      -0.30899048      -1.97599681      -0.20663557       0.66250138       0.43028111      -8.77280841
Si      10.57927787       8.30387847       3.58806279      -1.23458327      -1.41147410      -1.03553524      -0.00572182       0.26277291      -0.63541651      -8.72025886
Si      12.52373332       9.52506633       6.59010574      -0.08295439      -0.14763890      -0.73967526      -0.31049288      -0.54211589       0.65293964      -8.74887178
Si       8.69241333       0.55587978       0.38231534       0.50542151      -0.30569210      -0.58974089      -0.50682905      -0.22727713       0.14289378      -8.76768900
Si      10.55767710       1.63589331       3.55837141       1.05679140       0.17968642       0.85096905      -0.07664261       0.10683591      -0.17812565      -8.72395973
Si      12.51714967       2.75700541       6.65944064       0.64510183      -0.03243718      -0.97876934      -0.31453081      -0.22477532      -0.01727514      -8.74986440
Si      10.56865829       3.90988179       0.40357685      -0.38318848       0.19885701       1.11661202      -0.00972110      -0.03332828      -0.19919941      -8.70417638
Si      12.55572807       4.96991375       3.50258640      -0.02392587       0.92747742       1.55588190      -0.40797195       0.56149298       0.33565695      -8.77088879
Si      14.45988277       6.13071025       6.63592721      -1.63856524      -0.45079065      -0.94324838      -0.39423163      -0.25927247      -0.01278590      -8.65764055
Si      12.54148519       7.20515573       0.40563910       1.25759723       1.66538810       0.66130731       0.15784456       0.85187071       0.05208070      -8.76095018
Si      14.44006153       8.34492836       3.60430509       0.52509167      -0.11944636       0.26575503      -0.22539178       0.21719862      -0.37505823      -8.77387050
Si      16.41762199       9.48618720       6.69738581       0.73304103      -0.62915865       0.43569793      -0.44219696      -0.94531327       0.15726025      -8.72872828
54
Lattice="11.5478352 0.0 0.0 5.773917198490155 10.000722372470358 0.0 5.773916394327279 3.333571176804646 9.428767828939895" Properties=species:S:1:pos:R:3:momenta:R:3:forces:R:3:energies:R:1 spacegroup="_JSON {\"number\": 1, \"setting\": 1}" unit_cell=conventional occupancy="_JSON {\"0\": {\"Si\": 1.0}, \"1\": {\"Si\": 1.0}, \"2\": {\"Si\": 1.0}, \"3\": {\"Si\": 1.0}, \"4\": {\"Si\": 1.0}, \"5\": {\"Si\": 1.0}, \"6\": {\"Si\": 1.0}, \"7\": {\"Si\": 1.0}, \"8\": {\"Si\": 1.0}, \"9\": {\"Si\": 1.0}, \"10\": {\"Si\": 1.0}, \"11\": {\"Si\": 1.0}, \"12\": {\"Si\": 1.0}, \"13\": {\"Si\": 1.0}, \"14\": {\"Si\": 1.0}, \"15\": {\"Si\": 1.0}, \"16\": {\"Si\": 1.0}, \"17\": {\"Si\": 1.0}, \"18\": {\"Si\": 1.0}, \"19\": {\"Si\": 1.0}, \"20\": {\"Si\": 1.0}, \"21\": {\"Si\": 1.0}, \"22\": {\"Si\": 1.0}, \"23\": {\"Si\": 1.0}, \"24\": {\"Si\": 1.0}, \"25\": {\"Si\": 1.0}, \"26\": {\"Si\": 1.0}, \"27\": {\"Si\": 1.0}, \"28\": {\"Si\": 1.0}, \"29\": {\"Si\": 1.0}, \"30\": {\"Si\": 1.0}, \"31\": {\"Si\": 1.0}, \"32\": {\"Si\": 1.0}, \"33\": {\"Si\": 1.0}, \"34\": {\"Si\": 1.0}, \"35\": {\"Si\": 1.0}, \"36\": {\"Si\": 1.0}, \"37\": {\"Si\": 1.0}, \"38\": {\"Si\": 1.0}, \"39\": {\"Si\": 1.0}, \"40\": {\"Si\": 1.0}, \"41\": {\"Si\": 1.0}, \"42\": {\"Si\": 1.0}, \"43\": {\"Si\": 1.0}, \"44\": {\"Si\": 1.0}, \"45\": {\"Si\": 1.0}, \"46\": {\"Si\": 1.0}, \"47\": {\"Si\": 1.0}, \"48\": {\"Si\": 1.0}, \"49\": {\"Si\": 1.0}, \"50\": {\"Si\": 1.0}, \"51\": {\"Si\": 1.0}, \"52\": {\"Si\": 1.0}, \"53\": {\"Si\": 1.0}}" energy=-471.28943865153775 stress="-0.0036852173301748703 0.0010248423489318678 0.0006642976684925867 0.0010248423489318678 0.0012585287976947085 -0.0015852717420807116 0.0006642976684925867 -0.0015852717420807116 0.0008418078637629833" free_energy=-471.28943865153775 pbc="T T T"
Si       6.70362976       3.88407171       2.82043162       0.88440577       2.43058328      -0.04210580      -0.01238638       0.23379080      -0.36734996      -8.70506243
Si       8.60454442       4.97031014       5.92469140      -0.66028300      -0.24224757      -0.77848907       1.40348740      -0.37156292       0.22009829      -8.68682720
Si      10.67021029       6.21306605       9.10901084      -0.97761648      -0.67272559       1.39790419      -0.34393243      -1.18099437       0.14832345      -8.72306986
Si       8.66963087       7.24031327       2.60681836       1.63143785      -1.48393169      -1.44092991      -0.53409954      -0.62775952       0.16074238      -8.72971431
Si      10.49925473       8.30505513       5.95530614      -1.00549514      -2.13850915       0.14478452       0.64538926       0.62453939      -1.10009181      -8.71814390
Si      12.46684153       9.41794300       8.93995858      -1.52687761       0.20456946       0.17702448       0.24829873       0.32446189       0.35859482      -8.73529915
Si      10.64597092      10.55478203       2.84224136      -1.54793451      -0.98330866      -0.53320948      -0.53832493      -0.61776723      -0.73020047      -8.70664229
Si      12.53478229      11.73462651       5.82208208       0.16628853       0.49405887       0.59696518      -0.26008897      -0.75037245       0.94084027      -8.74681074
Si      14.39546029      12.78764871       9.04565668       1.38050383       0.33219730       0.41108419       0.42409891      -0.35032622      -0.07196097      -8.76161077
Si      10.58880008       3.92885002       2.79135344      -0.61318930       0.24825826       0.23103724      -0.02407613      -0.32176198       0.32175782      -8.72298117
Si      12.39838985       5.00145156       5.89738790      -0.39542879       0.99511193       0.81730313       0.57669340       0.07374575       0.23175572      -8.75615680
Si      14.46117598       6.12232593       9.06932833       0.97333828       1.18817053       0.68100694      -0.10868645      -0.17026471      -0.85409912      -8.71293699
Si      12.53401796       7.22959373       2.77822840      -0.55573732      -0.21419433       0.48482737       0.01153114       0.20764654       0.24822946      -8.74753514
Si      14.45088241       8.36973885       5.99615550       0.47264973      -1.51053078       1.54660212       0.15472996      -0.19498873      -0.70095997      -8.75349547
Si      16.47180405       9.48506057       9.08182380       1.04807579      -1.02360277       0.51121001      -0.25669197      -0.07743014      -0.15707602      -8.73477358
Si      14.40006749      10.55166124       2.69665838       1.21462924       0.50453814      -1.05212609       1.12573008      -0.26922876       0.48395165      -8.70586340
Si      16.39321996      11.62672531       5.91100112       1.70106051       0.88479086       0.02944049      -0.30429571      -0.03668936       0.27606293      -8.76358620
Si      18.30639722      12.87059367       9.03374281       0.56007011       0.64943062       0.07378108      -0.32826178      -0.64552529      -0.44989631      -8.72825213
Si      14.43084873       3.98007467       2.71191133      -0.62919474       0.85764929      -0.51129891      -0.25301928      -0.95147071       0.39169723      -8.72364288
Si      16.40767336       4.91246945       5.89717141      -1.47432775      -0.04342851       0.50265170      -1.40854679       0.86531694      -0.57449711      -8.70714620
Si      18.22380405       6.09476450       9.00588526      -0.29488149      -0.17187675       1.13376630       0.33570874      -0.14889267       0.33657725      -8.70229937
Si      16.33883731       7.28113607       2.78853155      -0.20752830      -0.84851263      -1.59695148       0.20049079      -0.13715795      -0.56048334      -8.76910220
Si      18.30397559       8.26552444       5.83441961       0.44298470      -1.01976004      -0.39013757      -0.39174121      -0.31306391      -0.17712132      -8.69932167
Si      20.13843714       9.36811861       8.96105980      -0.24025473      -0.11086023      -0.48529740       0.63633970       0.55630102       0.64145727      -8.69235108
Si      18.23665815      10.50748914       2.82178238      -0.11087882       0.83492851       0.32178967       0.56314706       0.94317114      -1.06606953      -8.72830318
Si      20.18499741      11.65478463       5.79013641       0.18439898       1.29156423      -0.50817966       0.59982186       0.23245633       0.54354707      -8.73335622
Si      22.20015910      12.81959774       9.04286179      -0.01814753      -1.10079067      -0.67915457      -0.62488444      -1.14855785      -0.23387480      -8.73863036
Si       0.96881227       0.53243899       0.40659022      -0.68096394      -0.57613672      -0.84766508      -0.07033738       0.70523038       0.60175188      -8.73138815
Si       2.88707455       1.65790927       3.46242665       0.41458694      -0.16177458       0.05995682       0.02955236       0.53316574       0.08499344      -8.70696951
Si       4.84559608       2.76315459       6.67509486      -1.57491034      -1.30482279       0.15181842      -0.58297965      -0.61524785      -0.05438930      -8.71265829
Si       2.88769905       3.81153401       0.39069690      -0.97958680       0.73815359       0.00434965      -0.46348014       0.74305975      -0.41387036      -8.74769895
Si       4.75121387       5.08243020       3.52470474      -0.67946612       0.35579347      -0.65574006       0.75825641      -0.71326307       0.35058642      -8.73228173
Si       6.72708680       5.99762026       6.63571739      -0.43373510      -1.49218932      -0.21457653      -0.27427561       1.24327333       0.65731828      -8.75493636
Si       4.78572708       7.19506600       0.41088324       0.36162778      -0.24419824      -1.03110925      -0.23779848       0.09189563      -0.51371069      -8.66156595
Si       6.76445905       8.34293791       3.45208960      -0.12295964       0.39747929      -1.37756064       0.01989699      -0.83581559       0.70480325      -8.74633654
Si       8.58033383       9.44920838       6.61246895      -0.75466965       0.14038238      -0.45124194       0.32986594       0.04806887       0.30930883      -8.77530046
Si       4.76912221       0.55487234       0.42951512       0.79387361      -0.31802972       0.09461078       0.65741167       0.59206036       0.10590790      -8.67727077
Si       6.80816405       1.63034882       3.56712742       0.86694111      -0.48470666      -0.13985892      -0.62942143       0.74909945      -0.83164830      -8.75768511
Si       8.64439961       2.68206296       6.71258524       0.63734010      -0.83955453       1.02378997       0.66789494       1.06156666      -0.28787186      -8.70454234
Si       6.82671583       3.92326743       0.44952593       1.78604354       0.88608525       0.63271694      -0.34272935       0.06911662       0.08987698      -8.75556689
Si       8.61643948       5.02861758       3.57679788       0.38345534       0.67387930       0.50466822       0.31826623       0.11431054      -0.35446469      -8.72520265
Si      10.56670825       6.17853820       6.78657898       1.62438950       1.56638072       0.91097281      -0.56499326      -0.98726078      -0.36476454      -8.72173829
Si       8.66502729       7.18350993       0.23395288      -0.06197575       0.39853769      -1.16142547      -0.03858306       0.17724474       0.62793695      -8.72295291
Si      10.52347674       8.24824307       3.52466385      -0.71283139      -0.58466591      -1.08674345       0.68015439       0.74388950       0.51363073      -8.71297948
Si      12.49963851       9.49916948       6.57469043      -0.91015860      -0.79172463       0.10791143      -0.59157871      -0.35093408       0.47414437      -8.70119111
Si       8.70381467       0.54182515       0.35798540       0.05673521      -0.02492955      -0.33938840      -0.01162810       0.56044248       0.13859864      -8.77604101
Si      10.59919874       1.65209309       3.58912382       0.35690269       0.49127312       0.21022852      -0.72993937       0.30359771      -0.59976252      -8.71764313
Si      12.53701989       2.75354409       6.61776869       0.11778006       0.07360662      -0.42191555      -0.28230150       0.43971295       0.71261485      -8.73370616
Si      10.55584583       3.92055054       0.45141449       0.04774342       0.22661588       0.66995036       0.58252711       0.03669463      -0.33900044      -8.76298632
Si      12.53496308       5.03430050       3.58544795      -0.79508033       1.35211961       1.36330150      -0.50922748      -0.12284409      -0.59020158      -8.75737733
Si      14.37155056       6.09564687       6.60175821      -1.45742455      -0.87152860      -0.08249624       0.66959789      -0.19537095       1.06564185      -8.64033395
Si      12.60670234       7.31462518       0.43732834       1.08711724       2.21549223       0.46086056      -0.39164592      -0.29451158      -0.27406006      -8.74483630
Si      14.45364101       8.35204413       3.61006262      -0.05649631       0.42817811       0.05479699      -0.40781527       0.35832772       0.02039996      -8.72672142
Si      16.44215583       9.42259021       6.72409530       0.28365418      -1.60128793       0.51648985      -0.12112023      -0.20312410      -0.09372485      -8.74861283
54
Lattice="11.5478352 0.0 0.0 5.773917198490155 10.000722372470358 0.0 5.773916394327279 3.333571176804646 9.428767828939895" Properties=species:S:1:pos:R:3:momenta:R:3:forces:R:3:energies:R:1 spacegroup="_JSON {\"number\": 1, \"setting\": 1}" unit_cell=conventional occupancy="_JSON {\"0\": {\"Si\": 1.0}, \"1\": {\"Si\": 1.0}, \"2\": {\"Si\": 1.0}, \"3\": {\"Si\": 1.0}, \"4\": {\"Si\": 1.0}, \"5\": {\"Si\": 1.0}, \"6\": {\"Si\": 1.0}, \"7\": {\"Si\": 1.0}, \"8\": {\"Si\": 1.0}, \"9\": {\"Si\": 1.0}, \"10\": {\"Si\": 1.0}, \"11\": {\"Si\": 1.0}, \"12\": {\"Si\": 1.0}, \"13\": {\"Si\": 1.0}, \"14\": {\"Si\": 1.0}, \"15\": {\"Si\": 1.0}, \"16\": {\"Si\": 1.0}, \"17\": {\"Si\": 1.0}, \"18\": {\"Si\": 1.0}, \"19\": {\"Si\": 1.0}, \"20\": {\"Si\": 1.0}, \"21\": {\"Si\": 1.0}, \"22\": {\"Si\": 1.0}, \"23\": {\"Si\": 1.0}, \"24\": {\"Si\": 1.0}, \"25\": {\"Si\": 1.0}, \"26\": {\"Si\": 1.0}, \"27\": {\"Si\": 1.0}, \"28\": {\"Si\": 1.0}, \"29\": {\"Si\": 1.0}, \"30\": {\"Si\": 1.0}, \"31\": {\"Si\": 1.0}, \"32\": {\"Si\": 1.0}, \"33\": {\"Si\": 1.0}, \"34\": {\"Si\": 1.0}, \"35\": {\"Si\": 1.0}, \"36\": {\"Si\": 1.0}, \"37\": {\"Si\": 1.0}, \"38\": {\"Si\": 1.0}, \"39\": {\"Si\": 1.0}, \"40\": {\"Si\": 1.0}, \"41\": {\"Si\": 1.0}, \"42\": {\"Si\": 1.0}, \"43\": {\"Si\": 1.0}, \"44\": {\"Si\": 1.0}, \"45\": {\"Si\": 1.0}, \"46\": {\"Si\": 1.0}, \"47\": {\"Si\": 1.0}, \"48\": {\"Si\": 1.0}, \"49\": {\"Si\": 1.0}, \"50\": {\"Si\": 1.0}, \"51\": {\"Si\": 1.0}, \"52\": {\"Si\": 1.0}, \"53\": {\"Si\": 1.0}}" energy=-471.07919437878934 stress="-0.0007588018089191612 -0.0002588616093973581 -0.0002620432466915353 -0.0002588616093973581 8.84965891683464e-05 0.00030064541178932355 -0.0002620432466915353 0.00030064541178932355 0.0009023433372660163" free_energy=-471.07919437878934 pbc="T T T"
Si       6.74532450       4.00271441       2.80965130       0.64326948       1.77485182      -0.25812975      -0.25377110      -1.01836446       0.07358959      -8.70470590
Si       8.62810055       4.94538922       5.90342640       1.46831048      -0.59549114       0.14424584       1.06484699       0.06556804       0.89631666      -8.64368154
Si      10.61889532       6.14755406       9.18662232      -0.78826520      -1.46429985       1.48567882       0.41067241       0.24679348      -0.14009362      -8.68886816
Si       8.72207213       7.15103003       2.54096713       0.24345400      -1.62603987      -0.96942686      -1.02952718       0.53154531       0.54827733      -8.69864881
Si      10.46961575       8.23970035       5.91556033      -0.18722834      -0.08683642      -1.62886030       0.40759781       1.61430394      -0.93778875      -8.70801837
Si      12.40919730       9.43765082       8.95626345      -0.44625882       0.45069699       0.31415932       1.11060272      -0.04493600      -0.14759334      -8.73300812
Si      10.56375077      10.48864054       2.79324170      -1.24251341      -1.30768412      -1.17356697       0.80366018       0.29759132      -0.08518930      -8.72839755
Si      12.53306255      11.72622037       5.88022319      -0.20430087      -0.85545794       1.37717716      -0.15085559      -0.90022311      -0.00016951      -8.75097259
Si      14.47485822      12.79534386       9.06541369       1.46205747       0.06580583       0.35981273      -0.29724022       0.04685960      -0.01119231      -8.74483053
Si      10.55948986       3.93159066       2.81746187      -0.44724363      -0.08872535       0.72769924       0.20429588      -0.10262929       0.17627025      -8.71681485
Si      12.39614169       5.04750311       5.94653721       0.22945096       0.60592103       0.97077516       0.26657845      -0.51875563      -0.10022909      -8.74945875
Si      14.50445459       6.16948175       9.06962236       0.62423051       0.50801565      -0.63075542      -0.31140191      -0.55917787      -0.67789144      -8.69837716
Si      12.51048994       7.23677044       2.80892868      -0.24790517       0.64840732       0.57922328       0.37741770       0.81269878      -0.15964537      -8.74412540
Si      14.47239031       8.29258052       6.04339604       0.17768813      -1.24903595       0.17157263      -0.49676173       0.51816211      -1.02019934      -8.72233802
Si      16.51586341       9.44146932       9.10097170       0.60890955      -0.41793118       0.18174984      -0.34162922       0.77503074      -0.29644801      -8.69810394
Si      14.49676740      10.56683000       2.66759403       2.16376759       0.09567872       0.04088754      -0.08561951      -0.19131591       0.84405884      -8.76200689
Si      16.45779044      11.65465876       5.92359163       0.56421357      -0.08361859       0.40806771      -1.04378310      -1.05817939       0.12293943      -8.72075801
Si      18.32297457      12.88395268       9.01785991       0.11524763      -0.02403617      -0.66032150      -0.15428739      -0.19704718      -0.36358242      -8.74291515
Si      14.38684494       3.98902566       2.70466105      -1.02344681      -0.44575979       0.27232853      -0.15446349      -0.66321271       0.52939054      -8.71137490
Si      16.28401436       4.93312269       5.90113869      -2.93944982       0.60484595      -0.29498586      -0.21451192      -0.02059911      -0.36659356      -8.71540579
Si      18.21919911       6.07977498       9.06709291       0.06929769      -0.37274301       0.98570097       0.14186685      -0.04538853      -0.50478349      -8.72185813
Si      16.33219512       7.24162242       2.69165578      -0.12361579      -0.50574959      -1.89213529      -0.09662582       0.45286408       0.24756271      -8.75365112
Si      18.30893531       8.20139998       5.80474952      -0.26092850      -1.33774145      -0.73625596      -0.41671298       0.02776949      -0.16050333      -8.72002052
Si      20.14813549       9.38965805       8.95751208       0.53205657       1.00507019       0.25279042       0.31902553       0.81867984       0.25557397      -8.71197369
Si      18.25223453      10.57846461       2.79671806       0.64894266       1.61277673      -1.19457794       0.33848754      -0.05266239      -0.73730115      -8.74436640
Si      20.20963350      11.71687972       5.78412010       0.50861055       0.79303019       0.22984007      -0.36514310      -0.87394042       0.34211645      -8.74930684
Si      22.17295560      12.72650563       9.00150675      -0.99334007      -2.16019382      -0.81139260      -0.51994552      -0.00681366       0.09773676      -8.74782483
Si       0.93804489       0.52555809       0.38751563      -0.37799238       0.16150100       0.08431946       0.37492940       0.11347079       0.46212216      -8.72810759
Si       2.90424764       1.67540707       3.46486631       0.15883275       0.86893547      -0.02071997      -0.28098321       0.67375635      -0.12880816      -8.73051537
Si       4.75559728       2.68675243       6.67616394      -1.50499989      -1.25816191      -0.17279028       0.79470305       0.73946020      -0.28807831      -8.74052180
Si       2.82306113       3.87255695       0.37718334      -1.34168987       1.42149523      -0.43010842       0.09780349       0.08609247      -0.06108325      -8.77849118
Si       4.74414596       5.07343589       3.50698542       0.32503290      -0.64688341      -0.01554138       0.42026460      -0.49932914       0.37019985      -8.74962065
Si       6.69345757       5.96745866       6.65259127      -0.80763933       0.22130274       0.82553200      -0.12249373       0.77526871       0.53336916      -8.74834958
Si       4.78751265       7.18409666       0.34293355      -0.40630413      -0.21670174      -1.40186750      -0.65826678      -0.08253347       0.10454721      -8.74186295
Si       6.76336381       8.32836196       3.40536031       0.13034232      -0.88903264      -0.48147063       0.21657761      -0.60334460       0.40122570      -8.70003180
Si       8.55660618       9.45767696       6.59837636      -0.12435708       0.14764906      -0.14150745       0.42297175      -0.08481631       0.08819366      -8.71774969
Si       4.83035498       0.55887243       0.43886116       1.38982627       0.35687436       0.24735298       0.06716338       0.14460147       0.05122231      -8.75999223
Si       6.82273108       1.63784834       3.53039574      -0.35909415       0.77009005      -1.13329644      -0.81417986       0.74389714      -0.34072201      -8.66679846
Si       8.70172458       2.68065701       6.74890151       1.44156656       0.73860086       0.26664834       0.24332447       0.86360159      -0.64636659      -8.73072083
Si       6.89040547       3.96842501       0.48202968       0.38959492       0.75257598       0.50477285      -1.32469647      -0.26713253      -0.31090304      -8.71425565
Si       8.64861753       5.06535988       3.58749665       0.81562347       0.63769377      -0.08408256       0.19913873      -0.23781264      -0.29087863      -8.75350634
Si      10.61620976       6.20502729       6.82848926       0.06508805      -0.72156113       0.80788620      -1.35102799      -1.58800807       0.07547220      -8.66192697
Si       8.66342468       7.20214964       0.19582332       0.05570743       0.15473709      -0.32960921       0.17783651      -0.42975991       0.47389848      -8.68300843
Si      10.51251269       8.24333423       3.49297956       0.21618748       0.28647315      -0.09471342       0.37335934       0.31044484       0.61191319      -8.73660851
Si      12.43636913       9.44517896       6.59550388      -1.31068045      -1.22841650       0.61686036       0.15482590      -0.18897927       0.19337080      -8.68811112
Si       8.71327964       0.56456469       0.34317658       0.39535418       0.86117431      -0.26047620       0.34045441       0.43486383       0.00802770      -8.74500438
Si      10.59274496       1.68941154       3.57971827      -0.46359704       0.88773036      -0.45830199      -0.17675819       0.12626267      -0.16370192      -8.75225534
Si      12.53877722       2.78097261       6.62541885       0.06988617       1.02515231       0.69001946       0.16619433       0.62452030       0.60299746      -8.72157318
Si      10.58412697       3.93229387       0.47637288       1.03131425       0.17264253       0.34646660       0.57133785      -0.14696978      -0.09010221      -8.77336959
Si      12.47803674       5.08989567       3.62969347      -1.25839546       0.58838791       0.30038450      -0.04569461      -0.80551691      -0.67941331      -8.72713227
Si      14.32967814       6.04863521       6.64269968      -0.04257049      -0.76829984       1.64307891       1.01749835       0.39937287       1.04355403      -8.70745767
Si      12.64458019       7.40290569       0.45176367       0.29225861       0.86527093       0.12645431      -0.64467804      -1.38628101      -0.13852504      -8.68175759
Si      14.44100065       8.38221687       3.61455545      -0.27981236       0.57917013       0.11387440       0.15705345      -0.19346147       0.01601234      -8.68240100
Si      16.45705859       9.34133759       6.74438777       0.34550687      -1.31215623       0.19953423       0.11056993       0.52371082      -0.32217229      -8.72625224
54
Lattice="11.5478352 0.0 0.0 5.773917198490155 10.000722372470358 0.0 5.773916394327279 3.333571176804646 9.428767828939895" Properties=species:S:1:pos:R:3:momenta:R:3:forces:R:3:energies:R:1 spacegroup="_JSON {\"number\": 1, \"setting\": 1}" unit_cell=conventional occupancy="_JSON {\"0\": {\"Si\": 1.0}, \"1\": {\"Si\": 1.0}, \"2\": {\"Si\": 1.0}, \"3\": {\"Si\": 1.0}, \"4\": {\"Si\": 1.0}, \"5\": {\"Si\": 1.0}, \"6\": {\"Si\": 1.0}, \"7\": {\"Si\": 1.0}, \"8\": {\"Si\": 1.0}, \"9\": {\"Si\": 1.0}, \"10\": {\"Si\": 1.0}, \"11\": {\"Si\": 1.0}, \"12\": {\"Si\": 1.0}, \"13\": {\"Si\": 1.0}, \"14\": {\"Si\": 1.0}, \"15\": {\"Si\": 1.0}, \"16\": {\"Si\": 1.0}, \"17\": {\"Si\": 1.0}, \"18\": {\"Si\": 1.0}, \"19\": {\"Si\": 1.0}, \"20\": {\"Si\": 1.0}, \"21\": {\"Si\": 1.0}, \"22\": {\"Si\": 1.0}, \"23\": {\"Si\": 1.0}, \"24\": {\"Si\": 1.0}, \"25\": {\"Si\": 1.0}, \"26\": {\"Si\": 1.0}, \"27\": {\"Si\": 1.0}, \"28\": {\"Si\": 1.0}, \"29\": {\"Si\": 1.0}, \"30\": {\"Si\": 1.0}, \"31\": {\"Si\": 1.0}, \"32\": {\"Si\": 1.0}, \"33\": {\"Si\": 1.0}, \"34\": {\"Si\": 1.0}, \"35\": {\"Si\": 1.0}, \"36\": {\"Si\": 1.0}, \"37\": {\"Si\": 1.0}, \"38\": {\"Si\": 1.0}, \"39\": {\"Si\": 1.0}, \"40\": {\"Si\": 1.0}, \"41\": {\"Si\": 1.0}, \"42\": {\"Si\": 1.0}, \"43\": {\"Si\": 1.0}, \"44\": {\"Si\": 1.0}, \"45\": {\"Si\": 1.0}, \"46\": {\"Si\": 1.0}, \"47\": {\"Si\": 1.0}, \"48\": {\"Si\": 1.0}, \"49\": {\"Si\": 1.0}, \"50\": {\"Si\": 1.0}, \"51\": {\"Si\": 1.0}, \"52\": {\"Si\": 1.0}, \"53\": {\"Si\": 1.0}}" energy=-470.63297184929786 stress="0.002616120507999306 -0.0004165917404295421 -0.0003998420296619747 -0.0004165917404295421 -0.0013170756436874133 0.0016898159731198515 -0.0003998420296619747 0.0016898159731198515 -0.0015634314560833988" free_energy=-470.63297184929786 pbc="T T T"
Si       6.77041136       4.05061309       2.80314959       0.34272720      -0.00366302       0.06746498      -0.14610429      -1.22208590       0.28970613      -8.74835404
Si       8.72709927       4.92694682       5.94266521       1.88475576       0.06776831       1.20227956      -0.60958238       0.72891880       0.30449179      -8.70099169
Si      10.59225115       6.09905789       9.25350149      -0.28676128      -0.08689709       0.95130790       0.18294521       1.37838774      -0.57781750      -8.64505970
Si       8.70285361       7.09944835       2.51622874      -0.79626816      -0.14748014       0.10269923      -0.32120840       1.26089100       0.83608428      -8.68592012
Si      10.47084302       8.27966189       5.81482302       0.13868656       1.19649379      -1.73923194       0.02774864       0.02512236       0.89020297      -8.73168136
Si      12.42813036       9.45559689       8.96500885       1.06430234       0.18056959       0.01743856       0.69963579      -0.25630347      -0.15944289      -8.73363073
Si      10.53369589      10.44543002       2.73750920       0.10954703      -0.09271472      -0.76970423       0.86093290       1.24557116       0.62512419      -8.69095734
Si      12.52155172      11.65419626       5.94047301      -0.13138070      -1.68501664       0.70884886       0.25016939      -0.08899227      -0.82923044      -8.66760406
Si      14.53523342      12.80469616       9.08274902       0.76249871       0.32678620       0.25724517      -0.60202006       0.18264059      -0.18144186      -8.69943990
Si      10.54435215       3.92649783       2.85372016      -0.12424191      -0.04810177       0.47327982       0.22832881       0.11666303      -0.52244174      -8.74143220
Si      12.41605169       5.06065888       5.98915980       0.48439008      -0.01412033       0.58613871       0.07176979      -0.16975692      -0.36512174      -8.74065926
Si      14.52650493       6.18105820       9.02724293       0.25164950       0.09638980      -0.56943944      -0.17806112       0.06750794       0.94752432      -8.71060757
Si      12.51363905       7.29756985       2.82938886       0.36943195       1.48481441       0.14915421       0.37475532       0.09184343      -0.36423113      -8.74330260
Si      14.46102481       8.25106294       6.01764653      -0.58642961      -0.28730683      -1.01423768      -0.39946345       0.69590670      -0.46477746      -8.67911857
Si      16.53431188       9.44902767       9.09829995       0.08486313       0.61162391      -0.28789431      -0.37779176       0.39978033      -0.31271548      -8.71795060
Si      14.58654934      10.56857448       2.69639595       0.89005296       0.05328895       0.89312976      -1.51047888       0.13823717       0.21179986      -8.74028776
Si      16.45328344      11.61186324       5.94555615      -0.54026080      -1.40071669       0.35753901      -0.29347874      -0.47903512      -0.16136401      -8.69958161
Si      18.33033541      12.88034334       8.97984991       0.30418834      -0.05355894      -0.53845375       0.38130021       0.03931144       0.60390155      -8.74142382
Si      14.33263521       3.95128159       2.73336757      -0.92799837      -0.73785304       0.67109987       0.29290788       0.34103820      -0.05870245      -8.73013157
Si      16.14758099       4.95451300       5.87762866      -1.76204048       0.06003330      -0.48880345       1.71148619      -0.59915245       0.08338534      -8.66900274
Si      18.22673563       6.06184126       9.09399469       0.20745235      -0.25696702      -0.01710803       0.09948585       0.15753265      -0.71881867      -8.76629672
Si      16.31980883       7.23032636       2.61251120      -0.36353876      -0.00782155      -0.93176487      -0.15256466       0.13474427       0.99623538      -8.70396338
Si      18.28521602       8.14038959       5.76502162      -0.51075000      -0.83358607      -0.66687611       0.10031489       0.62331487       0.27074493      -8.73840582
Si      20.17917585       9.46665033       8.97195605       0.43332382       1.68985953       0.12509520      -0.53937872      -0.12975004      -0.42166572      -8.74826734
Si      18.29196039      10.64840323       2.71979174       0.72202746       0.84659927      -1.43006577      -0.21838781      -0.86884948       0.46642473      -8.70550953
Si      20.20760902      11.71838181       5.80288147      -0.75993806      -0.76223962       0.38138311      -1.00254330      -0.95147701      -0.05455912      -8.72964695
Si      22.10879315      12.63492543       8.96588256      -1.27411503      -0.92991048      -0.50081137       0.18669923       1.53267317       0.28033397      -8.68629516
Si       0.93227894       0.52648965       0.39929183       0.13092538      -0.31933900       0.13837795       0.26771448      -0.62978212      -0.42022921      -8.70044914
Si       2.90385473       1.73736856       3.45964360      -0.11386781       1.23119323      -0.14202841      -0.05547898      -0.35312856       0.01491965      -8.74882122
Si       4.72130970       2.66028117       6.65751916       0.34663895       0.35689080      -0.51641779       1.33663524       1.13790125      -0.21625087      -8.71745003
Si       2.76575226       3.94178635       0.36014388      -0.67568208       1.07357569      -0.07798341       0.74570814      -0.47606867       0.48383587      -8.72351597
Si       4.76611509       5.02912309       3.51460292       0.29352810      -0.85644457       0.18503604      -0.42721587       0.22540284      -0.10016999      -8.72658065
Si       6.65056714       5.99300435       6.70689294      -0.74707237       0.45641499       1.03657210       0.19680326      -0.37994489      -0.28816162      -8.65970718
Si       4.74801120       7.16621526       0.28213445      -0.85110453      -0.49978154      -0.75646981       0.31458151      -0.19071326       0.72491679      -8.76913066
Si       6.77580061       8.27065704       3.38784505       0.26266569      -1.06741309      -0.32025952      -0.10532225       0.35785964      -0.11733017      -8.66566125
Si       8.56215579       9.45940608       6.59087750       0.23732397      -0.13127507      -0.20244577       0.03613322      -0.27916028      -0.13607975      -8.67957425
Si       4.89842749       0.57212243       0.45120548       1.07534674      -0.03094784       0.16248794      -0.44595589      -0.52771170      -0.18860925      -8.78010003
Si       6.77995367       1.69725829       3.46867779      -1.09510061       1.25919550      -1.00039253      -0.11939494      -0.18540610       0.52301481      -8.56542389
Si       8.77545421       2.73954657       6.74081923       1.13983320       1.19607537      -0.47283508      -0.64871674      -0.35649110      -0.24844648      -8.76705270
Si       6.86152955       3.99292142       0.49110569      -1.38169796       0.09242201      -0.23944171      -0.88939275      -0.60245356      -0.60860803      -8.68831748
Si       8.69421254       5.08379500       3.58079497       0.80491378      -0.02447818       0.01803231      -0.26216021      -0.56802467       0.43354826      -8.72003236
Si      10.57041178       6.12551512       6.86934974      -1.63398305      -1.85812138       0.63784985      -0.61856944       0.17124879      -0.32713057      -8.70786219
Si       8.67490762       7.19367612       0.19341247       0.40938978      -0.41530264       0.17713753       0.28248059      -0.18382248       0.23691892      -8.69293628
Si      10.52795686       8.26274011       3.50144842       0.19244853       0.34532832       0.17789535      -0.32501188      -0.10666147      -0.32023969      -8.76148896
Si      12.38399175       9.37730850       6.63075819      -0.50016660      -1.26908672       0.62700111       0.87631468       0.16347449      -0.20194949      -8.72355545
Si       8.74452500       0.61640555       0.33161696       0.71084816       0.89824263      -0.11736404       0.01039059      -0.40460586       0.25058478      -8.71717184
Si      10.57591900       1.73426365       3.55951458       0.08509611       0.67256259      -0.12413358       0.83067780      -0.46046293       0.55957802      -8.75477454
Si      12.54723248       2.84777295       6.67341386       0.16960214       1.23125911       0.87758523      -0.14132614      -0.50192189      -0.41026042      -8.73366437
Si      10.65141145       3.93421605       0.49294773       1.32336836      -0.09455400       0.29457107      -0.24824823      -0.12172667      -0.05253520      -8.73557818
Si      12.41797928       5.09197122       3.62605116      -0.86791493      -0.38601582      -0.29145628       0.59380586      -0.32269116      -0.09907141      -8.71257154
Si      14.35541658       6.03109681       6.75555782       0.74028575       0.21484409       2.28229061      -0.06342599       0.83476169      -0.45316656      -8.76336575
Si      12.63476234       7.39627644       0.45459675      -0.64993079      -0.97574530      -0.00699183      -0.56543979      -0.82241072      -0.08743717      -8.69166457
Si      14.43912878       8.40007098       3.61951971       0.31411735       0.03793765       0.03484416       0.56643470      -0.43792744      -0.14590680      -8.70364675
Si      16.47635394       9.29562070       6.74058557       0.29401468      -0.40370993      -0.37117449      -0.25943747       0.62578466      -0.41936366      -8.72735247
54
Lattice="11.5478352 0.0 0.0 5.773917198490155 10.000722372470358 0.0 5.773916394327279 3.333571176804646 9.428767828939895" Properties=species:S:1:pos:R:3:momenta:R:3:forces:R:3:energies:R:1 spacegroup="_JSON {\"number\": 1, \"setting\": 1}" unit_cell=conventional occupancy="_JSON {\"0\": {\"Si\": 1.0}, \"1\": {\"Si\": 1.0}, \"2\": {\"Si\": 1.0}, \"3\": {\"Si\": 1.0}, \"4\": {\"Si\": 1.0}, \"5\": {\"Si\": 1.0}, \"6\": {\"Si\": 1.0}, \"7\": {\"Si\": 1.0}, \"8\": {\"Si\": 1.0}, \"9\": {\"Si\": 1.0}, \"10\": {\"Si\": 1.0}, \"11\": {\"Si\": 1.0}, \"12\": {\"Si\": 1.0}, \"13\": {\"Si\": 1.0}, \"14\": {\"Si\": 1.0}, \"15\": {\"Si\": 1.0}, \"16\": {\"Si\": 1.0}, \"17\": {\"Si\": 1.0}, \"18\": {\"Si\": 1.0}, \"19\": {\"Si\": 1.0}, \"20\": {\"Si\": 1.0}, \"21\": {\"Si\": 1.0}, \"22\": {\"Si\": 1.0}, \"23\": {\"Si\": 1.0}, \"24\": {\"Si\": 1.0}, \"25\": {\"Si\": 1.0}, \"26\": {\"Si\": 1.0}, \"27\": {\"Si\": 1.0}, \"28\": {\"Si\": 1.0}, \"29\": {\"Si\": 1.0}, \"30\": {\"Si\": 1.0}, \"31\": {\"Si\": 1.0}, \"32\": {\"Si\": 1.0}, \"33\": {\"Si\": 1.0}, \"34\": {\"Si\": 1.0}, \"35\": {\"Si\": 1.0}, \"36\": {\"Si\": 1.0}, \"37\": {\"Si\": 1.0}, \"38\": {\"Si\": 1.0}, \"39\": {\"Si\": 1.0}, \"40\": {\"Si\": 1.0}, \"41\": {\"Si\": 1.0}, \"42\": {\"Si\": 1.0}, \"43\": {\"Si\": 1.0}, \"44\": {\"Si\": 1.0}, \"45\": {\"Si\": 1.0}, \"46\": {\"Si\": 1.0}, \"47\": {\"Si\": 1.0}, \"48\": {\"Si\": 1.0}, \"49\": {\"Si\": 1.0}, \"50\": {\"Si\": 1.0}, \"51\": {\"Si\": 1.0}, \"52\": {\"Si\": 1.0}, \"53\": {\"Si\": 1.0}}" energy=-470.2965723842176 stress="0.0014333234411274803 -7.524918605744984e-06 -0.0003900051891281503 -7.524918605744984e-06 -0.00012486768774913788 -0.00018578558440092367 -0.0003900051891281503 -0.00018578558440092367 -0.0021987498671324174" free_energy=-470.2965723842176 pbc="T T T"
Si       6.78258970       4.01071098       2.81498860       0.08844670      -1.31906377       0.29419768      -0.27332528      -0.43090213      -0.05792059      -8.77264105
Si       8.77944156       4.95523274       6.00223046      -0.30835555       0.84356838       0.78087858      -2.19561395       0.08960677      -0.79281769      -8.68092108
Si      10.57795135       6.14165359       9.27816529      -0.38456097       1.45815961      -0.05997493      -0.31077745       0.39342886      -0.76715743      -8.68595471
Si       8.65820941       7.13361650       2.55204743      -0.72447481       1.22416494       1.18135094       0.39145181       0.37722210       0.50274089      -8.72717070
Si      10.47590196       8.32782660       5.77321204       0.02366673       0.39489973       0.31305738      -0.08596724      -0.94851636       1.49647165      -8.65522078
Si      12.49835103       9.45520170       8.96309125       1.37519522      -0.19296429      -0.02606251      -0.22929058      -0.24233801       0.09178272      -8.73664275
Si      10.56648022      10.48989147       2.72586160       0.99396165       1.71820584       0.35868332       0.26920922       0.95180300       0.73423642      -8.70544836
Si      12.52741125      11.57471311       5.94189241       0.38882206      -1.11951126      -0.67953266       0.37870491       0.79076108      -0.91142706      -8.60819965
Si      14.55204991      12.82396977       9.08559271      -0.09874765       0.28201131      -0.21611205      -0.50264697      -0.30654085      -0.43805617      -8.69505261
Si      10.54714688       3.92760052       2.85450431       0.24787203       0.05039320      -0.45353404       0.29192458      -0.03222273      -0.54714108      -8.76346118
Si      12.44053809       5.06154623       6.00619803       0.37040921       0.16871124       0.08134439      -0.22945477       0.28827106      -0.29163713      -8.72579725
Si      14.53352067       6.19519971       9.05250417      -0.00180265       0.50969923       1.71063503      -0.24948302       0.32109615       1.57218147      -8.68680665
Si      12.54283517       7.36448469       2.82353029       0.62984922       0.80095031      -0.35381318      -0.07135980      -0.94047096      -0.28486049      -8.70921168
Si      14.42173625       8.25983600       5.95677172      -0.75505771       0.54238290      -1.11804135       0.21931280       0.37803687       0.26783464      -8.67337454
Si      16.52331998       9.48347973       9.07139149      -0.51935066       0.44463679      -0.73405392      -0.42640249      -0.59699982      -0.29020388      -8.74386935
Si      14.57194709      10.58112063       2.74430001      -1.38237745       0.49838486       0.83327560      -1.24085761       0.40875640      -0.18717468      -8.70112763
Si      16.42437982      11.53551411       5.95664345      -0.39473305      -1.19067509       0.04760051       0.36619192       0.77169205      -0.22736517      -8.68745242
Si      18.36369945      12.87628925       8.98316825       0.96937432      -0.16717159       0.72937927       0.37487067      -0.21030539       0.83683839      -8.72550072
Si      14.29863517       3.93649548       2.75955591      -0.31538105       0.30475173       0.23531090       0.50064602       0.82381154      -0.41028734      -8.73942599
Si      16.12793467       4.93764919       5.85958364       1.00382525      -0.55961895      -0.12410993       1.67038285      -0.03535389       0.36430942      -8.69060587
Si      18.24356705       6.05307855       9.07088388       0.47450147      -0.11914578      -0.71542938       0.24686762       0.00068481      -0.13552269      -8.76852410
Si      16.29816360       7.22890947       2.60408644      -0.37042257      -0.15658385       0.59026296       0.20805176      -0.29716784       0.90028561      -8.70652312
Si      18.26706256       8.12264795       5.74371351      -0.11678623       0.15461437      -0.10882145       0.34809255       0.60930413       0.41001847      -8.71846614
Si      20.17161233       9.53347292       8.95732267      -0.80419671       0.58356737      -0.71443084      -0.81754674      -1.17796927      -0.52223603      -8.73242806
Si      18.31860154      10.65635693       2.67269986       0.26686338      -0.57488623      -0.25691026      -0.32654678      -0.98803548       0.87596726      -8.66415675
Si      20.14197406      11.65551701       5.82098855      -1.41931054      -1.31892858       0.30961200       0.23932200       0.27057930      -0.06795200      -8.73452964
Si      22.05821668      12.64701414       8.94996937      -0.47351451       1.28365547      -0.12836461       0.89442568       1.10823157       0.18570091      -8.69538192
Si       0.94607747       0.48655425       0.38275062       0.31977100      -1.10256355      -0.83634752      -0.03043738      -0.23098787      -0.66394480      -8.69549025
Si       2.89793841       1.77378010       3.45628774      -0.08755790      -0.05687439       0.07566976       0.03980596      -1.15791969       0.24762665      -8.73041357
Si       4.77658966       2.70993300       6.62080935       1.42321117       1.20462338      -0.87487297       0.03440046      -0.15764555      -0.16014711      -8.74463246
Si       2.76050201       3.97935543       0.37582018       0.45022483       0.37654008       0.64720194       0.63489603      -0.40826007       0.36599071      -8.69161824
Si       4.76116110       4.99831909       3.51672646      -0.48698080      -0.25205542      -0.14653321      -0.43995267       0.48180612      -0.26118885      -8.69670757
Si       6.62174554       5.99664113       6.74047920      -0.29669663      -0.35287583       0.07299725       0.41289184      -0.51680764      -0.94677666      -8.60293806
Si       4.73198205       7.13983269       0.27192805       0.45226013      -0.33247385       0.33451717       1.09590311       0.46068093       0.57994924      -8.74614236
Si       6.77860999       8.23770261       3.36614722      -0.29485736      -0.03059911      -0.45489925      -0.63990464       0.97170073       0.08563125      -8.66865530
Si       8.57104151       9.44006349       6.57506759       0.01502590      -0.62843038      -0.37269273      -0.30154253      -0.35593686      -0.02750692      -8.70989009
Si       4.93513885       0.55482684       0.44964093       0.28642882      -0.45401505      -0.25254034      -0.59110615       0.13746173      -0.29416522      -8.76876896
Si       6.72672229       1.74347913       3.44438937      -0.76803857       0.28431506       0.20600645       0.54055757      -1.02515337       1.03283485      -8.60824313
Si       8.80402394       2.77423246       6.71317231      -0.12907046      -0.08075093      -0.47891524      -0.95266408      -1.14714553       0.14831141      -8.71295644
Si       6.76770945       3.97496496       0.45906696      -1.89669564      -0.71564401      -0.84238353       0.29923844      -0.35062817      -0.05664621      -8.70972369
Si       8.72067084       5.06446471       3.60253298       0.11035625      -0.59113906       0.82060426      -0.61905554      -0.10313841       0.46399446      -8.69739821
Si      10.48587691       6.05606794       6.89075892      -1.07203196      -0.40676774       0.22957077       1.35064790       1.64753628      -0.15866519      -8.61743999
Si       8.70704277       7.17368916       0.21183612       0.78262827      -0.17491051       0.55000123       0.14002998       0.47869050       0.32581117      -8.71572372
Si      10.52409048       8.27972760       3.48971049      -0.30985945       0.39739585      -0.68961953      -0.20365560       0.25719445      -0.54657260      -8.75814156
Si      12.39336433       9.32078324       6.65167120       0.82897623      -0.80494664       0.10540284       0.74814871       0.48900753      -0.44897023      -8.75955145
Si       8.77645383       0.64233465       0.34001957       0.39455342       0.04701305       0.52844472      -0.42678546      -0.56559085       0.59977612      -8.72149885
Si      10.61393330       1.74509377       3.57614836       1.28777494      -0.35789789       0.71474578       0.52486948      -0.82471997       0.38184999      -8.74997262
Si      12.54523835       2.87896448       6.69586735      -0.32874788      -0.24598446      -0.08193357      -0.46282200      -1.27773129      -0.63729986      -8.70434232
Si      10.70279316       3.92915206       0.50387582       0.51136814      -0.00806170       0.06378156      -0.72779488       0.22270562      -0.27717176      -8.70240419
Si      12.40064126       5.07143156       3.61305810       0.26532445      -0.17282835      -0.11014536       0.80442085       0.54975698       0.26822072      -8.68612991
Si      14.38372262       6.07206885       6.83473554       0.28166727       1.24033716       0.40718864      -0.29904074       0.40958738      -1.67103546      -8.74513898
Si      12.58398795       7.33028894       0.45048071      -1.15369029      -1.21323756      -0.14956690      -0.04248277       0.45289174      -0.08537890      -8.72143989
Si      14.47674172       8.38839888       3.61267684       1.04986583      -0.38407991      -0.35150698       0.27530770      -0.04615432      -0.35565691      -8.76332942
Si      16.47598017       9.29474585       6.70617604      -0.39892483       0.27170387      -0.89057269      -0.60405532       0.23233664      -0.21547828      -8.73398647
54
Lattice="11.5478352 0.0 0.0 5.773917198490155 10.000722372470358 0.0 5.773916394327279 3.333571176804646 9.428767828939895" Properties=species:S:1:pos:R:3:momenta:R:3:forces:R:3:energies:R:1 spacegroup="_JSON {\"number\": 1, \"setting\": 1}" unit_cell=conventional occupancy="_JSON {\"0\": {\"Si\": 1.0}, \"1\": {\"Si\": 1.0}, \"2\": {\"Si\": 1.0}, \"3\": {\"Si\": 1.0}, \"4\": {\"Si\": 1.0}, \"5\": {\"Si\": 1.0}, \"6\": {\"Si\": 1.0}, \"7\": {\"Si\": 1.0}, \"8\": {\"Si\": 1.0}, \"9\": {\"Si\": 1.0}, \"10\": {\"Si\": 1.0}, \"11\": {\"Si\": 1.0}, \"12\": {\"Si\": 1.0}, \"13\": {\"Si\": 1.0}, \"14\": {\"Si\": 1.0}, \"15\": {\"Si\": 1.0}, \"16\": {\"Si\": 1.0}, \"17\": {\"Si\": 1.0}, \"18\": {\"Si\": 1.0}, \"19\": {\"Si\": 1.0}, \"20\": {\"Si\": 1.0}, \"21\": {\"Si\": 1.0}, \"22\": {\"Si\": 1.0}, \"23\": {\"Si\": 1.0}, \"24\": {\"Si\": 1.0}, \"25\": {\"Si\": 1.0}, \"26\": {\"Si\": 1.0}, \"27\": {\"Si\": 1.0}, \"28\": {\"Si\": 1.0}, \"29\": {\"Si\": 1.0}, \"30\": {\"Si\": 1.0}, \"31\": {\"Si\": 1.0}, \"32\": {\"Si\": 1.0}, \"33\": {\"Si\": 1.0}, \"34\": {\"Si\": 1.0}, \"35\": {\"Si\": 1.0}, \"36\": {\"Si\": 1.0}, \"37\": {\"Si\": 1.0}, \"38\": {\"Si\": 1.0}, \"39\": {\"Si\": 1.0}, \"40\": {\"Si\": 1.0}, \"41\": {\"Si\": 1.0}, \"42\": {\"Si\": 1.0}, \"43\": {\"Si\": 1.0}, \"44\": {\"Si\": 1.0}, \"45\": {\"Si\": 1.0}, \"46\": {\"Si\": 1.0}, \"47\": {\"Si\": 1.0}, \"48\": {\"Si\": 1.0}, \"49\": {\"Si\": 1.0}, \"50\": {\"Si\": 1.0}, \"51\": {\"Si\": 1.0}, \"52\": {\"Si\": 1.0}, \"53\": {\"Si\": 1.0}}" energy=-471.31727879685803 stress="-0.0021308956658071657 0.0009350340527304355 0.0006672330764963596 0.0009350340527304355 0.0027431570551147387 -0.0017027687233064923 0.0006672330764963596 -0.0017027687233064923 0.0024457529949353254" free_energy=-471.31727879685803 pbc="T T T"
Si       6.77289067       3.93694135       2.82302394      -0.51699488      -1.27655126      -0.06170019      -0.48758634       0.41595065      -0.33737770      -8.71667349
Si       8.68401014       4.99280211       6.01345195      -2.95335680       0.44551996      -0.22562199      -0.71310024      -0.49702030      -0.32811271      -8.76664837
Si      10.54227059       6.21346850       9.24507068      -0.97310995       0.92825655      -1.17966887      -0.27168384      -0.96837869      -0.65881129      -8.71886517
Si       8.63823746       7.19760122       2.62575090      -0.04548632       0.96995870       1.48136910       0.35241183      -0.57419427      -0.06819983      -8.74809385
Si      10.47814998       8.31011645       5.83431123       0.16633052      -1.02114383       1.68991597       0.31089194      -0.72095638       0.21678800      -8.68361475
Si      12.55764022       9.43693845       8.96712096       0.84753888      -0.45852548       0.20382136      -0.38599831      -0.05766833       0.18627194      -8.74369087
Si      10.61890280      10.60165800       2.76401694       0.78960138       2.18875539       0.86921488      -0.56735928      -0.43189208      -0.14815658      -8.74055748
Si      12.55989759      11.54892994       5.87862795       0.76782115       0.11837275      -1.50931709       0.04755354       0.70730500      -0.01174670      -8.68195111
Si      14.53236301      12.82057881       9.05669035      -0.54123494      -0.50611728      -0.86576455      -0.06737807      -0.66306673      -0.34932023      -8.73542675
Si      10.57267458       3.92692255       2.81939362       0.73801580      -0.09582256      -0.65175112       0.33169345      -0.10697916       0.35521102      -8.76479561
Si      12.45007641       5.07817610       6.00185338       0.00378343       0.35223932      -0.18784093      -0.18354979      -0.14126317      -0.05664602      -8.74510966
Si      14.51921671       6.22846257       9.17935844      -0.62422834       0.60170803       2.57041011      -0.54160669      -0.28598394      -0.56100424      -8.71402323
Si      12.56790739       7.36644064       2.79661280       0.24136045      -0.72449917      -0.60791285      -0.40142039      -0.91416888      -0.03069419      -8.70533217
Si      14.39841095       8.29761920       5.90927591       0.00128974       0.78972519      -0.73304273       0.73272821      -0.05420363       0.11655433      -8.72482891
Si      16.48088858       9.47864894       9.02222821      -1.04378297      -0.64625775      -1.10330835      -0.20767198      -0.65246600      -0.13413639      -8.74582775
Si      14.46946171      10.62021661       2.78180523      -2.10645045       0.86891170       0.62336899       0.41161914      -0.07639743      -0.08907586      -8.68994716
Si      16.41816183      11.51213614       5.95187400       0.11858504       0.39802725      -0.18544978       0.20466224       1.13219773      -0.05611135      -8.74247774
Si      18.42114702      12.85726324       9.04292141       1.01110424      -0.57296514       1.29329290      -0.44518738      -0.25912319      -0.15363469      -8.73417011
Si      14.30111055       3.97440986       2.75985563       0.38064862       0.87768810      -0.11383470       0.37313104      -0.18882041       0.01452310      -8.76585235
Si      16.22905136       4.91995128       5.86474862       2.47449716       0.10191248       0.22757146       0.16893165       0.77794251       0.00395244      -8.74653798
Si      18.27776511       6.04519061       9.03588356       0.79327750      -0.19354762      -0.49946379       0.10046921      -0.04307395       0.32811360      -8.70924937
Si      16.29291642       7.20728107       2.65994635       0.27652957      -0.66317783       1.30245058       0.60530457      -0.26405856      -0.03405864      -8.75779575
Si      18.27122830       8.14930590       5.75098928       0.17081893       0.74954642       0.31025076      -0.06691770       0.16441882       0.11059615      -8.69964790
Si      20.11241871       9.52050170       8.90929831      -1.12286903      -0.96682871      -0.88205100       0.44162807      -0.73970461       0.38423258      -8.72607285
Si      18.32220022      10.59028991       2.68376502      -0.07948317      -1.84829335       0.44804089      -0.12905488      -0.57523159      -0.02122545      -8.71875182
Si      20.09007662      11.60699464       5.83283249      -0.34624898      -0.40529601       0.11049289       1.07072587       0.75920745      -0.17839028      -8.69306111
Si      22.07261312      12.73926419       8.94706523       1.04077074       1.87078244      -0.04368978       0.92644150      -0.31286248      -0.04847652      -8.74086317
Si       0.95892925       0.43179400       0.32275452       0.14667559      -0.73580060      -1.21099352      -0.10720025       0.73780115       0.26689757      -8.72788917
Si       2.89314352       1.73320192       3.46955829      -0.14222898      -1.26180169       0.40230441      -0.14307598      -0.27490737       0.13868865      -8.74341291
Si       4.84033504       2.74991129       6.57490293       0.81328147       0.04840189      -0.74059809      -0.73503767      -1.19060059       0.35133212      -8.69044597
Si       2.79995796       3.98703038       0.41680331       0.85164556      -0.01212738       0.75650780      -0.15970393      -0.12532322      -0.25199838      -8.73074965
Si       4.72735431       5.00020486       3.50259863      -0.59711084       0.22488774      -0.28464644       0.35944472       0.09016443       0.15831272      -8.71160076
Si       6.62359658       5.96647743       6.70777284       0.37560938      -0.57825645      -1.22643058       0.42716229       0.35327587      -0.55353071      -8.71649802
Si       4.78556885       7.14433992       0.30204090       1.27587424       0.53716182       0.61407090      -0.10259994       0.58880794      -0.19194447      -8.71811426
Si       6.73660221       8.27346338       3.35331765      -1.25598679       1.29742810       0.11580807      -0.41968956       0.55827199       0.66362721      -8.72085017
Si       8.55951056       9.39555364       6.55778872      -0.42588879      -0.98415446      -0.22257156      -0.17506333      -0.01897896       0.21738543      -8.77651205
Si       4.92851796       0.54719640       0.42866223      -0.49419269       0.32950244      -0.45984460      -0.40711951       0.77712456       0.03735550      -8.71376708
Si       6.71242870       1.72043367       3.49531520       0.29326840      -1.01766112       1.67152379       0.79137510      -0.44183479       0.74624083      -8.76405426
Si       8.76305069       2.73106870       6.69204271      -1.34405022      -1.37238112      -0.38664916      -0.58453482      -0.38793655      -0.07627209      -8.69789688
Si       6.69427781       3.93230989       0.42371501      -0.67315050      -0.74716185      -0.30371633       1.16048670       0.27710438       0.71789003      -8.71108714
Si       8.70342170       5.03504959       3.65461862      -0.71420160      -0.45601940       0.94079961      -0.40421043       0.19002846      -0.41417473      -8.72441102
Si      10.48477840       6.09781725       6.89408403       0.86042590       1.80763910      -0.23286412       0.71747379       0.89075746      -0.63237114      -8.69379710
Si       8.74781482       7.18556887       0.25626467       0.64184936       0.61515313       1.17999379      -0.35998358       0.41815472       0.45323600      -8.72927361
Si      10.50849224       8.31689052       3.44541718      -0.09932272       1.10906382      -0.70273042       0.51088801       0.58741748       0.59005560      -8.73162191
Si      12.45535203       9.30198510       6.64147290       1.28918330       0.18030352      -0.42917236      -0.20917100       0.83118175      -0.18918925      -8.76152663
Si       8.77860599       0.63071951       0.39277983      -0.30872640      -0.31343309       1.47328534      -0.39685260       0.11234263       0.53904293      -8.75077941
Si      10.68780970       1.69869486       3.61792783       1.23454259      -1.26435068       0.64862761      -0.61924508      -0.24722623      -0.51166309      -8.72396048
Si      12.51085967       2.82276757       6.67670174      -0.91898783      -1.67324783      -0.42521326      -0.19852887      -0.39362390       0.23129756      -8.71916681
Si      10.70441161       3.93828471       0.49416710      -0.35123664       0.33774612      -0.46212212      -0.34273927       0.14433275      -0.37663203      -8.73953440
Si      12.43937426       5.08753807       3.61714587       1.04215017       0.79789155       0.22835894       0.14249054       0.58132500       0.12342068      -8.71525860
Si      14.39459809       6.14299725       6.80594957       0.28411874       1.24752830      -1.12633545       0.27927552      -0.44090857      -0.22753106      -8.72674490
Si      12.52825868       7.29045408       0.43924645      -0.86497586      -0.26797034      -0.29486674       0.36942917       0.59250911      -0.15032185      -8.73254461
Si      14.53138884       8.37406722       3.58035840       0.78165633      -0.02356530      -0.85588263      -0.69856833       0.48278403      -0.25896024      -8.75627181
Si      16.43292987       9.31199575       6.65555190      -1.16894848       0.29284550      -0.94642503      -0.30437905      -0.12155191       0.14874170      -8.72964271
54
Lattice="11.5478352 0.0 0.0 5.773917198490155 10.000722372470358 0.0 5.773916394327279 3.333571176804646 9.428767828939895" Properties=species:S:1:pos:R:3:momenta:R:3:forces:R:3:energies:R:1 spacegroup="_JSON {\"number\": 1, \"setting\": 1}" unit_cell=conventional occupancy="_JSON {\"0\": {\"Si\": 1.0}, \"1\": {\"Si\": 1.0}, \"2\": {\"Si\": 1.0}, \"3\": {\"Si\": 1.0}, \"4\": {\"Si\": 1.0}, \"5\": {\"Si\": 1.0}, \"6\": {\"Si\": 1.0}, \"7\": {\"Si\": 1.0}, \"8\": {\"Si\": 1.0}, \"9\": {\"Si\": 1.0}, \"10\": {\"Si\": 1.0}, \"11\": {\"Si\": 1.0}, \"12\": {\"Si\": 1.0}, \"13\": {\"Si\": 1.0}, \"14\": {\"Si\": 1.0}, \"15\": {\"Si\": 1.0}, \"16\": {\"Si\": 1.0}, \"17\": {\"Si\": 1.0}, \"18\": {\"Si\": 1.0}, \"19\": {\"Si\": 1.0}, \"20\": {\"Si\": 1.0}, \"21\": {\"Si\": 1.0}, \"22\": {\"Si\": 1.0}, \"23\": {\"Si\": 1.0}, \"24\": {\"Si\": 1.0}, \"25\": {\"Si\": 1.0}, \"26\": {\"Si\": 1.0}, \"27\": {\"Si\": 1.0}, \"28\": {\"Si\": 1.0}, \"29\": {\"Si\": 1.0}, \"30\": {\"Si\": 1.0}, \"31\": {\"Si\": 1.0}, \"32\": {\"Si\": 1.0}, \"33\": {\"Si\": 1.0}, \"34\": {\"Si\": 1.0}, \"35\": {\"Si\": 1.0}, \"36\": {\"Si\": 1.0}, \"37\": {\"Si\": 1.0}, \"38\": {\"Si\": 1.0}, \"39\": {\"Si\": 1.0}, \"40\": {\"Si\": 1.0}, \"41\": {\"Si\": 1.0}, \"42\": {\"Si\": 1.0}, \"43\": {\"Si\": 1.0}, \"44\": {\"Si\": 1.0}, \"45\": {\"Si\": 1.0}, \"46\": {\"Si\": 1.0}, \"47\": {\"Si\": 1.0}, \"48\": {\"Si\": 1.0}, \"49\": {\"Si\": 1.0}, \"50\": {\"Si\": 1.0}, \"51\": {\"Si\": 1.0}, \"52\": {\"Si\": 1.0}, \"53\": {\"Si\": 1.0}}" energy=-470.6681378651617 stress="-0.003979213880527743 -5.932559104069861e-05 0.00036274044755425485 -5.932559104069861e-05 0.00016863940944831723 -0.00010129977285968492 0.00036274044755425485 -0.00010129977285968492 0.0004381159100369494" free_energy=-470.6681378651617 pbc="T T T"
Si       6.72908556       3.88861882       2.80949868      -1.06601737      -0.55243057      -0.36205652      -0.14123150       0.47093793       0.02039319      -8.68441513
Si       8.54025985       4.99245854       5.99623137      -1.79198801      -0.55749555      -0.36891998       2.11838581      -0.85095229      -0.06950753      -8.65433559
Si      10.49280736       6.22212310       9.16363687      -0.64668409      -0.54963266      -1.77778857       0.73301802      -0.77045140      -0.08150442      -8.74475833
Si       8.64243003       7.22679051       2.69991301       0.09217915       0.21492596       1.35682767      -0.07644106      -0.29964566      -0.03205334      -8.73626231
Si      10.50217806       8.24788193       5.91346200       0.77121042      -0.86129906       0.98089856       0.39137997       1.18717553      -1.14060213      -8.66811263
Si      12.58948527       9.41567140       8.98475911       0.39764967      -0.24413788       0.45591847      -0.26548585       0.35978178       0.13564597      -8.73423323
Si      10.63361841      10.68691319       2.79403552      -0.23875894       0.88953470       0.13791359      -0.59925311      -1.09526586      -0.68038663      -8.73520708
Si      12.59373433      11.57277549       5.81857728       0.32745831       0.58482725      -0.37777342      -0.71735425      -0.09302718       1.52330665      -8.72174394
Si      14.50575834      12.77134002       9.00294911      -0.40470643      -1.24982408      -1.05643397       0.20360793      -0.18151291       0.14788618      -8.75506794
Si      10.62237200       3.91959830       2.80693335       1.08994420      -0.14002366       0.25626472       0.06187337       0.06033257       0.65451121      -8.70728613
Si      12.44789244       5.08512456       5.99272279       0.01466444      -0.17543133      -0.10909945       0.21321679      -0.48181412       0.14504711      -8.72642018
Si      14.46852823       6.24101071       9.27310192      -1.17245783      -0.25076775       0.70740449      -0.00595179      -0.77508565      -1.72552930      -8.66559807
Si      12.56452103       7.30501585       2.76573823      -0.36732955      -1.31923011      -0.54751590      -0.38841655       0.25745591       0.04867377      -8.73081739
Si      14.42425386       8.33250235       5.86854557       0.84172909       0.45553306      -0.92315749       0.16713791      -0.38665179      -0.27820204      -8.76724036
Si      16.42204212       9.43009967       8.96400613      -1.12429854      -0.95694760      -0.99950713       0.08852813       0.30731343       0.32235204      -8.74165175
Si      14.39547675      10.65248971       2.81229878      -0.36793137       0.18470579       0.55002210       1.73319179      -0.74492912      -0.04042394      -8.67515282
Si      16.42334777      11.56617042       5.94138837      -0.11969309       1.38642891      -0.21911203      -0.55546312       0.06541605      -0.07990201      -8.77237368
Si      18.44607195      12.82155169       9.09533152      -0.22738630      -0.66063122       0.56876158      -1.07742157       0.24265459      -0.67975498      -8.71301326
Si      14.33029367       4.00121243       2.76057928       0.61962061      -0.03366153       0.23394285      -0.06098634      -0.87970186       0.37160287      -8.72375905
Si      16.34451821       4.95004513       5.87074345       1.53456881       0.83499433      -0.08114195      -1.34713883      -0.02082240      -0.30365271      -8.72253289
Si      18.31837768       6.03630045       9.02122650       0.64398183      -0.06308494      -0.10589060      -0.33257290       0.28035362       0.15078092      -8.64449903
Si      16.32859633       7.16994869       2.71543261       0.96883626      -0.57132065       0.61606155       0.15061901       0.45899258      -0.80140504      -8.76099330
Si      18.26887841       8.19036945       5.76738689      -0.41007207       0.74795649       0.25507242      -0.63100381      -0.09430732      -0.11294440      -8.68805924
Si      20.07999820       9.45313205       8.88736960       0.00836147      -1.34216616       0.18015117       0.92444138       0.28686491       0.89764242      -8.67531573
Si      18.31523256      10.48622467       2.69506744      -0.15321310      -1.74370790      -0.20051882       0.00120824       0.87551965      -0.73067750      -8.72379654
Si      20.11280646      11.60956509       5.83367608       1.12161027       0.35648696      -0.01700657       0.69495317       0.18419885       0.05898152      -8.72194268
Si      22.14882630      12.81443470       8.94260752       1.51404793       0.83165409      -0.11061450      -0.42392884      -0.94907636       0.01152336      -8.72999812
Si       0.96924038       0.42882480       0.28020187       0.41348458       0.69681144      -0.24695040       0.52307839       1.00779542       0.89579157      -8.73536243
Si       2.87696700       1.66985081       3.49299035      -0.52680508      -0.92254111       0.42578828      -0.33996461       0.63073489      -0.11752538      -8.72230612
Si       4.85350741       2.71187421       6.55198135      -0.28264410      -1.26777818      -0.11281233      -0.61061785      -0.29293765       0.43983064      -8.68517507
Si       2.82996144       3.98299715       0.44159887       0.17614474      -0.14823189       0.12725527      -0.59915744      -0.15569266      -0.48577304      -8.76296276
Si       4.71876074       5.00857008       3.50037837       0.39236800      -0.02710082       0.29993274       0.82116157      -0.37416371       0.53397528      -8.73442321
Si       6.65420264       5.96582833       6.63907876       0.64434580       0.84941852      -1.02798901      -0.12888932       1.46530624       0.84436966      -8.72661729
Si       4.83781287       7.19092304       0.32203770       0.57290474       1.11763710       0.09447119      -0.66927322       0.10637131      -0.40561647      -8.63650543
Si       6.66740717       8.34353418       3.38911574      -1.11132186       0.93136382       1.29505682       0.62365779      -1.14059538       0.82711618      -8.72929963
Si       8.53857400       9.35027024       6.55576982      -0.18988396      -0.60494941       0.16226351       0.52206828       0.50980979       0.28296361      -8.77702880
Si       4.89092422       0.59214409       0.40768010      -0.86093452       1.25654565      -0.33498723      -0.09885766       0.26501335       0.06118158      -8.66616647
Si       6.75137652       1.66727914       3.59539903       0.96965825      -0.69179267       1.72129321      -0.06817018       0.77680438      -0.89573012      -8.74557508
Si       8.67967649       2.65956957       6.66599491      -1.59693990      -1.04871191      -0.61878705       0.35517008       0.80361856      -0.11481662      -8.68995070
Si       6.69613745       3.90589985       0.43663868       0.48837123      -0.24743356       0.74484033       0.17550920       0.33547875       0.50877200      -8.74021619
Si       8.65579180       5.01672791       3.67683490      -0.98632878      -0.28949199      -0.26354238       0.05455366       0.00859707      -1.06047990      -8.72001033
Si      10.53641452       6.19998168       6.85258196       0.76255163       1.49363281      -1.34722502      -0.63585049      -1.43657472      -0.61948702      -8.70067259
Si       8.76394759       7.22480879       0.33341983      -0.06563117       0.66791410       1.67930748      -0.50984502      -0.40759002       0.12970421      -8.74677694
Si      10.52796926       8.39320076       3.44077062       0.87004557       1.62751348       0.63842308       0.61197471      -0.09143901       1.02522322      -8.66859440
Si      12.50605740       9.34303052       6.61779341       0.53993826       1.30351858      -0.35025004      -0.60534146       0.49365341       0.29530466      -8.71912541
Si       8.75392188       0.62345146       0.48223595      -0.49125840       0.07179021       1.70078366       0.14097634       0.24889275      -0.38920611      -8.74026243
Si      10.72014378       1.63317494       3.62409841      -0.10205245      -1.04095544      -0.51467039      -0.99831804       0.50673254      -0.89296059      -8.67390003
Si      12.46590025       2.73837224       6.67277931      -0.53624848      -1.18471681       0.41928199       0.79807563       0.99973371       0.78340538      -8.69926615
Si      10.67921226       3.95531852       0.45837772      -0.50632082       0.16236440      -0.80427614       0.06237132      -0.43520905       0.01075431      -8.76168730
Si      12.49107298       5.14256425       3.63081486       0.79352007       1.05788191       0.24939254      -0.38476785      -0.37003198      -0.04129827      -8.76162277
Si      14.42313391       6.18342799       6.75372208       0.80647549       0.17611701      -0.62920814       0.28620337      -0.88943857       0.70451468      -8.62470313
Si      12.49676468       7.28855324       0.41544151      -0.36176948      -0.04918907      -0.64858766       0.26742539      -0.35542323      -0.28106290      -8.73696441
Si      14.53779394       8.39064892       3.52747931      -0.60300564       0.55867383      -1.12189710      -0.94060747       0.09424846      -0.10303306      -8.71304723
Si      16.36899364       9.32573020       6.61429695      -1.06398947       0.33645507      -0.57960949       0.48852291       0.28255187       0.33228123      -8.72532916
54
Lattice="11.5478352 0.0 0.0 5.773917198490155 10.000722372470358 0.0 5.773916394327279 3.333571176804646 9.428767828939895" Properties=species:S:1:pos:R:3:momenta:R:3:forces:R:3:energies:R:1 spacegroup="_JSON {\"number\": 1, \"setting\": 1}" unit_cell=conventional occupancy="_JSON {\"0\": {\"Si\": 1.0}, \"1\": {\"Si\": 1.0}, \"2\": {\"Si\": 1.0}, \"3\": {\"Si\": 1.0}, \"4\": {\"Si\": 1.0}, \"5\": {\"Si\": 1.0}, \"6\": {\"Si\": 1.0}, \"7\": {\"Si\": 1.0}, \"8\": {\"Si\": 1.0}, \"9\": {\"Si\": 1.0}, \"10\": {\"Si\": 1.0}, \"11\": {\"Si\": 1.0}, \"12\": {\"Si\": 1.0}, \"13\": {\"Si\": 1.0}, \"14\": {\"Si\": 1.0}, \"15\": {\"Si\": 1.0}, \"16\": {\"Si\": 1.0}, \"17\": {\"Si\": 1.0}, \"18\": {\"Si\": 1.0}, \"19\": {\"Si\": 1.0}, \"20\": {\"Si\": 1.0}, \"21\": {\"Si\": 1.0}, \"22\": {\"Si\": 1.0}, \"23\": {\"Si\": 1.0}, \"24\": {\"Si\": 1.0}, \"25\": {\"Si\": 1.0}, \"26\": {\"Si\": 1.0}, \"27\": {\"Si\": 1.0}, \"28\": {\"Si\": 1.0}, \"29\": {\"Si\": 1.0}, \"30\": {\"Si\": 1.0}, \"31\": {\"Si\": 1.0}, \"32\": {\"Si\": 1.0}, \"33\": {\"Si\": 1.0}, \"34\": {\"Si\": 1.0}, \"35\": {\"Si\": 1.0}, \"36\": {\"Si\": 1.0}, \"37\": {\"Si\": 1.0}, \"38\": {\"Si\": 1.0}, \"39\": {\"Si\": 1.0}, \"40\": {\"Si\": 1.0}, \"41\": {\"Si\": 1.0}, \"42\": {\"Si\": 1.0}, \"43\": {\"Si\": 1.0}, \"44\": {\"Si\": 1.0}, \"45\": {\"Si\": 1.0}, \"46\": {\"Si\": 1.0}, \"47\": {\"Si\": 1.0}, \"48\": {\"Si\": 1.0}, \"49\": {\"Si\": 1.0}, \"50\": {\"Si\": 1.0}, \"51\": {\"Si\": 1.0}, \"52\": {\"Si\": 1.0}, \"53\": {\"Si\": 1.0}}" energy=-470.9067929516214 stress="0.0008425360582328704 -0.0010869217121914228 -0.0009100132170438319 -0.0010869217121914228 -0.0028613752887427357 0.0026092908151124222 -0.0009100132170438319 0.0026092908151124222 -0.0023096302141919745" free_energy=-470.9067929516214 pbc="T T T"
Si       6.67584933       3.87397835       2.79745126      -0.78886470      -0.08506080      -0.00193264       0.54243164       0.15852531       0.37977104      -8.72954571
Si       8.53450317       4.93513010       5.97088962       1.43987330      -1.39579117      -0.64532608       1.61367849       0.06445225      -0.26163884      -8.64815826
Si      10.49176286       6.17763022       9.07355751       0.61247870      -0.84511361      -1.54330272       0.75553925       0.39820051       0.36161010      -8.74769363
Si       8.64589445       7.23420201       2.77377204       0.10492637       0.19072463       1.51497909       0.16973097       0.17440656       0.17774448      -8.70969507
Si      10.55435702       8.26754418       5.91486715       1.13514232       1.71914172      -0.88650860       0.05891012       1.54772041      -0.94439203      -8.70644472
Si      12.59920858       9.41972434       9.01310761      -0.06175455       0.41985841       0.60687120      -0.39412423       0.43233678       0.06331867      -8.71261649
Si      10.60630843      10.69658546       2.77735945      -0.64773302      -0.38099821      -0.69465570      -0.00023689      -0.55057022      -0.36907880      -8.74599926
Si      12.57358497      11.59431298       5.85994631      -1.21579376       0.19775111       1.77565897      -1.13554607      -0.23102097       0.81417642      -8.73274240
Si      14.49305467      12.70946279       8.95962330      -0.07040211      -0.90419307      -0.47377001       0.23973460       0.61180480       0.62277144      -8.72039451
Si      10.67522903       3.91608818       2.83750924       0.76848191       0.02170332       0.70275404      -0.55095963       0.11768358      -0.15177065      -8.66940233
Si      12.46138062       5.05826343       5.99374735       0.57211479      -0.80366557       0.16100939       0.49208632      -0.30225534       0.19189109      -8.71557929
Si      14.41795069       6.19893633       9.24354757      -0.57605144      -1.27139818      -1.74868477       0.67702546      -0.44034996      -1.35783545      -8.70629586
Si      12.53122547       7.26057056       2.73582466      -0.87992544      -0.16741208      -0.64906545      -0.29433967       1.03444294      -0.15641287      -8.73956067
Si      14.46094402       8.33927754       5.81072893       0.32707727      -0.22153009      -1.19476939      -0.70877408      -0.47160445       0.06485628      -8.74789466
Si      16.36797707       9.40043446       8.92966269      -0.90625083      -0.07795888      -0.20302421       0.21035682       0.67061972       0.73367131      -8.72777296
Si      14.43933301      10.63565966       2.83960589       1.80160696      -0.71071920       0.46769392       0.78019588      -0.30291006      -0.14986145      -8.75535960
Si      16.39272283      11.63039387       5.92263475      -0.98068527       0.92318483      -0.56231564      -0.28026219      -0.48011834      -0.32662702      -8.75093652
Si      18.39529210      12.80383660       9.10273579      -1.59187757       0.09170335      -0.15476939      -0.61306574       0.63608803      -0.16008884      -8.72029724
Si      14.35794988       3.96717404       2.78605396       0.41654477      -1.16985881       0.67505479      -0.13528409      -0.50186145       0.12430998      -8.71015546
Si      16.37047115       4.98124784       5.86003140      -0.44625414       0.19753695      -0.16223416      -0.95226202      -0.63301711       0.33526244      -8.71501533
Si      18.33469431       6.04975173       9.01793458      -0.09801270       0.67715493      -0.07869543      -0.62313585       0.65830571      -0.07860082      -8.68478776
Si      16.37397299       7.16310077       2.71504402       0.54786783       0.33781696      -0.61222195      -0.67245129       0.55940492      -0.71463876      -8.72884357
Si      18.22531319       8.22973553       5.78056412      -1.11812705       0.86646157       0.37992101      -0.10946813       0.34248712       0.40059989      -8.73508004
Si      20.11452720       9.40523230       8.92808193       1.24794620      -0.29923467       1.25323555       0.67670827       0.99016870       0.43067018      -8.69547570
Si      18.30667229      10.43997784       2.65872586      -0.19939063       0.04624192      -1.02255039      -0.09839985       1.12291856      -0.07911932      -8.72461536
Si      20.18400536      11.62645238       5.83879582       1.27720692       0.12964568       0.26429707      -0.53738442      -0.42902374       0.25778821      -8.75245062
Si      22.20000709      12.82464993       8.94070503       0.30821620      -0.30822493       0.12037373      -0.93031959      -0.41594779       0.32972026      -8.71040710
Si       1.01452212       0.49555845       0.29789728       1.27927463       1.60253095       0.75559805       0.38596399       0.05007076       0.23579131      -8.77373229
Si       2.83703862       1.64861035       3.50858149      -0.93853800       0.11559886       0.14104974      -0.10982489       0.63222856      -0.21902912      -8.73153898
Si       4.82339642       2.65300500       6.56304784      -0.69009187      -0.62535224       0.54707995       0.06671600       1.07872763       0.48049351      -8.69652926
Si       2.82124956       3.96383350       0.43353053      -0.35404451      -0.68351488      -0.32727396       0.00189263      -0.52414000      -0.06655143      -8.77107008
Si       4.76535237       4.99327835       3.53347416       1.19105260      -0.48371870       0.83799760       0.06085417      -0.08923891       0.04961078      -8.77489076
Si       6.68130525       6.06234896       6.62465991       0.43147140       2.52216051       0.48859756       0.00964114       0.25402420       0.88911096      -8.74773152
Si       4.84448545       7.24538643       0.31391429      -0.23924433       0.79555971      -0.33449994      -0.35590703      -0.52811634      -0.12986590      -8.65473206
Si       6.64054114       8.33914819       3.48239984       0.18019766      -1.07364279       2.01930763       0.97884924      -1.03492924      -0.14078447      -8.74238328
Si       8.55305208       9.34049714       6.57514015       0.75744155       0.24691746       0.56724319       0.57931553       0.56480193       0.24390134      -8.73325392
Si       4.84365006       0.65342153       0.39003890      -0.91283126       0.76954152      -0.37648773       0.01800836      -0.93235453      -0.08672201      -8.67460512
Si       6.78836197       1.66363650       3.63546191       0.29838801       0.50860983      -0.31683087      -0.62383232       0.59815300      -1.35035306      -8.69120693
Si       8.62169036       2.64358151       6.63467243      -0.43090226       0.51306663      -0.44938245       1.03447418       1.06304806       0.36340449      -8.71673200
Si       6.71362748       3.90428705       0.48432012      -0.02678407       0.14550634       0.82304514      -0.61579974       0.16511585      -0.47316623      -8.74401968
Si       8.61155264       4.99891253       3.62482460      -0.58710760      -0.43579011      -1.59478466       0.50119073      -0.16763543      -0.56205295      -8.71119792
Si      10.54867311       6.20344246       6.76454265      -0.29544268      -1.49042149      -1.92415812      -0.63225059      -1.87996186      -0.28493011      -8.69517748
Si       8.74306081       7.23647834       0.42106142      -0.67388795      -0.30733124       1.54717190      -0.28164725      -0.72150490      -0.32004168      -8.75309133
Si      10.59006637       8.46194925       3.50848583       1.32579771       0.76557479       1.76534681      -0.06168749      -0.95922003       0.30241472      -8.68427739
Si      12.51761999       9.41764642       6.61565825       0.06157786       1.25767930       0.35407078       0.01779285      -0.61261876       0.62457287      -8.70882834
Si       8.73565236       0.63046080       0.54261486      -0.20247003       0.04422889       0.36309014       0.15786196      -0.33666712      -1.29653234      -8.70034659
Si      10.68364461       1.60276734       3.56816804      -1.06701270      -0.04362816      -1.44732757      -0.11033960       0.80200103      -0.21849024      -8.70847934
Si      12.47580408       2.72074785       6.72192279       0.93501002       0.51950796       1.30067751       0.86392203       1.01673077       0.16906353      -8.71886602
Si      10.65529752       3.94105338       0.42355202      -0.41895603      -0.76679228      -0.40154461       0.01256457      -0.65282017       0.47883101      -8.73573061
Si      12.51850593       5.17047006       3.64376501       0.29818962      -0.19410164       0.27364281      -0.20687813      -1.12093331       0.05801594      -8.77313227
Si      14.47014413       6.16118258       6.74767803       0.82753216      -0.91999822       0.33181253      -0.33300192      -0.47204958       0.43411584      -8.64381534
Si      12.48490139       7.26339929       0.37168119      -0.14900456      -0.99446588      -0.97687168       0.03637181      -0.66687947      -0.11173249      -8.73728695
Si      14.47845204       8.41034811       3.46616619      -1.44857167      -0.06806952      -1.16511891      -0.11229819      -0.90420077       0.09897239      -8.70697163
Si      16.33721774       9.36112104       6.59696383      -0.12940405       1.10257830      -0.08947305       0.53766383       0.61748212       0.29385642      -8.73394574
54
Lattice="11.5478352 0.0 0.0 5.773917198490155 10.000722372470358 0.0 5.773916394327279 3.333571176804646 9.428767828939895" Properties=species:S:1:pos:R:3:momenta:R:3:forces:R:3:energies:R:1 spacegroup="_JSON {\"number\": 1, \"setting\": 1}" unit_cell=conventional occupancy="_JSON {\"0\": {\"Si\": 1.0}, \"1\": {\"Si\": 1.0}, \"2\": {\"Si\": 1.0}, \"3\": {\"Si\": 1.0}, \"4\": {\"Si\": 1.0}, \"5\": {\"Si\": 1.0}, \"6\": {\"Si\": 1.0}, \"7\": {\"Si\": 1.0}, \"8\": {\"Si\": 1.0}, \"9\": {\"Si\": 1.0}, \"10\": {\"Si\": 1.0}, \"11\": {\"Si\": 1.0}, \"12\": {\"Si\": 1.0}, \"13\": {\"Si\": 1.0}, \"14\": {\"Si\": 1.0}, \"15\": {\"Si\": 1.0}, \"16\": {\"Si\": 1.0}, \"17\": {\"Si\": 1.0}, \"18\": {\"Si\": 1.0}, \"19\": {\"Si\": 1.0}, \"20\": {\"Si\": 1.0}, \"21\": {\"Si\": 1.0}, \"22\": {\"Si\": 1.0}, \"23\": {\"Si\": 1.0}, \"24\": {\"Si\": 1.0}, \"25\": {\"Si\": 1.0}, \"26\": {\"Si\": 1.0}, \"27\": {\"Si\": 1.0}, \"28\": {\"Si\": 1.0}, \"29\": {\"Si\": 1.0}, \"30\": {\"Si\": 1.0}, \"31\": {\"Si\": 1.0}, \"32\": {\"Si\": 1.0}, \"33\": {\"Si\": 1.0}, \"34\": {\"Si\": 1.0}, \"35\": {\"Si\": 1.0}, \"36\": {\"Si\": 1.0}, \"37\": {\"Si\": 1.0}, \"38\": {\"Si\": 1.0}, \"39\": {\"Si\": 1.0}, \"40\": {\"Si\": 1.0}, \"41\": {\"Si\": 1.0}, \"42\": {\"Si\": 1.0}, \"43\": {\"Si\": 1.0}, \"44\": {\"Si\": 1.0}, \"45\": {\"Si\": 1.0}, \"46\": {\"Si\": 1.0}, \"47\": {\"Si\": 1.0}, \"48\": {\"Si\": 1.0}, \"49\": {\"Si\": 1.0}, \"50\": {\"Si\": 1.0}, \"51\": {\"Si\": 1.0}, \"52\": {\"Si\": 1.0}, \"53\": {\"Si\": 1.0}}" energy=-471.4004341543256 stress="0.002023579534864992 -0.0004003763711078574 -0.00017802991815159166 -0.0004003763711078574 -0.001168196751898296 0.0013990379582511634 -0.00017802991815159166 0.0013990379582511634 -0.0023193964559663095" free_energy=-471.4004341543256 pbc="T T T"
Si       6.66125682       3.87307026       2.80871328       0.29920959       0.02944833       0.30855947       0.78308891       0.07605433      -0.09746252      -8.78743392
Si       8.64467379       4.88382755       5.92375945       2.19864163      -0.25735487      -1.22559001      -0.60858317       1.20827393      -0.54091597      -8.70618531
Si      10.54425311       6.15583364       9.00652261       1.18025108       0.04456173      -1.03644727      -0.06771348       0.50734147       0.26291306      -8.74030544
Si       8.66341090       7.24977667       2.85898257       0.66451935       0.32794052       1.65361136       0.56142445      -0.11460574      -0.13963655      -8.70267303
Si      10.61106822       8.38792108       5.85529497       0.91719925       2.26060521      -0.88583858      -0.36049790      -0.79767234       0.97875406      -8.73239671
Si      12.57859457       9.45328881       9.04709251      -0.74901390       0.72470804       0.67904473      -0.47696085      -0.09589636       0.02369878      -8.72921303
Si      10.57457195      10.66249097       2.73267114      -0.54137803      -0.79810472      -0.88487772       0.09036301      -0.06576786       0.11966413      -8.71745252
Si      12.47906568      11.60483797       5.95827434      -2.01537972       0.37975142       1.50469729       0.29305230       0.41757107      -1.00194553      -8.73823239
Si      14.49815009      12.68850554       8.96131137       0.24192570       0.10215634       0.54841240       0.13980700       0.59035784       0.64654450      -8.70895257
Si      10.68782088       3.92022457       2.85782687      -0.37117641       0.10301714      -0.10475067      -0.85030768      -0.00357389      -0.83510495      -8.69275546
Si      12.51014039       5.00887607       6.00789228       1.23225418      -0.97292107       0.31670936       0.26630075       0.11896840      -0.05895035      -8.74334135
Si      14.41145716       6.12537192       9.11647548       0.23429995      -1.32532187      -2.67893313       0.31499534       0.36353219       0.28572354      -8.76187582
Si      12.47510731       7.28135741       2.69599764      -1.20823616       0.65335694      -0.84079360      -0.08146396      -0.14674007      -0.05467190      -8.75072019
Si      14.45253958       8.31206842       5.75978327      -0.54705789      -0.74522576      -0.56391325      -0.32630443      -0.19391712       0.76557966      -8.68483624
Si      16.32855617       9.41436971       8.94840565      -0.60405436       0.40868834       0.88913521       0.17321393      -0.10485943       0.60706740      -8.74154922
Si      14.53672252      10.59378844       2.85136947       1.38186411      -0.79180248      -0.17747298      -1.25256082       0.07454250      -0.74101972      -8.74554151
Si      16.34592953      11.66529715       5.88111595      -0.51112059       0.53647852      -0.98236330       0.83890247       0.02376831      -0.17485239      -8.70460049
Si      18.29852015      12.82736841       9.09882905      -1.87053477       0.62567220       0.16977865       0.28385298      -0.06530278       0.45781904      -8.73171318
Si      14.37742838       3.89697689       2.81958403       0.38278285      -1.27472699       0.46180009       0.08518101       0.40476133      -0.42579328      -8.72634693
Si      16.32965317       4.97075458       5.87392948      -0.73580298      -0.48533171       0.80702694       0.50511511      -0.18848610       0.76062053      -8.71247025
Si      18.30621399       6.10879694       9.01106308      -0.92779342       1.46247879      -0.14674549      -0.37152083       0.21756080       0.06556798      -8.77793962
Si      16.37426570       7.19426386       2.66413498      -0.51301340       0.67145864      -1.11529275      -0.57217747      -0.13740845       0.12335655      -8.70001513
Si      18.17529139       8.29519705       5.82414328      -0.54361523       1.69316112       1.36775951       0.84162317       0.56817942       0.70919236      -8.75796207
Si      20.19968064       9.42378632       9.00222161       1.82604568       0.83155111       1.41062037      -0.01866397       0.30125991      -0.21315839      -8.75007481
Si      18.29077435      10.47170799       2.62023046      -0.41454807       0.88957617      -0.12870519      -0.12061218       0.05349617       1.11656961      -8.70797973
Si      20.22010828      11.61596842       5.86164518      -0.01107039      -0.46941217       0.57328238      -0.95167181      -0.18338094       0.12930192      -8.75003379
Si      22.18712339      12.80476826       8.96312619      -0.63298341      -0.23365361       0.76994484      -0.27357834       0.41843437       0.46172013      -8.69948674
Si       1.08543573       0.56915373       0.33132632       1.18712904       1.01599031       0.25348351      -0.54138761      -0.67420496      -0.77054033      -8.74051992
Si       2.79020897       1.67073899       3.51024937      -0.70413505       0.51943884       0.00153953       0.44395702      -0.18767248       0.09120063      -8.75244172
Si       4.79236894       2.66896557       6.61133049      -0.51550360       1.27496318       1.28824839      -0.01783944       1.21582797       0.44698138      -8.73779070
Si       2.81307069       3.91018829       0.41929359       0.22550284      -1.23476350      -0.13197928       0.71057188      -0.03253428       0.25841894      -8.73399360
Si       4.81588995       4.97302771       3.57060836       0.48536799      -0.13378401       0.43731615      -0.89669825       0.50076692      -0.48826442      -8.74495454
Si       6.70835876       6.17612712       6.67279048       0.63367378       1.34347008       1.08726876       0.14928749      -1.55579534      -0.13616998      -8.67890202
Si       4.82481871       7.26399789       0.29596235      -0.37337845      -0.08170239      -0.25926499       0.18780651      -0.49421653       0.22779030      -8.75172928
Si       6.68210397       8.26368227       3.56419595       1.21521913      -1.39848813       0.80779908       0.22637378       0.54604865      -1.22970916      -8.74653603
Si       8.60883441       9.37236540       6.61380014       1.22869448       0.89084764       0.89865101       0.03073860       0.25197452       0.21400334      -8.70275495
Si       4.79646478       0.65155460       0.36688935      -0.87773754      -0.83996638      -0.48957581       0.05477911      -0.90703548      -0.01908890      -8.74142443
Si       6.78345244       1.69987242       3.58429954      -0.39872160       0.57462137      -1.26497730      -0.28936937      -0.56064038       0.07649069      -8.67936296
Si       8.63119028       2.69916247       6.62828251       0.56223394       1.29679885       0.24144355       0.15694185      -0.12077422       0.50138295      -8.77245348
Si       6.69372925       3.91432143       0.49850568      -0.56602203       0.15952737      -0.43176846       0.02181412      -0.13386995      -1.03689154      -8.72412441
Si       8.60467188       4.97034961       3.53139740       0.39588196      -0.60225011      -1.71729751       0.76402316       0.03518762       0.41275917      -8.69830480
Si      10.51902056       6.08116845       6.65259493      -0.55386107      -2.54524488      -2.25981839       0.48339850       0.55754438       0.06282649      -8.72365303
Si       8.70037657       7.20005850       0.48770904      -0.87484650      -0.87684407       0.97541895       0.03013812       0.07291436      -0.38252657      -8.74810412
Si      10.64907843       8.46685735       3.59447241       0.77009945      -0.46316329       1.11005297      -0.66317803      -0.51316585      -1.24282656      -8.72797900
Si      12.52943037       9.45047825       6.65914361       0.50859502      -0.10893861       1.27063341       0.47956695      -0.98793391       0.47912595      -8.73256077
Si       8.72740093       0.61328778       0.51292713      -0.19306109      -0.78147752      -1.37611103      -0.16303771      -0.64617657      -0.82548748      -8.70087354
Si      10.64059108       1.63267010       3.49575389      -0.27528429       1.17466923      -1.08759066       1.01305165       0.73294192       0.65266355      -8.71996416
Si      12.54523485       2.77433081       6.78164602       1.43578603       1.22900091       0.70675851      -0.21202478      -0.14162489      -0.85576610      -8.71432006
Si      10.63059024       3.88269030       0.42108771      -0.59368403      -1.26776975       0.27282978      -0.26541977       0.08746997       0.34049814      -8.70662091
Si      12.53115748       5.12294825       3.65861315       0.26466119      -1.42071324       0.22925396       0.10062001      -0.36492651      -0.18533358      -8.75565197
Si      14.49317842       6.10416570       6.77046926      -0.06025257      -1.05367037       0.27882204      -0.74841299       0.31451767      -0.57985346      -8.72238509
Si      12.47698020       7.19562482       0.31941052      -0.16240386      -1.32547429      -0.93346156       0.00168328       0.35021341       0.21395157      -8.73944663
Si      14.40850586       8.36845576       3.41204153      -1.03080308      -1.48390796      -0.82948024       0.61646739      -0.71785399       0.36704658      -8.73994416
Si      16.33853556       9.43918737       6.60153445      -0.09536472       1.74807537       0.23314695      -0.51815502       0.12652700       0.17673672      -8.76155043
54
Lattice="11.5478352 0.0 0.0 5.773917198490155 10.000722372470358 0.0 5.773916394327279 3.333571176804646 9.428767828939895" Properties=species:S:1:pos:R:3:momenta:R:3:forces:R:3:energies:R:1 spacegroup="_JSON {\"number\": 1, \"setting\": 1}" unit_cell=conventional occupancy="_JSON {\"0\": {\"Si\": 1.0}, \"1\": {\"Si\": 1.0}, \"2\": {\"Si\": 1.0}, \"3\": {\"Si\": 1.0}, \"4\": {\"Si\": 1.0}, \"5\": {\"Si\": 1.0}, \"6\": {\"Si\": 1.0}, \"7\": {\"Si\": 1.0}, \"8\": {\"Si\": 1.0}, \"9\": {\"Si\": 1.0}, \"10\": {\"Si\": 1.0}, \"11\": {\"Si\": 1.0}, \"12\": {\"Si\": 1.0}, \"13\": {\"Si\": 1.0}, \"14\": {\"Si\": 1.0}, \"15\": {\"Si\": 1.0}, \"16\": {\"Si\": 1.0}, \"17\": {\"Si\": 1.0}, \"18\": {\"Si\": 1.0}, \"19\": {\"Si\": 1.0}, \"20\": {\"Si\": 1.0}, \"21\": {\"Si\": 1.0}, \"22\": {\"Si\": 1.0}, \"23\": {\"Si\": 1.0}, \"24\": {\"Si\": 1.0}, \"25\": {\"Si\": 1.0}, \"26\": {\"Si\": 1.0}, \"27\": {\"Si\": 1.0}, \"28\": {\"Si\": 1.0}, \"29\": {\"Si\": 1.0}, \"30\": {\"Si\": 1.0}, \"31\": {\"Si\": 1.0}, \"32\": {\"Si\": 1.0}, \"33\": {\"Si\": 1.0}, \"34\": {\"Si\": 1.0}, \"35\": {\"Si\": 1.0}, \"36\": {\"Si\": 1.0}, \"37\": {\"Si\": 1.0}, \"38\": {\"Si\": 1.0}, \"39\": {\"Si\": 1.0}, \"40\": {\"Si\": 1.0}, \"41\": {\"Si\": 1.0}, \"42\": {\"Si\": 1.0}, \"43\": {\"Si\": 1.0}, \"44\": {\"Si\": 1.0}, \"45\": {\"Si\": 1.0}, \"46\": {\"Si\": 1.0}, \"47\": {\"Si\": 1.0}, \"48\": {\"Si\": 1.0}, \"49\": {\"Si\": 1.0}, \"50\": {\"Si\": 1.0}, \"51\": {\"Si\": 1.0}, \"52\": {\"Si\": 1.0}, \"53\": {\"Si\": 1.0}}" energy=-470.70668949373226 stress="-0.0033852270510426326 0.0006432077019005847 0.0007438019191726214 0.0006432077019005847 0.00034316630590724425 -0.0011519161497103557 0.0007438019191726214 -0.0011519161497103557 0.0006028432569153371" free_energy=-470.70668949373226 pbc="T T T"
Si       6.70031571       3.87966407       2.81195830       1.00390561       0.24897960      -0.33446549       0.06061047       0.16415517      -0.67379017      -8.79416984
Si       8.71445688       4.91047068       5.83762348       0.14514912       1.05679826      -1.98144997      -1.78832439       0.40708961      -0.20345019      -8.69671853
Si      10.59278979       6.16508590       8.95750835       0.49139533       0.04341761      -0.91543394      -0.75082730      -0.50804148      -0.05770513      -8.71130661
Si       8.72056362       7.25555430       2.93129078       1.44020757      -0.22216229       0.91244283       0.23835254      -0.54710599      -0.87256102      -8.70308788
Si      10.64392500       8.45952393       5.85769303       0.34844004       0.24967089       1.00172508      -0.30689615      -1.66942606       1.07405935      -8.64879285
Si      12.52500978       9.48024334       9.08312721      -1.15339693       0.18000417       0.67741782       0.08353018      -0.57096762      -0.04499511      -8.75919127
Si      10.54863161      10.62109608       2.69505575      -0.46364000      -0.72662977      -0.48406084       0.02947809       0.14770573       0.37538373      -8.69630614
Si      12.40156081      11.63959173       5.99241467      -0.70253625       0.85681274      -0.22110303       1.21646994       0.09405334      -1.07461063      -8.67454564
Si      14.51130431      12.70788796       9.00839948       0.12885594       0.43567787       1.07892799      -0.37521865      -0.19070089      -0.00889088      -8.73511275
Si      10.64281451       3.92586016       2.81960190      -1.12286261       0.12961423      -1.30174766       0.01957692       0.05325645      -0.62915529      -8.74361808
Si      12.57631404       4.96778526       6.01482097       1.09582825      -0.50895688      -0.21384894      -0.48747087       0.43392210      -0.68220976      -8.74638104
Si      14.42864702       6.07463196       9.00805741       0.28335088      -0.55891783      -1.12819231      -0.23111849       0.55905322       1.51905309      -8.70944811
Si      12.41496310       7.29263058       2.65140130      -0.92644871      -0.49443561      -0.81451563       0.53198788      -1.19690454       0.13470455      -8.69997436
Si      14.41976488       8.26970894       5.76206016      -0.54296997      -0.77952810       0.63043148       0.30036939       0.16892289       0.67701637      -8.65923539
Si      16.30065091       9.42272164       9.01046262      -0.51725017      -0.21102169       1.29766586      -0.04761732      -0.56699087      -0.09161347      -8.72901366
Si      14.55439351      10.55604378       2.81151836      -0.67759153      -0.60993138      -1.30322255      -1.15691868       0.21309461      -0.58758694      -8.69735631
Si      16.35498107      11.70235910       5.82767748       0.83673262       1.00049980      -0.92736968       0.75903335       0.49572872       0.33215187      -8.67993277
Si      18.22143797      12.84516698       9.12094497      -0.89126168      -0.16944802       0.50756570       0.95923427      -0.92438990      -0.17440867      -8.70480753
Si      14.40275775       3.85381110       2.82292703       0.60309466      -0.27817698      -0.38149495       0.16170768       0.74842170      -0.59922651      -8.75063229
Si      16.31991672       4.94867874       5.93739957       0.46532797      -0.11644903       1.37739695       0.89821646       0.75011111      -0.15305966      -8.71439668
Si      18.25320592       6.18282726       9.01054172      -0.86379255       1.14557596       0.20638883       0.51776447      -0.61366379       0.36169171      -8.79178366
Si      16.33521004       7.21708302       2.62122554      -0.75569703       0.08615729      -0.33562337       0.28847791      -0.57310561       0.84417684      -8.69752033
Si      18.18401655       8.39699081       5.91442718       0.89032346       1.95013071       1.85070697       0.87664399      -0.34444860      -0.14864856      -8.75878310
Si      20.28139626       9.46322037       9.06244632       1.02033836       0.38930412       0.79352157      -1.04526471      -0.78632699      -0.56226657      -8.71035639
Si      18.26840080      10.51226587       2.65389719      -0.33719161       0.52842379       1.23861182       0.26805124      -0.45579201       0.45439804      -8.69827695
Si      20.19191728      11.59604539       5.89468080      -0.83445826      -0.05747295       0.64212816      -0.05861733       0.70310301      -0.04390333      -8.73195125
Si      22.15341298      12.80979762       9.01844701      -0.45580388       0.38120843       1.25272254       0.49511049       0.25364582       0.12306420      -8.70113253
Si       1.11697711       0.59883061       0.31765017      -0.15268669       0.20473082      -0.61087952      -1.18541990      -0.33126836      -0.14463982      -8.68029228
Si       2.77534840       1.67995886       3.51915558       0.21108554      -0.31761467       0.41949357       0.72649671      -0.75155684       0.39995191      -8.74013450
Si       4.75800325       2.76830741       6.69229543      -0.87046954       2.12925935       1.69453452      -0.29377828      -0.28331957       0.03533200      -8.77128896
Si       2.85375208       3.85449829       0.42147559       1.27676162      -0.70762539       0.16804137       0.51280273       0.66867894       0.07303493      -8.70364997
Si       4.80734938       4.98570532       3.57591044      -0.70105269       0.56877226      -0.17276318      -0.46429006       0.31325762      -0.24726140      -8.71571735
Si       6.74524329       6.18813578       6.71215462       0.72108408      -0.72378127       0.20946160      -0.04904261      -0.93215047      -0.91581691      -8.62757724
Si       4.81820329       7.25063270       0.29471756       0.19750693      -0.20357001       0.27299830       0.46475338       0.36609659       0.46398853      -8.77190243
Si       6.73964038       8.22338438       3.56706703       0.71928183       0.03517452      -0.45262400      -0.76220216       1.21436276      -0.29505659      -8.70145213
Si       8.66936117       9.42295531       6.67046438       0.99438668       0.91789625       1.27966064      -0.29931101      -0.21236477       0.27337358      -8.72371332
Si       4.75464191       0.58946750       0.34406661      -0.64404201      -1.14966075      -0.28867567       0.34287996       0.55151368       0.33361974      -8.76721566
Si       6.75495547       1.69844091       3.53181572      -0.62650725      -0.72658739      -0.59015581      -0.04132908      -0.92369327       0.65369253      -8.67279432
Si       8.65671741       2.75270472       6.65730499       0.28059074       0.64653772       0.76148926      -0.36268334      -0.51246873       0.08665735      -8.74422887
Si       6.67529165       3.91576224       0.44136408       0.03973846      -0.12947904      -1.56782321       0.70213495      -0.23945395      -0.34085715      -8.69676997
Si       8.65185307       4.94610323       3.46478312       1.27341307      -0.20220941      -0.72045718       0.24181805       0.49458765       0.80475703      -8.71554231
Si      10.52750366       5.99407259       6.54885560       1.14594216      -0.39315411      -1.45845363       1.45536372       2.02274277       0.95277417      -8.58928424
Si       8.65900969       7.16766719       0.52817186      -0.64296169      -0.18897156       0.64539562       0.25994252       0.72594971      -0.08288436      -8.70527880
Si      10.66074320       8.43374485       3.59811199      -0.33772436      -0.59523347      -0.90215978      -0.68819308       0.28787673      -0.96624430      -8.76736525
Si      12.57248115       9.41745428       6.73595614       1.02550189      -0.87798311       1.46289681       0.05930082       0.06401300      -0.28012035      -8.74910179
Si       8.70598475       0.55216998       0.42286696      -0.71662076      -1.39214274      -1.76757345      -0.51995830      -0.03319116       0.31193649      -8.73377381
Si      10.65958675       1.71183604       3.46645924       0.74786004       1.55591066      -0.04107962       0.05929451      -0.37745632       0.60680646      -8.76276975
Si      12.60193421       2.81901250       6.78621535       0.54050235       0.23448265      -0.43562060      -0.94396618      -1.06378880      -0.49115024      -8.67025482
Si      10.58558453       3.82952614       0.44268742      -1.16131904      -0.59128043       0.41621458      -0.40285565       0.73852023      -0.19505074      -8.70656133
Si      12.54763131       5.04553867       3.65834836       0.29883426      -1.34060026      -0.34246767      -0.14455796       0.38393269      -0.58817343      -8.66657511
Si      14.46574914       6.06889186       6.75145176      -0.82187265      -0.16374785      -1.12741086      -0.10106321       0.80599870      -1.01824823      -8.75061117
Si      12.47088514       7.15106689       0.28303202      -0.02083409      -0.21401452      -0.37928120       0.18162429       0.95943603       0.49473060      -8.70948133
Si      14.37966333       8.27683849       3.38549054      -0.10500880      -1.71146843      -0.12617748       0.46781334       0.44204546       0.58332858      -8.77062694
Si      16.30620387       9.52647250       6.62125025      -1.17943875       1.38721526       0.52829137      -0.67191557      -0.62269945       0.20390174      -8.74889393
54
Lattice="11.5478352 0.0 0.0 5.773917198490155 10.000722372470358 0.0 5.773916394327279 3.333571176804646 9.428767828939895" Properties=species:S:1:pos:R:3:momenta:R:3:forces:R:3:energies:R:1 spacegroup="_JSON {\"number\": 1, \"setting\": 1}" unit_cell=conventional occupancy="_JSON {\"0\": {\"Si\": 1.0}, \"1\": {\"Si\": 1.0}, \"2\": {\"Si\": 1.0}, \"3\": {\"Si\": 1.0}, \"4\": {\"Si\": 1.0}, \"5\": {\"Si\": 1.0}, \"6\": {\"Si\": 1.0}, \"7\": {\"Si\": 1.0}, \"8\": {\"Si\": 1.0}, \"9\": {\"Si\": 1.0}, \"10\": {\"Si\": 1.0}, \"11\": {\"Si\": 1.0}, \"12\": {\"Si\": 1.0}, \"13\": {\"Si\": 1.0}, \"14\": {\"Si\": 1.0}, \"15\": {\"Si\": 1.0}, \"16\": {\"Si\": 1.0}, \"17\": {\"Si\": 1.0}, \"18\": {\"Si\": 1.0}, \"19\": {\"Si\": 1.0}, \"20\": {\"Si\": 1.0}, \"21\": {\"Si\": 1.0}, \"22\": {\"Si\": 1.0}, \"23\": {\"Si\": 1.0}, \"24\": {\"Si\": 1.0}, \"25\": {\"Si\": 1.0}, \"26\": {\"Si\": 1.0}, \"27\": {\"Si\": 1.0}, \"28\": {\"Si\": 1.0}, \"29\": {\"Si\": 1.0}, \"30\": {\"Si\": 1.0}, \"31\": {\"Si\": 1.0}, \"32\": {\"Si\": 1.0}, \"33\": {\"Si\": 1.0}, \"34\": {\"Si\": 1.0}, \"35\": {\"Si\": 1.0}, \"36\": {\"Si\": 1.0}, \"37\": {\"Si\": 1.0}, \"38\": {\"Si\": 1.0}, \"39\": {\"Si\": 1.0}, \"40\": {\"Si\": 1.0}, \"41\": {\"Si\": 1.0}, \"42\": {\"Si\": 1.0}, \"43\": {\"Si\": 1.0}, \"44\": {\"Si\": 1.0}, \"45\": {\"Si\": 1.0}, \"46\": {\"Si\": 1.0}, \"47\": {\"Si\": 1.0}, \"48\": {\"Si\": 1.0}, \"49\": {\"Si\": 1.0}, \"50\": {\"Si\": 1.0}, \"51\": {\"Si\": 1.0}, \"52\": {\"Si\": 1.0}, \"53\": {\"Si\": 1.0}}" energy=-470.7868439350764 stress="-0.0034308111948755803 0.000719801953194994 0.0008325873033078236 0.000719801953194994 0.0009595911369653971 -0.001318710240949301 0.0008325873033078236 -0.001318710240949301 0.0025026465795398127" free_energy=-470.7868439350764 pbc="T T T"
Si       6.74567711       3.89539588       2.76844112       0.57028586       0.25511789      -1.26981688      -0.54641164      -0.20264111      -0.45409112      -8.71888706
Si       8.66819041       4.97340579       5.74493958      -1.46950893       1.21974593      -1.13698481      -0.10898007      -0.10765978       1.37617680      -8.72630218
Si      10.59208998       6.14162252       8.90693104      -0.38981254      -0.97077783      -0.97295355      -0.25370234      -0.63126918       0.09696160      -8.71454773
Si       8.78758776       7.22504229       2.94063475       0.73063057      -0.82777420      -0.59956546      -1.22646787      -0.09166932      -1.02712181      -8.70853504
Si      10.65557582       8.41237497       5.93369088       0.19331032      -1.84745044       1.53500860       0.06852202      -0.84206457      -0.33391426      -8.69683039
Si      12.47981477       9.46774405       9.11566586      -0.34936527      -0.60552091       0.53187216       0.92201737      -0.36267145      -0.16616093      -8.75786725
Si      10.52599042      10.58997329       2.68437618      -0.36542479      -0.43583011       0.07276769       0.16793808       0.24142274       0.35758771      -8.73866518
Si      12.40786351      11.68200158       5.95030654       0.80962791       0.64600015      -1.13389812       0.69409814      -0.35741205      -0.09184747      -8.64470450
Si      14.49580006      12.71690756       9.05684690      -0.82543640      -0.13360852       0.65117998      -0.76582176      -0.33848605      -0.46498879      -8.75245919
Si      10.59929206       3.93338542       2.73654360      -0.30164211       0.10118023      -1.64007983       0.91424167      -0.16098119       0.25412090      -8.72601826
Si      12.60912043       4.95428533       5.97194421       0.09859130      -0.11189845      -1.46725347      -0.69789433       0.03710569      -0.85080754      -8.74425234
Si      14.42951009       6.06267424       8.99873593      -0.32863641      -0.00564295       0.48157054      -0.52701944       0.12971799       0.40479917      -8.71403268
Si      12.39307824       7.22211572       2.61961253       0.16303850      -2.04949763      -0.26009601       0.80057811      -0.61914413       0.65935306      -8.70413687
Si      14.40672445       8.24140834       5.81180508       0.08227923      -0.15627218       1.05204290       0.43690133       0.73156766      -0.15839328      -8.70198053
Si      16.27048479       9.39521899       9.06798390      -0.63099934      -0.65817330       0.77554701      -0.04166770       0.13566018      -0.56604465      -8.71627547
Si      14.48732364      10.53270846       2.73008254      -1.62666223      -0.29706138      -1.58254690      -0.15882760       0.14672703       0.27589912      -8.66068171
Si      16.41633933      11.77103667       5.80034095       1.21259675       1.47434019       0.03065469      -0.39327955      -0.07195506       0.87517343      -8.71775607
Si      18.20964840      12.79893257       9.13017173       0.31255693      -1.53177168      -0.32464361       0.44983576      -0.66808218      -0.83051822      -8.71642822
Si      14.43893931       3.85992830       2.78484780       0.72503906       0.30760772      -0.93025465      -0.03608240      -0.03507396      -0.05101593      -8.77409365
Si      16.37214174       4.97995652       5.99030868       1.32977917       1.35322490       0.41928318       0.12410344       0.88562100      -1.00680443      -8.72210415
Si      18.23598092       6.21481031       9.03356726       0.29888881       0.03393368       0.59299217       0.86687802      -0.76505091       0.05730346      -8.74207843
Si      16.31548447       7.20084417       2.63843508       0.12719979      -0.61600419       0.99191575       0.76284811      -0.21017166       0.84131357      -8.73540848
Si      18.25271891       8.47553335       5.99651862       1.44691106       0.87604117       1.12173243      -0.21747821      -1.00148035      -0.76913382      -8.66078172
Si      20.29233880       9.45239610       9.08491911      -0.53953753      -0.71095680       0.16360613      -0.80020351      -0.43085165      -0.16896609      -8.71146511
Si      18.26474449      10.52231232       2.72165115       0.23419626      -0.09621625       1.08627013       0.40473256      -0.25189342      -0.55541005      -8.72407819
Si      20.15817537      11.62226992       5.92561385      -0.23686019       1.00094312       0.52915335       0.77814187       0.48389090      -0.07348379      -8.72294235
Si      22.15247242      12.83280538       9.08390492       0.40527267       0.37665070       1.14950173       0.41381292      -0.21082744      -0.24677527      -8.72755200
Si       1.06435093       0.60316875       0.29432774      -1.73313562       0.06538380      -0.02483934      -0.69161967       0.08261108       0.84709557      -8.67103817
Si       2.81311324       1.64054938       3.55488159       1.15925607      -0.99280614       0.86929673       0.44194553      -0.01077784       0.11573112      -8.74007497
Si       4.70743960       2.84989248       6.77544437      -0.88124008       0.72296850       1.31105627       0.39361950      -1.26298801      -0.61228407      -8.72790302
Si       2.93007380       3.84495059       0.42793741       1.41146133       0.32906588      -0.02317756      -0.34675343       0.60221683      -0.32031416      -8.72954904
Si       4.76733409       5.02026781       3.56318801      -0.53211015       0.59296239      -0.20046690       0.67352937      -0.30218191       0.19020397      -8.70271301
Si       6.77946505       6.13293228       6.69037240       0.55769094      -0.99801843      -0.89836987      -0.14978579       0.57836862      -0.36028252      -8.68817628
Si       4.83977318       7.25938561       0.32737702       0.43620151       0.54394595       0.95530134      -0.24787874       0.38429250       0.39622977      -8.74618072
Si       6.74896491       8.26773560       3.54543747      -0.26538835       1.48166609      -0.14745434      -0.39335470       0.52355180       0.59531853      -8.65780530
Si       8.71042162       9.46058098       6.74588995       0.60315653       0.49794858       1.49823468      -0.17419484      -0.29111026      -0.11853386      -8.76903527
Si       4.73966826       0.56166849       0.34448312       0.15287861       0.18345992       0.30509570       0.62856713       0.90059335       0.32542965      -8.74836286
Si       6.72241264       1.63543622       3.52310916      -0.57497888      -1.40290662       0.15844091       0.11403952       0.13316973       0.26378166      -8.73544322
Si       8.65928681       2.77317624       6.69135134      -0.12315362       0.27405777       0.36277510      -0.13375852       0.02931420      -0.58141167      -8.69608697
Si       6.70364180       3.89798049       0.35752425       0.93812902      -0.58671205      -1.41911418       0.29111040      -0.37922576       0.48226764      -8.71867923
Si       8.71453482       4.95596892       3.45373291       0.85855722       0.54430963       0.16779661      -0.74630576       0.34623131       0.29121351      -8.74195453
Si      10.62649671       6.04500689       6.50887197       2.14450650       2.05795434      -0.13010705      -0.37586694       0.92653963       0.72030241      -8.68621659
Si       8.63561211       7.18412752       0.55980023      -0.25519411       0.72052609       0.53924221       0.23466127       0.34862739      -0.16651538      -8.69068805
Si      10.62665007       8.41736515       3.53543211      -0.71047041      -0.03075567      -1.07998083       0.27754729       0.26622953       0.61677210      -8.75073804
Si      12.61829851       9.38657097       6.79368254       0.52575116      -0.09815353       0.60332027      -0.69644919       0.85261911      -0.80497252      -8.70535162
Si       8.64840199       0.48870933       0.35180716      -1.39922710      -0.83363785      -0.80670994      -0.19366674       0.71704747       0.83582733      -8.74249174
Si      10.68412936       1.76607287       3.48006515      -0.07617471       0.33060208       0.39313704      -0.97307081      -1.08763781      -0.04469860      -8.73649299
Si      12.58980223       2.79237028       6.75387478      -1.02382166      -1.09470918      -0.63203054      -0.99357320      -0.45193060       0.16143169      -8.71381143
Si      10.51457729       3.82738781       0.44850644      -1.37656201       0.46171833      -0.35486924       0.25845892       0.54314184      -0.81135012      -8.75029426
Si      12.55311453       4.99229766       3.61366240      -0.15451383      -0.68367292      -1.41249368      -0.38734709       0.40069628      -0.77599267      -8.64561097
Si      14.43267456       6.08980588       6.66776825      -0.19247109       0.85287541      -1.68767899       0.83783400       0.36449060       0.41459671      -8.75555432
Si      12.47601642       7.17052587       0.28155037       0.17092931       0.73779124       0.28813773       0.00645360       0.09594478       0.36433953      -8.72351031
Si      14.38327704       8.21456857       3.40236428       0.07929277      -0.50728885       0.76212037      -0.15783733       1.04376695       0.54268454      -8.73222881
Si      16.23041814       9.57033320       6.65546917      -1.41568774       0.24109637       0.73633234       0.47288320      -0.78592852       0.04991846      -8.69998749
54
Lattice="11.5478352 0.0 0.0 5.773917198490155 10.000722372470358 0.0 5.773916394327279 3.333571176804646 9.428767828939895" Properties=species:S:1:pos:R:3:momenta:R:3:forces:R:3:energies:R:1 spacegroup="_JSON {\"number\": 1, \"setting\": 1}" unit_cell=conventional occupancy="_JSON {\"0\": {\"Si\": 1.0}, \"1\": {\"Si\": 1.0}, \"2\": {\"Si\": 1.0}, \"3\": {\"Si\": 1.0}, \"4\": {\"Si\": 1.0}, \"5\": {\"Si\": 1.0}, \"6\": {\"Si\": 1.0}, \"7\": {\"Si\": 1.0}, \"8\": {\"Si\": 1.0}, \"9\": {\"Si\": 1.0}, \"10\": {\"Si\": 1.0}, \"11\": {\"Si\": 1.0}, \"12\": {\"Si\": 1.0}, \"13\": {\"Si\": 1.0}, \"14\": {\"Si\": 1.0}, \"15\": {\"Si\": 1.0}, \"16\": {\"Si\": 1.0}, \"17\": {\"Si\": 1.0}, \"18\": {\"Si\": 1.0}, \"19\": {\"Si\": 1.0}, \"20\": {\"Si\": 1.0}, \"21\": {\"Si\": 1.0}, \"22\": {\"Si\": 1.0}, \"23\": {\"Si\": 1.0}, \"24\": {\"Si\": 1.0}, \"25\": {\"Si\": 1.0}, \"26\": {\"Si\": 1.0}, \"27\": {\"Si\": 1.0}, \"28\": {\"Si\": 1.0}, \"29\": {\"Si\": 1.0}, \"30\": {\"Si\": 1.0}, \"31\": {\"Si\": 1.0}, \"32\": {\"Si\": 1.0}, \"33\": {\"Si\": 1.0}, \"34\": {\"Si\": 1.0}, \"35\": {\"Si\": 1.0}, \"36\": {\"Si\": 1.0}, \"37\": {\"Si\": 1.0}, \"38\": {\"Si\": 1.0}, \"39\": {\"Si\": 1.0}, \"40\": {\"Si\": 1.0}, \"41\": {\"Si\": 1.0}, \"42\": {\"Si\": 1.0}, \"43\": {\"Si\": 1.0}, \"44\": {\"Si\": 1.0}, \"45\": {\"Si\": 1.0}, \"46\": {\"Si\": 1.0}, \"47\": {\"Si\": 1.0}, \"48\": {\"Si\": 1.0}, \"49\": {\"Si\": 1.0}, \"50\": {\"Si\": 1.0}, \"51\": {\"Si\": 1.0}, \"52\": {\"Si\": 1.0}, \"53\": {\"Si\": 1.0}}" energy=-470.52288577366687 stress="0.0006054083128511252 -0.0008169401952069028 -0.0007142057109342236 -0.0008169401952069028 -0.0036368626824005955 0.0010294726420671321 -0.0007142057109342236 0.0010294726420671321 3.267577265742739e-05" free_energy=-470.52288577366687 pbc="T T T"
Si       6.75411895       3.89644041       2.69273964      -0.21573650      -0.28641518      -1.42278018      -0.41674218      -0.47997635       0.30750935      -8.64208596
Si       8.60991674       5.02928175       5.74580526      -0.37223583       0.83593181       1.15879574       1.38097662      -0.38909474       1.32874960      -8.65266839
Si      10.57294118       6.07623032       8.86529728      -0.15487893      -1.27994526      -0.49934141       0.46613126       0.31025517       0.54320678      -8.71370118
Si       8.77097665       7.19182819       2.87744987      -1.37992166      -0.16519158      -1.57966028      -1.29209891       0.94731186      -0.11467658      -8.71702185
Si      10.66940877       8.31255300       5.98904474       0.31688719      -1.28648203       0.36682663       0.00443010       1.74379301      -1.15245954      -8.66719888
Si      12.49698870       9.43041098       9.13577726       0.91484674      -0.64345201       0.20463935       0.57176241       0.30917752      -0.28724123      -8.74077508
Si      10.51810447      10.57612265       2.70051242       0.16504637      -0.11905113       0.50273418       0.54905593       0.12413736       0.19731234      -8.78326013
Si      12.46615552      11.69924446       5.89846093       1.19303884      -0.01549894      -0.66541724      -0.17190613      -0.45167200       0.59985170      -8.65985266
Si      14.42780277      12.70797245       9.07363764      -1.62208596       0.04069776       0.01478636      -0.20494316       0.60762810      -0.36833837      -8.73286363
Si      10.61447926       3.92830429       2.66963840       0.68834244      -0.36902573      -0.79403955       0.16145563      -0.45456932       0.69281891      -8.74201751
Si      12.59347442       4.94687757       5.86854265      -0.55644821      -0.17528163      -2.29712032      -0.16058960       0.00883992      -0.15046961      -8.71916145
Si      14.39503200       6.06025896       9.02166667      -0.85538764      -0.21020000       0.09809832      -0.01065852      -0.34783744      -0.75162598      -8.71311430
Si      12.42830753       7.11015270       2.63510786       1.07157359      -1.78952911       0.86027944       0.37519019       1.06099397       0.68811410      -8.71818915
Si      14.42300114       8.26823978       5.85290853       0.40942967       1.25172823       0.41512605      -0.06464976       0.98308534      -0.53927455      -8.74690457
Si      16.23826906       9.37948731       9.08467195      -0.53524854       0.29114261      -0.15605100       0.20235070       1.02309766      -0.62001279      -8.71189253
Si      14.40368964      10.51975420       2.66833243      -1.43230505      -0.24615533      -0.58641368       0.35882293      -0.04400497       0.99130326      -8.67797901
Si      16.44515266      11.83020921       5.83159771      -0.48858928       0.46383380       0.98605193      -1.82096145      -1.29949459       0.19996213      -8.70450122
Si      18.23018515      12.70774400       9.08123853       0.24823120      -1.61542042      -1.46740858      -0.40595019       0.60117128      -0.52373036      -8.73127998
Si      14.47339505       3.86628108       2.74219630       0.56181374      -0.18025279      -0.56022679      -0.13657612      -0.48678001       0.47334160      -8.73889946
Si      16.43340802       5.06799721       5.97301911       0.77704974       1.61854113      -1.02409225      -0.74697928      -0.59166514      -0.78567899      -8.72763554
Si      18.27876659       6.19238397       9.06013965       1.15995543      -0.74967026       0.29181711       0.19362603      -0.21505873      -0.44237507      -8.67854807
Si      16.34811831       7.17273738       2.71822389       0.99585528      -0.20539874       1.93337731       0.28922640       0.74833771       0.37789793      -8.76012544
Si      18.30918239       8.48307363       6.02377372       0.55618711      -0.52587410      -0.08076805      -0.79766112      -0.74049313      -0.74985749      -8.61167426
Si      20.24523614       9.41312703       9.09523442      -1.02458186      -0.49700876       0.35617519       0.11168295       0.68872776       0.31316641      -8.73059039
Si      18.28886996      10.51715224       2.75392001       0.58806668       0.09665421       0.14519558       0.02372097       0.50251123      -0.54190267      -8.75116677
Si      20.17674069      11.68207298       5.95239787       0.87052653       1.05332128       0.52593806       0.48359485      -0.39641299       0.05296768      -8.75118764
Si      22.17459250      12.84224535       9.13151588       0.11114461      -0.04528137       0.59695545      -0.83043399      -0.32322083      -0.51277776      -8.74446060
Si       0.96455482       0.61156287       0.33095038      -1.69827790       0.26782164       1.46102329       0.74633787       0.13128731       0.98823439      -8.71426345
Si       2.88225058       1.59961669       3.59936561       1.28384200      -0.36875906       0.72475613      -0.31010790       0.76608855      -0.28204179      -8.71231015
Si       4.68830531       2.84938084       6.81360847       0.38288337      -0.46563713       0.04992741       1.28799535      -0.20317850      -0.96558465      -8.67616455
Si       2.98465727       3.87693565       0.41223675       0.59986535       0.68212550      -0.57790160      -0.62101140      -0.21371754      -0.32328606      -8.75496995
Si       4.77322154       5.03260581       3.56237158       0.83270082      -0.24079909       0.17566673       0.96437701      -0.75238981       0.20513078      -8.71865352
Si       6.80317262       6.11797033       6.64409088       0.34207591       0.64821207      -0.58052430      -0.17260653       1.41596786       0.74576205      -8.72621257
Si       4.84695353       7.29066749       0.39034009      -0.20838316       0.38628894       1.39409071      -0.43288659      -0.62293776       0.19305044      -8.72327076
Si       6.72882300       8.34955115       3.56483218      -0.34539169       1.32748755       0.91630726       0.22561946      -0.67451249       0.70036368      -8.65829602
Si       8.73882048       9.47685530       6.81001278       0.52613429       0.14381367       0.74962621       0.00061588      -0.20422666      -0.87173305      -8.74216769
Si       4.76672881       0.59113059       0.36632627       0.73254917       0.58378996       0.39364488       0.06522172      -0.47361492      -0.18762719      -8.73665703
Si       6.69793762       1.58017015       3.53399599      -0.33496471      -0.48344592       0.12307271       0.20504758       0.99954466      -0.25413802      -8.73545923
Si       8.65151426       2.79422766       6.68644489      -0.11216854       0.60683560      -0.51158097       0.09766992       0.33679680      -0.42573360      -8.70024344
Si       6.74977451       3.85318615       0.30588559       0.52547876      -1.06103636      -0.50243248      -0.85200372      -0.13530116       0.66440468      -8.73349322
Si       8.72777672       4.98756586       3.46597349      -0.34303380       0.44700912       0.19163351      -0.71293415      -0.46573185      -0.12683687      -8.75334892
Si      10.70575301       6.15783304       6.52466149       0.63938524       1.55678003       0.64972463      -1.31841920      -1.73542125       0.37914916      -8.67541793
Si       8.62922533       7.22555570       0.57561391      -0.03222227       0.67788520      -0.07987865       0.06153870      -0.34775918      -0.72446269      -8.72267469
Si      10.60814051       8.41384816       3.51067956       0.07329750      -0.36859497       0.21119462       0.54994874      -0.74139223       0.91290634      -8.66329458
Si      12.61585457       9.41491485       6.79392044      -0.62019683       1.12958707      -0.55888438      -0.69501250       0.65622326      -0.65615507      -8.69521251
Si       8.57940371       0.47437218       0.33830349      -1.01144637       0.26200410       0.18015376       0.64230526       0.61083372       0.39878832      -8.73500210
Si      10.64209479       1.74323081       3.49316401      -1.46363675      -1.12097615       0.03829040      -0.72616432      -0.76707493      -0.31121814      -8.69024932
Si      12.51131563       2.73482808       6.73015216      -1.59691396      -0.76856505      -0.24921254       0.44233345       0.82949501       0.23611414      -8.72936461
Si      10.46326188       3.86336372       0.39721497      -0.39304119       0.70893320      -1.54618051       0.97892999      -0.24007459      -0.59007676      -8.75018593
Si      12.53332608       4.96511321       3.51320212      -0.48871583      -0.51840392      -2.27931631       0.05144317      -0.24776669      -0.22213726      -8.72860722
Si      14.45372965       6.13481643       6.60865128       0.87008744       0.61292060      -0.40622941       0.35364675      -0.58329748       1.03708165      -8.72630867
Si      12.48098733       7.19410095       0.30930053      -0.06049041      -0.17542732       0.75914930      -0.30354357      -1.18302046       0.31236627      -8.71546401
Si      14.38051678       8.22564651       3.45852909      -0.14781710       0.82194766       1.26032886      -0.02388240       0.61881523       0.07526833      -8.69737054
Si      16.18864278       9.55869259       6.69405276       0.05782497      -0.53851342       0.69007336       1.38366486      -0.21242255      -0.13336988      -8.63946753
54
Lattice="11.5478352 0.0 0.0 5.773917198490155 10.000722372470358 0.0 5.773916394327279 3.333571176804646 9.428767828939895" Properties=species:S:1:pos:R:3:momenta:R:3:forces:R:3:energies:R:1 spacegroup="_JSON {\"number\": 1, \"setting\": 1}" unit_cell=conventional occupancy="_JSON {\"0\": {\"Si\": 1.0}, \"1\": {\"Si\": 1.0}, \"2\": {\"Si\": 1.0}, \"3\": {\"Si\": 1.0}, \"4\": {\"Si\": 1.0}, \"5\": {\"Si\": 1.0}, \"6\": {\"Si\": 1.0}, \"7\": {\"Si\": 1.0}, \"8\": {\"Si\": 1.0}, \"9\": {\"Si\": 1.0}, \"10\": {\"Si\": 1.0}, \"11\": {\"Si\": 1.0}, \"12\": {\"Si\": 1.0}, \"13\": {\"Si\": 1.0}, \"14\": {\"Si\": 1.0}, \"15\": {\"Si\": 1.0}, \"16\": {\"Si\": 1.0}, \"17\": {\"Si\": 1.0}, \"18\": {\"Si\": 1.0}, \"19\": {\"Si\": 1.0}, \"20\": {\"Si\": 1.0}, \"21\": {\"Si\": 1.0}, \"22\": {\"Si\": 1.0}, \"23\": {\"Si\": 1.0}, \"24\": {\"Si\": 1.0}, \"25\": {\"Si\": 1.0}, \"26\": {\"Si\": 1.0}, \"27\": {\"Si\": 1.0}, \"28\": {\"Si\": 1.0}, \"29\": {\"Si\": 1.0}, \"30\": {\"Si\": 1.0}, \"31\": {\"Si\": 1.0}, \"32\": {\"Si\": 1.0}, \"33\": {\"Si\": 1.0}, \"34\": {\"Si\": 1.0}, \"35\": {\"Si\": 1.0}, \"36\": {\"Si\": 1.0}, \"37\": {\"Si\": 1.0}, \"38\": {\"Si\": 1.0}, \"39\": {\"Si\": 1.0}, \"40\": {\"Si\": 1.0}, \"41\": {\"Si\": 1.0}, \"42\": {\"Si\": 1.0}, \"43\": {\"Si\": 1.0}, \"44\": {\"Si\": 1.0}, \"45\": {\"Si\": 1.0}, \"46\": {\"Si\": 1.0}, \"47\": {\"Si\": 1.0}, \"48\": {\"Si\": 1.0}, \"49\": {\"Si\": 1.0}, \"50\": {\"Si\": 1.0}, \"51\": {\"Si\": 1.0}, \"52\": {\"Si\": 1.0}, \"53\": {\"Si\": 1.0}}" energy=-471.3973933162763 stress="0.002458009850747591 -0.000688557409263461 -0.0007811088378419954 -0.000688557409263461 -0.00225247743051586 0.0015987215610768668 -0.0007811088378419954 0.0015987215610768668 -0.0023290100638308432" free_energy=-471.3973933162763 pbc="T T T"
Si       6.73294745       3.86271201       2.63902700      -0.45135203      -0.97123468      -0.47510878       0.13730822      -0.35820427       0.88040119      -8.68861702
Si       8.64517880       5.05980938       5.84086513       1.59232603       0.40447381       2.09880927       0.87105933      -0.09656967      -0.11365238      -8.72031625
Si      10.58386573       6.03090682       8.86404924       0.53855307      -0.32875303       0.51589320       0.33419352       0.75874817       0.78315144      -8.72936719
Si       8.66172571       7.22133056       2.80630022      -2.47966875       1.19526573      -0.85974302      -0.07897697       0.57499869       0.92172882      -8.73794063
Si      10.68223996       8.32479175       5.96370791       0.09319161       1.63042783      -1.21907500      -0.30654830       1.27669168      -0.69237013      -8.73309645
Si      12.55406127       9.41210167       9.13336840       0.98038726      -0.04074566      -0.33699469      -0.53307542       0.36333277      -0.43849039      -8.70359744
Si      10.54918715      10.56870919       2.73191680       0.98650893      -0.29536673       0.64526343       0.40669255      -0.38334545       0.00174800      -8.78565817
Si      12.51507972      11.68656276       5.88589069       0.57795818      -0.30634372       0.11145840      -0.53523067       0.18815923       0.30526803      -8.72797512
Si      14.34340246      12.74022484       9.06225979      -1.42547377       1.23341636      -0.40340231       0.46773913       0.77612299      -0.18417945      -8.66615815
Si      10.63846571       3.88869933       2.64750227      -0.11111074      -1.17214553      -0.22544244      -1.13293556      -0.56052848       0.02401192      -8.74476119
Si      12.56370112       4.94147474       5.75322320      -0.48350812       0.02406776      -1.88271384       0.21706322       0.21891818       0.69552287      -8.66238650
Si      14.36090465       6.03609193       8.99554601      -0.26705908      -0.63941424      -1.04448321       0.66839482      -0.06451031      -0.55093801      -8.74373617
Si      12.49310966       7.07272072       2.70038339       1.28086855       0.52169928       1.49612496      -0.09719486       1.63707958       0.17153789      -8.71307332
Si      14.43570838       8.36253924       5.86007752      -0.00664719       2.09652974       0.03235639      -0.37442645       0.02758058       0.13551883      -8.76916986
Si      16.22175017       9.43209746       9.05745039      -0.02120815       1.54872929      -0.75017625       0.48505298       0.36919931      -0.10612708      -8.75183825
Si      14.34428363      10.50519827       2.67590898      -0.81185863      -0.28713941       0.79614511       0.43631837       0.03997045       0.66797760      -8.74815875
Si      16.35075200      11.79753151       5.87958851      -2.83373503      -1.71475397       0.67703217      -0.73514774      -1.30002902      -0.46270850      -8.73681503
Si      18.22722712      12.65415390       8.99824942      -0.31089445      -0.37507771      -1.37014418      -0.22324403       0.81369440       0.73083308      -8.73614622
Si      14.49999842       3.83989481       2.73058598       0.51250886      -0.74981290       0.05963361       0.09647316      -0.18745786       0.24426822      -8.71617745
Si      16.44815227       5.11843871       5.89998739      -0.06896445       0.16684638      -1.49357333      -0.19570112      -1.13154320       0.26353068      -8.73516305
Si      18.33723136       6.15310582       9.05582443       0.89237837      -0.60402785      -0.46136505      -0.49937748       0.34210165      -0.45007917      -8.67729775
Si      16.40218411       7.19435265       2.82823113       0.88253877       0.99101797       2.13516399      -0.42814647       0.59237730      -0.12494925      -8.74840529
Si      18.31229414       8.43895599       5.99769848      -0.28828563      -0.87353192      -0.73718107      -0.21331134       0.36924273      -0.05568431      -8.70363183
Si      20.20333856       9.41911199       9.12346440      -0.44655371       0.72496762       0.61829036       0.60800211       0.67415817      -0.07405900      -8.75683543
Si      18.31527307      10.54474637       2.75195787       0.32227334       0.93831727       0.06690939      -0.35356204       0.44040925       0.58151669      -8.74123636
Si      20.22948362      11.71602227       5.98181670       0.93718883       0.17652001       0.56966239      -0.29332263      -0.63809643      -0.04794036      -8.76088502
Si      22.14308461      12.82871397       9.14193668      -1.27063264      -0.42550998      -0.18698713      -0.66595344      -0.15236380      -0.45681842      -8.76142517
Si       0.91114775       0.62728440       0.43596743      -0.33163959       0.24075225       2.24782258       0.77463210      -0.21396944      -0.17812770      -8.77844641
Si       2.93119696       1.61170414       3.62475682       0.50539328       0.79730591       0.22798598      -0.60228034       0.62664754      -0.33864464      -8.72464240
Si       4.76257462       2.82991640       6.78284968       2.42658062      -0.09058052      -1.10745303       1.16640330       0.52678314      -0.50890632      -8.67312555
Si       2.99544400       3.89464454       0.37463624      -0.11053861      -0.13780060      -0.73595108      -0.31560798      -0.70894241       0.14014808      -8.74741904
Si       4.84659698       4.99293099       3.57260231       1.75630405      -1.15759837       0.04758186       0.14300923      -0.29842129      -0.43469600      -8.75330808
Si       6.81286407       6.19774545       6.64733456       0.00587452       2.05500544       0.70652888      -0.24346198       0.08537850       0.75350888      -8.77307902
Si       4.82515160       7.28034514       0.46921261      -0.48843965      -0.81452192       1.56598663       0.09280098      -0.74986650       0.00184152      -8.70425204
Si       6.72267726       8.38959206       3.63242838       0.14399779       0.23744281       1.44932302       0.35235197      -0.52455270      -0.13011761      -8.74203195
Si       8.76398937       9.47762274       6.81320912       0.35348375      -0.08303520      -0.60660722      -0.30665929      -0.07361349      -0.78235660      -8.71210771
Si       4.79987100       0.58938386       0.37724735       0.39622693      -0.82592065       0.00276730      -0.46546967      -1.14748009      -0.26988110      -8.69322633
Si       6.68879412       1.59599958       3.52991382      -0.00459206       1.07437017      -0.24279745       0.23758355       0.93156461      -0.11300682      -8.73947169
Si       8.64702695       2.83814726       6.65319218      -0.14947051       1.01108979      -0.53761779      -0.25108779       0.11167679       0.42488132      -8.75795102
Si       6.73795863       3.80002304       0.30120230      -0.97688316      -0.81261918       0.21325607      -0.82843532       0.45814165       0.22854930      -8.74504621
Si       8.68880214       4.99044403       3.47277390      -1.00325419      -0.30849023       0.11447818      -0.16014368      -0.35952623       0.04784795      -8.72945421
Si      10.69366372       6.15794290       6.56775628      -0.92834721      -1.48505986       0.83005636      -0.62031894      -1.47510206      -0.25137726      -8.72969291
Si       8.62794930       7.24720703       0.53734676      -0.04953380       0.21022719      -1.43056837      -0.07286206      -0.10312777      -0.89332702      -8.77109746
Si      10.62625646       8.36116601       3.54937866       0.45614475      -1.61409549       1.05785323      -0.07989839      -0.63820014       0.09682499      -8.67469233
Si      12.56428439       9.49088996       6.74706080      -1.16126344       1.57236286      -1.04444889       0.02826925      -0.11187127       0.06584240      -8.74258063
Si       8.55161345       0.50254897       0.35533464      -0.10275162       0.60990586       0.34133098       0.43466372      -0.17627009      -0.09908914      -8.74383062
Si      10.54695377       1.66288799       3.48619005      -1.95028951      -1.76552495      -0.22106527       0.11430831      -0.06661706       0.01441258      -8.68151861
Si      12.45847174       2.73178065       6.71623564      -0.31635065       0.64544105      -0.54623461       0.84072489       0.80100204      -0.76857390      -8.72557466
Si      10.48104758       3.88475084       0.30372923       1.02008656       0.03721523      -1.80555230       0.76929966      -0.50759111       0.23783810      -8.71423170
Si      12.51874681       4.92088545       3.39716987       0.08897252      -1.22561527      -1.91176223       0.64081065      -0.44774440       0.67510216      -8.77198136
Si      14.49875545       6.14504318       6.61876276       0.57119071      -0.13879695       0.54603067      -0.71533191      -0.27780449       0.07238838      -8.72171807
Si      12.46392719       7.14183511       0.36078268      -0.60700774      -1.59602742       1.16697418      -0.35781382      -0.32756156       0.16777761      -8.72837630
Si      14.37747785       8.28298267       3.52158876       0.13742217       1.17562088       1.03946756       0.38529197      -0.12108251      -0.32907891      -8.72182775
Si      16.24518341       9.52922280       6.72125061       1.99895468      -0.47947457       0.25626238       0.97707872       0.19801370      -0.47879908      -8.69684022
54
Lattice="11.5478352 0.0 0.0 5.773917198490155 10.000722372470358 0.0 5.773916394327279 3.333571176804646 9.428767828939895" Properties=species:S:1:pos:R:3:momenta:R:3:forces:R:3:energies:R:1 spacegroup="_JSON {\"number\": 1, \"setting\": 1}" unit_cell=conventional occupancy="_JSON {\"0\": {\"Si\": 1.0}, \"1\": {\"Si\": 1.0}, \"2\": {\"Si\": 1.0}, \"3\": {\"Si\": 1.0}, \"4\": {\"Si\": 1.0}, \"5\": {\"Si\": 1.0}, \"6\": {\"Si\": 1.0}, \"7\": {\"Si\": 1.0}, \"8\": {\"Si\": 1.0}, \"9\": {\"Si\": 1.0}, \"10\": {\"Si\": 1.0}, \"11\": {\"Si\": 1.0}, \"12\": {\"Si\": 1.0}, \"13\": {\"Si\": 1.0}, \"14\": {\"Si\": 1.0}, \"15\": {\"Si\": 1.0}, \"16\": {\"Si\": 1.0}, \"17\": {\"Si\": 1.0}, \"18\": {\"Si\": 1.0}, \"19\": {\"Si\": 1.0}, \"20\": {\"Si\": 1.0}, \"21\": {\"Si\": 1.0}, \"22\": {\"Si\": 1.0}, \"23\": {\"Si\": 1.0}, \"24\": {\"Si\": 1.0}, \"25\": {\"Si\": 1.0}, \"26\": {\"Si\": 1.0}, \"27\": {\"Si\": 1.0}, \"28\": {\"Si\": 1.0}, \"29\": {\"Si\": 1.0}, \"30\": {\"Si\": 1.0}, \"31\": {\"Si\": 1.0}, \"32\": {\"Si\": 1.0}, \"33\": {\"Si\": 1.0}, \"34\": {\"Si\": 1.0}, \"35\": {\"Si\": 1.0}, \"36\": {\"Si\": 1.0}, \"37\": {\"Si\": 1.0}, \"38\": {\"Si\": 1.0}, \"39\": {\"Si\": 1.0}, \"40\": {\"Si\": 1.0}, \"41\": {\"Si\": 1.0}, \"42\": {\"Si\": 1.0}, \"43\": {\"Si\": 1.0}, \"44\": {\"Si\": 1.0}, \"45\": {\"Si\": 1.0}, \"46\": {\"Si\": 1.0}, \"47\": {\"Si\": 1.0}, \"48\": {\"Si\": 1.0}, \"49\": {\"Si\": 1.0}, \"50\": {\"Si\": 1.0}, \"51\": {\"Si\": 1.0}, \"52\": {\"Si\": 1.0}, \"53\": {\"Si\": 1.0}}" energy=-471.0104288489597 stress="-0.0009797280590732307 0.0003797238619783521 0.0003965504520366645 0.0003797238619783521 0.0015728127449622358 -0.00033514436259066046 0.0003965504520366645 -0.00033514436259066046 -0.002092532840661228" free_energy=-471.0104288489597 pbc="T T T"
Si       6.72201672       3.80524579       2.64544383       0.16456600      -1.02032951       0.58388370       0.63930689       0.43204615       0.34464472      -8.75822169
Si       8.73616885       5.08114516       5.92971674       1.30199083       0.41517016       0.98009159      -1.34727769      -0.07321580      -1.31522320      -8.71394384
Si      10.61620055       6.03395132       8.91829285       0.48737364       0.19960947       1.41836026      -0.46541417      -0.18725025       0.25919272      -8.76343483
Si       8.54689100       7.28898685       2.79284791      -1.53429231       1.02861245       0.16218760       1.33545755      -0.80383419       0.21812989      -8.69606546
Si      10.67238047       8.42447710       5.89015039      -0.50287066       1.55642116      -1.25313363      -0.42930141      -1.11078723       0.59578264      -8.71029099
Si      12.57268879       9.41846364       9.09893709      -0.45351463       0.17621719      -0.93686307      -1.23261166      -0.04203783      -0.27727624      -8.68028779
Si      10.60769803      10.53431992       2.76408743       1.05032868      -1.04599925       0.54336916      -0.34297516      -0.49855580      -0.14721358      -8.72114307
Si      12.52896117      11.68906404       5.89392923       0.08232067       0.56874352       0.00966898      -0.02232809       0.80729384      -0.41014192      -8.74550454
Si      14.29229125      12.82594182       9.03686822      -0.44253668       1.81239963      -0.50375786       0.77172325      -0.08638261       0.05798516      -8.68774803
Si      10.58708284       3.81023572       2.63066815      -1.74605134      -1.67059620      -0.47730203      -0.74371147       0.01718489      -0.22173016      -8.72469056
Si      12.54825723       4.95133681       5.68599970      -0.09490390       0.34758916      -0.64305902       0.25781344       0.20488164       0.83171107      -8.68253978
Si      14.37075376       6.00918155       8.93269413       0.55901338      -0.22590262      -1.07521249       0.35574070       0.55039563       0.50897727      -8.74965499
Si      12.55158209       7.14387778       2.78021950       0.85779092       1.71393637       1.42773682      -0.44609591      -0.19479854      -0.30178429      -8.72420265
Si      14.42506208       8.46114639       5.87665811      -0.28071858       1.44014288       0.73386540       0.08156402      -0.84884754       0.65054690      -8.69377774
Si      16.24044132       9.50894056       9.02055403       0.71682425       1.03034146      -0.56036352       0.40892134      -0.98296915       0.27247239      -8.74928896
Si      14.31588968      10.49444551       2.72978788      -0.33603204      -0.07268801       0.97190334       0.18013798       0.22810766      -0.44150778      -8.75788608
Si      16.20471441      11.67485600       5.89539021      -2.20712013      -2.53672117      -0.10306770       1.30028525       0.36742581      -0.56760263      -8.69997431
Si      18.20806576      12.65748194       8.96220452      -0.31210753       0.32650974       0.00776621       0.19785159       0.12845249       0.77691194      -8.71988998
Si      14.53389619       3.80081240       2.73505875       0.82322538      -0.58221184      -0.05181377       0.26140442       0.42743946      -0.38648419      -8.71996861
Si      16.44708332       5.08980474       5.84472999       0.16770436      -1.07749330      -0.42753338       0.34757858      -0.41918176       0.96930427      -8.73664413
Si      18.36162965       6.13479251       9.02186672       0.01734097      -0.13930675      -0.64217498      -0.57527994       0.16733606       0.29442017      -8.71789110
Si      16.42692103       7.25568290       2.92919680       0.00854299       1.06607556       1.57811521      -0.62096158      -0.49478056      -0.65248366      -8.69957628
Si      18.30044305       8.41974316       5.96657299       0.05423757       0.28097995      -0.29087811       0.63997423       0.88243615       0.55564457      -8.73366605
Si      20.20370639       9.46902033       9.14633253       0.41032879       0.87397371       0.14647446       0.40482048      -0.49326768      -0.48797416      -8.75966143
Si      18.31654426      10.60354948       2.79206041      -0.29333996       1.15611773       1.61295468      -0.42836788      -0.13244883       1.13233131      -8.70253576
Si      20.26735122      11.70755071       6.00638589       0.55336622      -0.31587718       0.28565229      -0.12860483       0.07559148      -0.36446611      -8.73524005
Si      22.06769597      12.80178742       9.11890407      -1.25129230      -0.59883108      -0.60594539       0.69765892      -0.13870352      -0.12322247      -8.71630458
Si       0.91053847       0.62877882       0.52728371       0.04907804      -0.20256129       0.93063531      -0.23323792      -0.28841093      -1.31875123      -8.74877971
Si       2.93975421       1.66616479       3.62674891      -0.03986969       1.01114364      -0.06723723      -0.06121383      -0.41311405      -0.00689069      -8.74933545
Si       4.91542443       2.84424380       6.71474875       2.91668553       0.57004543      -1.26900912      -0.71732598       0.27601985       0.36125986      -8.71174499
Si       2.98141357       3.86603857       0.34600074      -0.35509124      -0.78000307      -0.28747067      -0.04070299      -0.04713857       0.40586148      -8.72599342
Si       4.93047427       4.93337181       3.55347270       1.18063664      -0.85972758      -0.78725851      -0.86919193       0.68470832      -0.46541529      -8.70612983
Si       6.80608309       6.28168404       6.70266343      -0.20899707       0.69871707       1.14769608      -0.03209985      -1.61964363      -0.25305545      -8.71212401
Si       4.80949942       7.21953269       0.54796962      -0.00486287      -1.25039653       1.35403316       0.49119386       0.22968763      -0.31920710      -8.70122694
Si       6.74010925       8.39535290       3.69080276       0.41267268       0.24957090       0.57715748      -0.06846982       0.50722442      -0.89089092      -8.75980832
Si       8.76581936       9.47366900       6.76076470      -0.35326547      -0.00306710      -1.17621591      -0.56586983       0.17776185       0.06602780      -8.71325950
Si       4.80048288       0.51023673       0.36969012      -0.37964566      -1.93697246      -0.21355575      -0.48503970      -0.16179263       0.03802319      -8.71338252
Si       6.69714278       1.67589065       3.51992427       0.29662720       1.63798744       0.00646202       0.12957900      -0.38214100       0.44452744      -8.73886948
Si       8.62427716       2.88882615       6.64889217      -0.75329990       0.77857464       0.45401330      -0.37121236      -0.43770677       0.72849703      -8.74664293
Si       6.67407630       3.77960511       0.31492046      -1.01580347       0.10776537       0.22525359       0.87845692       0.74345821      -0.09932992      -8.73363841
Si       8.63624131       4.96884218       3.48283086      -0.88581348      -0.35008093       0.30154615       0.29243386       0.28097714       0.17471126      -8.64258540
Si      10.64134036       6.05843427       6.59688535      -0.60619446      -1.63414402       0.29345035       1.15710832       1.15166228      -0.20487099      -8.70044039
Si       8.62081152       7.26419118       0.43878343      -0.25934092       0.60928193      -2.05919608      -0.21449962       0.54751209       0.12633944      -8.77567690
Si      10.63919590       8.26514340       3.59473264      -0.09698619      -1.76889981       0.42365161      -0.60252938       0.43372459      -0.85646359      -8.70342621
Si      12.51258470       9.55991504       6.70385380      -0.69327431       0.90756953      -0.46174618       0.47446968      -0.69086163       0.60378698      -8.75455268
Si       8.55476762       0.52070713       0.36894673       0.06464067      -0.00022896       0.19185730      -0.18122382      -0.49690992      -0.05610945      -8.75032371
Si      10.45845880       1.57608878       3.48088568      -1.25670895      -1.38210325       0.12597498       0.76182122       0.56757371       0.42966868      -8.69229712
Si      12.46164824       2.78410331       6.65128781       0.20071788       1.07547623      -1.89616616      -0.07369959      -0.27150386      -0.63910055      -8.70306615
Si      10.55362922       3.87199770       0.22477861       1.49918835      -0.40450356      -1.09381887      -0.20439244      -0.04721095       0.67568274      -8.67295544
Si      12.54518522       4.85048776       3.32685510       0.77105525      -1.20930708      -0.72807602       0.07121427       0.49821909       0.83980737      -8.75747417
Si      14.49540653       6.13344378       6.63315103      -0.73173053      -0.20754609      -0.29498602      -0.84264024       0.10119361      -1.07156332      -8.69441203
Si      12.42415651       7.06813945       0.42558318      -0.73147527      -0.80511917       1.25381442       0.33960898       1.25784500      -0.02860635      -8.69988450
Si      14.40158230       8.33480721       3.56381224       0.78196062       0.73284743       0.61849855       0.37841300      -0.38416826      -0.13716313      -8.76157417
Si      16.37053692       9.51038802       6.71490452       2.39892201      -0.29120193      -0.46023256      -0.50825866       0.00150443      -0.31771994      -8.74079118
54
Lattice="11.5478352 0.0 0.0 5.773917198490155 10.000722372470358 0.0 5.773916394327279 3.333571176804646 9.428767828939895" Properties=species:S:1:pos:R:3:momenta:R:3:forces:R:3:energies:R:1 spacegroup="_JSON {\"number\": 1, \"setting\": 1}" unit_cell=conventional occupancy="_JSON {\"0\": {\"Si\": 1.0}, \"1\": {\"Si\": 1.0}, \"2\": {\"Si\": 1.0}, \"3\": {\"Si\": 1.0}, \"4\": {\"Si\": 1.0}, \"5\": {\"Si\": 1.0}, \"6\": {\"Si\": 1.0}, \"7\": {\"Si\": 1.0}, \"8\": {\"Si\": 1.0}, \"9\": {\"Si\": 1.0}, \"10\": {\"Si\": 1.0}, \"11\": {\"Si\": 1.0}, \"12\": {\"Si\": 1.0}, \"13\": {\"Si\": 1.0}, \"14\": {\"Si\": 1.0}, \"15\": {\"Si\": 1.0}, \"16\": {\"Si\": 1.0}, \"17\": {\"Si\": 1.0}, \"18\": {\"Si\": 1.0}, \"19\": {\"Si\": 1.0}, \"20\": {\"Si\": 1.0}, \"21\": {\"Si\": 1.0}, \"22\": {\"Si\": 1.0}, \"23\": {\"Si\": 1.0}, \"24\": {\"Si\": 1.0}, \"25\": {\"Si\": 1.0}, \"26\": {\"Si\": 1.0}, \"27\": {\"Si\": 1.0}, \"28\": {\"Si\": 1.0}, \"29\": {\"Si\": 1.0}, \"30\": {\"Si\": 1.0}, \"31\": {\"Si\": 1.0}, \"32\": {\"Si\": 1.0}, \"33\": {\"Si\": 1.0}, \"34\": {\"Si\": 1.0}, \"35\": {\"Si\": 1.0}, \"36\": {\"Si\": 1.0}, \"37\": {\"Si\": 1.0}, \"38\": {\"Si\": 1.0}, \"39\": {\"Si\": 1.0}, \"40\": {\"Si\": 1.0}, \"41\": {\"Si\": 1.0}, \"42\": {\"Si\": 1.0}, \"43\": {\"Si\": 1.0}, \"44\": {\"Si\": 1.0}, \"45\": {\"Si\": 1.0}, \"46\": {\"Si\": 1.0}, \"47\": {\"Si\": 1.0}, \"48\": {\"Si\": 1.0}, \"49\": {\"Si\": 1.0}, \"50\": {\"Si\": 1.0}, \"51\": {\"Si\": 1.0}, \"52\": {\"Si\": 1.0}, \"53\": {\"Si\": 1.0}}" energy=-469.9899751305567 stress="-0.004300248477488559 0.001518175362727589 0.0005997270785313098 0.001518175362727589 0.001624245039724702 -0.0007736180130609963 0.0005997270785313098 -0.0007736180130609963 0.0011010727446036856" free_energy=-469.9899751305567 pbc="T T T"
Si       6.75538764       3.78211812       2.67625451       1.04137690       0.34821489       0.37838549       0.36959923       1.20950899      -0.46543370      -8.74668601
Si       8.73942021       5.09536358       5.92692683      -1.15624782       0.08063270      -1.02213134      -1.25694196      -0.25071511      -1.05376347      -8.72387054
Si      10.61808930       6.02563564       8.99214375      -0.41414917      -0.64875570       1.23258718      -0.44665811      -0.68989366      -0.38320949      -8.74352356
Si       8.52563920       7.30208407       2.79550727       0.73198434      -0.61216974      -0.29262888       1.34558112      -1.11905034      -0.68930652      -8.66772142
Si      10.63280456       8.45298769       5.85503021      -0.91167041      -0.56069862      -0.01586852      -0.06246921      -1.48201780       0.87584593      -8.64783870
Si      12.50611347       9.42585297       9.04635039      -1.89497081       0.14201484      -0.90463735      -0.48883583       0.09099598       0.35647602      -8.72766812
Si      10.64266074      10.46554414       2.78526339       0.18032579      -1.44090759       0.23660026      -0.74688474       0.03231669      -0.25284881      -8.64645629
Si      12.54107666      11.74198206       5.87611699       0.49187466       1.20319998      -0.65317211       0.38865891      -0.12285879      -0.25776563      -8.72321489
Si      14.29517243      12.90653994       9.01629622       0.42517964       1.07307994      -0.20182499       0.26848825      -0.82034400       0.36891468      -8.75509811
Si      10.48340814       3.73361136       2.60057043      -1.88035942      -1.05882398      -0.57351460       0.53348841       0.77196156       0.15905738      -8.65942974
Si      12.55112531       4.97638613       5.67779631       0.14890056       0.56284890       0.18038909       0.03306764       0.01443043       0.25016347      -8.77088777
Si      14.40813830       6.01936089       8.90110853       0.76064443       0.58095021      -0.12694187      -0.06866821       0.42242135       0.52327675      -8.72363540
Si      12.57853994       7.20674113       2.83841281       0.17874356       0.40959756       0.72729261      -0.41380653      -1.27078566      -0.54356993      -8.69075273
Si      14.41996599       8.49833901       5.93641176       0.18129626      -0.09426851       1.41472174       0.44453473      -1.12615683       0.15109625      -8.65443634
Si      16.28754472       9.51989725       9.00261066       0.94746649      -0.60369448      -0.09645046      -0.09574468      -0.94416329       0.39005979      -8.73182739
Si      14.30266509      10.49868912       2.75497350      -0.18091073       0.19126388      -0.11093526       0.13578329       0.05925275      -0.82883022      -8.72062369
Si      16.14385449      11.57870643       5.87055295      -0.11015174      -0.75858576      -0.74334194       1.34133053       1.80090960      -0.15641734      -8.61936731
Si      18.20164059      12.67304374       8.97874488       0.07809190       0.17204915       0.35108470       0.23663940      -0.24303393      -0.27766976      -8.68680139
Si      14.58425986       3.79144979       2.71385039       0.98951164       0.26024859      -0.75995303      -0.16646735       0.55600854      -0.38916932      -8.74320425
Si      16.46605748       5.03108352       5.85387135       0.43698620      -0.87897018       0.58805677      -0.11574911       0.68700750       0.24516533      -8.72472886
Si      18.34527915       6.12736926       9.00897682      -0.52574466      -0.26293662       0.27563635      -0.13127286      -0.29091092       0.76390661      -8.73931671
Si      16.40968795       7.28431534       2.98191572      -0.50044609      -0.06476430       0.36272298       0.01693846      -0.84381354      -0.91902012      -8.68091837
Si      18.33301432       8.45472252       5.97130698       1.19485390       0.70382271       0.37299584       0.63724603      -0.45145451       0.17433190      -8.73752296
Si      20.23251038       9.48727407       9.13580676       0.53294039      -0.26395351      -0.49471416      -0.19390330      -0.83080586      -0.27863573      -8.70263384
Si      18.28707213      10.65479037       2.90395295      -0.75239232       0.73801748       2.24039686      -0.11507712      -0.36486412      -0.45557662      -8.70805441
Si      20.29474690      11.70403222       6.00385705       0.52722303       0.33671466      -0.42247258       0.01204958       0.67405209      -0.51443433      -8.68199651
Si      22.03912255      12.76392728       9.08563681       0.26599124      -0.84400651      -0.59064629       1.10022839      -0.12808626       0.16867687      -8.65418986
Si       0.89679829       0.61038267       0.53258132      -0.65397903      -0.42521179      -0.49172486      -0.54917365      -0.00418869      -0.42251279      -8.68830619
Si       2.94303306       1.69289529       3.62719472       0.28927312      -0.11303892       0.12521782       0.42470569      -0.87817244       0.14125647      -8.72931958
Si       5.01647874       2.87843647       6.67380806       0.56586483       0.58289921      -0.10387666      -2.14169385      -0.33204924       1.07842356      -8.66592972
Si       2.96274234       3.83236289       0.34552911      -0.33972510      -0.36465854       0.21683540       0.02990041       0.49793439       0.19486795      -8.71806009
Si       4.95453706       4.92118314       3.50466674      -0.25783858       0.45045255      -0.85064078      -0.84073038       0.89683057       0.39500896      -8.67523067
Si       6.79586099       6.25862119       6.73921772      -0.15358224      -1.38908549       0.03381505       0.07619548      -0.90279213      -1.05358197      -8.69351116
Si       4.82677733       7.17292174       0.60219678       0.57711428      -0.38218091       0.62153150       0.14639265       0.79842398      -0.67931402      -8.69877870
Si       6.75354982       8.43237288       3.68894291       0.04625939       1.12870163      -0.54831791      -0.26337378       0.36339066      -0.51360916      -8.75911953
Si       8.72964739       9.48280688       6.71203904      -0.87511146       0.39794366      -0.50088369       0.03543367       0.36547595       0.77668843      -8.74547840
Si       4.76796541       0.41865287       0.36614128      -0.69707971      -1.26757375       0.19278304       0.15859595       0.96295575       0.48063818      -8.71679655
Si       6.71420845       1.72663181       3.53981690       0.27893055      -0.00357139       0.71599158      -0.16340297      -1.51102603       0.27872852      -8.70360816
Si       8.57997516       2.90927536       6.69331172      -0.71070476      -0.01500406       1.03526516       0.49999216      -0.49508885      -0.06927469      -8.71362030
Si       6.66919963       3.81233101       0.32393312       0.95838156       1.04027972       0.13284680       1.37097707       0.34077063      -0.05444764      -8.71443881
Si       8.60451049       4.96545159       3.50460431      -0.26599662       0.26206060       0.48767831       0.52421171       0.44365370       0.00776253      -8.64842580
Si      10.66378761       6.03247824       6.61268795       1.37934044       0.76168161       0.41448208       0.82646488       1.62026470       0.20014666      -8.64401479
Si       8.59829946       7.31481339       0.34478326      -0.58703662       1.17598977      -1.39916658      -0.16318530      -0.01831762       0.63508182      -8.70801805
Si      10.61031199       8.19733249       3.58277201      -0.95310262      -0.70741812      -0.80878079      -0.39101594       0.86487282      -0.58014085      -8.73795754
Si      12.49129127       9.58246451       6.69969837      -0.21817337       0.03331186       0.17407399       0.09785456      -0.38876051       0.10421034      -8.75872008
Si       8.54825982       0.50568077       0.37730236      -0.30919789      -0.46233388       0.11078875      -0.16353104      -0.07019046      -0.12220521      -8.75834068
Si      10.42313115       1.53068587       3.50534914      -0.12991263      -0.26807549       0.77907346       0.59880587       0.88504045       0.31021222      -8.72218174
Si      12.46451543       2.81785355       6.54458196      -0.14010137       0.02255044      -1.82960654      -0.27419623      -1.00056486       0.69038478      -8.60353459
Si      10.61138349       3.85464019       0.19581842       0.48131082      -0.16609565       0.01963169      -1.06248319       0.30882596       0.78834862      -8.68707882
Si      12.57616376       4.81313851       3.31871260       0.21104766      -0.13922060       0.34982565      -0.70178779       0.79702036       0.56368829      -8.63518475
Si      14.43349970       6.12683460       6.57694415      -1.39585402      -0.05071971      -1.69665083       0.08085872       0.08449217      -0.48039657      -8.69627907
Si      12.41084510       7.08095521       0.48791825       0.40497649       1.31121267       1.04537786       1.02877357       1.32031596      -0.34392286      -8.69028549
Si      14.45017324       8.36051635       3.59741576       0.88902847       0.30420598       0.77393374      -0.32949047      -0.16957562       0.28784695      -8.76314765
Si      16.46111372       9.49235873       6.68851717       0.81952062      -0.42722140      -0.35113970      -1.41625272      -0.11945247       0.42479147      -8.70220306
54
Lattice="11.5478352 0.0 0.0 5.773917198490155 10.000722372470358 0.0 5.773916394327279 3.333571176804646 9.428767828939895" Properties=species:S:1:pos:R:3:momenta:R:3:forces:R:3:energies:R:1 spacegroup="_JSON {\"number\": 1, \"setting\": 1}" unit_cell=conventional occupancy="_JSON {\"0\": {\"Si\": 1.0}, \"1\": {\"Si\": 1.0}, \"2\": {\"Si\": 1.0}, \"3\": {\"Si\": 1.0}, \"4\": {\"Si\": 1.0}, \"5\": {\"Si\": 1.0}, \"6\": {\"Si\": 1.0}, \"7\": {\"Si\": 1.0}, \"8\": {\"Si\": 1.0}, \"9\": {\"Si\": 1.0}, \"10\": {\"Si\": 1.0}, \"11\": {\"Si\": 1.0}, \"12\": {\"Si\": 1.0}, \"13\": {\"Si\": 1.0}, \"14\": {\"Si\": 1.0}, \"15\": {\"Si\": 1.0}, \"16\": {\"Si\": 1.0}, \"17\": {\"Si\": 1.0}, \"18\": {\"Si\": 1.0}, \"19\": {\"Si\": 1.0}, \"20\": {\"Si\": 1.0}, \"21\": {\"Si\": 1.0}, \"22\": {\"Si\": 1.0}, \"23\": {\"Si\": 1.0}, \"24\": {\"Si\": 1.0}, \"25\": {\"Si\": 1.0}, \"26\": {\"Si\": 1.0}, \"27\": {\"Si\": 1.0}, \"28\": {\"Si\": 1.0}, \"29\": {\"Si\": 1.0}, \"30\": {\"Si\": 1.0}, \"31\": {\"Si\": 1.0}, \"32\": {\"Si\": 1.0}, \"33\": {\"Si\": 1.0}, \"34\": {\"Si\": 1.0}, \"35\": {\"Si\": 1.0}, \"36\": {\"Si\": 1.0}, \"37\": {\"Si\": 1.0}, \"38\": {\"Si\": 1.0}, \"39\": {\"Si\": 1.0}, \"40\": {\"Si\": 1.0}, \"41\": {\"Si\": 1.0}, \"42\": {\"Si\": 1.0}, \"43\": {\"Si\": 1.0}, \"44\": {\"Si\": 1.0}, \"45\": {\"Si\": 1.0}, \"46\": {\"Si\": 1.0}, \"47\": {\"Si\": 1.0}, \"48\": {\"Si\": 1.0}, \"49\": {\"Si\": 1.0}, \"50\": {\"Si\": 1.0}, \"51\": {\"Si\": 1.0}, \"52\": {\"Si\": 1.0}, \"53\": {\"Si\": 1.0}}" energy=-470.45002678322487 stress="-0.00036543968871056916 -0.0003514554575382564 -0.000580483074420465 -0.0003514554575382564 0.0013354512786195709 -0.00018838628075552993 -0.000580483074420465 -0.00018838628075552993 0.000743788000492257" free_energy=-470.45002678322487 pbc="T T T"
Si       6.81265032       3.83886652       2.68031700       0.89549053       1.55852906      -0.12472666      -0.58485461       0.22858684      -0.10114005      -8.74765768
Si       8.65921693       5.09156808       5.85044408      -1.34512123      -0.21346963      -1.52499903       0.90511953      -0.19930756       0.38786542      -8.71260859
Si      10.59297889       5.97434923       9.04147489      -0.27238747      -1.05099419       0.65168843       0.59251320       0.30570075      -0.37985589      -8.70551805
Si       8.59669518       7.23851972       2.75076554       1.55976221      -1.52462089      -1.42181546      -0.26622639      -0.00117168      -0.72182711      -8.70025275
Si      10.58777523       8.37674673       5.88142567      -0.72024351      -2.03220849       0.85043587       0.26789611      -0.21956051       0.19545913      -8.71330477
Si      12.40472886       9.44044643       9.01773018      -1.63726645       0.45592279      -0.14590058       0.81813634       0.24275359       0.50741159      -8.75068588
Si      10.62404478      10.39935747       2.78819844      -0.82912788      -0.92162038      -0.10530333      -0.49505536       0.66385351      -0.17361851      -8.67300393
Si      12.57309285      11.78912313       5.84529032       0.49219881       0.43692805      -0.24743653      -0.50767688      -0.74981958       0.78099661      -8.72355422
Si      14.31730399      12.92969436       9.02337931       0.24151893      -0.16889908       0.51397128      -0.40819313      -0.73650601       0.52303005      -8.76994709
Si      10.41539755       3.71309217       2.58379381      -0.56309541       0.34714415       0.07398946       1.12695408       1.04597116       0.70218013      -8.60005417
Si      12.55450333       4.99938405       5.69135826      -0.14573417       0.16499519       0.27374095      -0.44908685      -0.54795295       0.00785565      -8.79279478
Si      14.44106625       6.05924645       8.90467713       0.41936466       0.78405428       0.06493970      -0.35990952      -0.19047512      -0.24455327      -8.70970263
Si      12.57465263       7.18344326       2.85901371      -0.27406560      -1.11549805       0.13862814      -0.20347670      -0.55115046      -0.24161225      -8.71990986
Si      14.44342125       8.45390906       6.00794232       0.59264079      -1.46011641       1.15787312      -0.02500197      -0.56288184      -0.45841908      -8.70393077
Si      16.33074258       9.46643097       9.01576391       0.67217346      -1.09919776       0.64537025      -0.21132081       0.36400153       0.55814981      -8.71328190
Si      14.30300902      10.50652875       2.72333263       0.28580907       0.02569762      -0.92250189       0.47802489      -0.25764078      -0.15439734      -8.73126184
Si      16.18336677      11.60672789       5.83818228       1.46188816       1.65218523      -0.23118725       0.70791044       1.11041058       0.83556359      -8.68067655
Si      18.21057380      12.67457669       8.97884777       0.17101952      -0.02974801      -0.44519531      -0.11118516       0.08761184      -0.66629541      -8.69716708
Si      14.61963794       3.82006461       2.66861878       0.17075191       0.68588619      -0.73959112      -0.88992561      -0.00079958       0.48220720      -8.73633791
Si      16.47427722       5.01890184       5.88233870      -0.31253729       0.45096301       0.30925043      -0.84327469       0.81268896      -0.48518513      -8.70639274
Si      18.31622011       6.10167021       9.04604091      -0.54966768      -0.67889495       0.94016646      -0.00037640      -0.14021746       0.00577512      -8.74750181
Si      16.39130807       7.25627083       2.96733030      -0.11523710      -0.77030868      -0.85226407       0.34743990       0.07717940      -0.65340895      -8.72274002
Si      18.40379656       8.46050323       5.98773372       1.13192108      -0.64827396       0.08556158      -0.76898714      -1.08701681      -0.46878898      -8.72172979
Si      20.25046683       9.44881188       9.10580879       0.13456105      -0.99892513      -0.51250640      -0.26883303      -0.03119071       0.25406289      -8.68738844
Si      18.25027344      10.68126643       2.98533384      -0.51272400       0.32366510       0.57189259       0.41591689      -0.17177634      -1.59403031      -8.66185337
Si      20.32022883      11.74529037       5.96529554       0.36341292       1.11501698      -0.94814652      -0.30796696       0.19558958      -0.12705216      -8.71438509
Si      22.08612685      12.71833061       9.06602144       1.27193689      -0.80570990      -0.06407596       0.10398947       0.21943353       0.52548589      -8.69839396
Si       0.84707827       0.59023865       0.50396607      -1.07110524      -0.31099299      -0.37058832       0.11927187       0.12474030       0.48577771      -8.65296929
Si       2.97469431       1.66027482       3.63301405       0.86809230      -0.93751840      -0.05824529       0.22243024      -0.12610588      -0.45207455      -8.73344026
Si       4.96996345       2.88717782       6.70623038      -2.06575512      -0.36036752       1.16809233      -1.07631714      -0.72661429       0.40822573      -8.72201345
Si       2.94584976       3.83146461       0.35795581      -0.30314650       0.25760900       0.12615049       0.03753144       0.20985474      -0.30920049      -8.75893977
Si       4.92025782       4.97148532       3.48218509      -0.80228623       1.25812590       0.07909721       0.11153148       0.07266194       0.72940931      -8.71015408
Si       6.79026471       6.16910339       6.70716620      -0.07873599      -1.66972233      -1.02042546       0.00287074       0.48738731      -0.15178487      -8.73478302
Si       4.85193710       7.18207432       0.60592692       0.16455074       0.65261630      -0.49635936      -0.69757668       0.48555642      -0.73262371      -8.71233050
Si       6.75241909       8.48825085       3.64783805       0.05405062       0.62953291      -0.88253332       0.28072828      -1.06521488       0.02260621      -8.72260456
Si       8.69916529       9.51982361       6.71837353      -0.04302934       1.02111238       0.73040799       0.95200392       0.36982810       0.71100743      -8.75693502
Si       4.74757151       0.39359508       0.39610852       0.07213701       0.31595378       0.92291784       0.73576208       0.97008778       0.36486392      -8.73305418
Si       6.71978895       1.67829810       3.57287883      -0.10250673      -1.53096130       0.22550249      -0.30361412      -0.33776978      -0.92872445      -8.71117663
Si       8.57174347       2.89597904       6.73292763       0.53799692      -0.34465289       0.28327530       1.04268747       0.07406635      -0.80572602      -8.68871699
Si       6.75766571       3.86858990       0.32766324       2.06347447       0.90043799      -0.00778778       0.00226966      -0.44431203      -0.11448075      -8.73287007
Si       8.61236111       4.99293103       3.52461009       0.58400670       0.69265676       0.14508565       0.58775025       0.07823864      -0.49442325      -8.73587150
Si      10.73901521       6.11911261       6.64035705       0.97485087       2.13938920       0.61223560      -1.15769666       0.01523992       0.10236029      -8.67513525
Si       8.56503213       7.36034932       0.29621028      -0.59410472       0.26522529      -0.45944939       0.17799735      -1.15801085       0.60502845      -8.63638330
Si      10.55613523       8.19023644       3.53084774      -0.87729844       0.31628581      -0.90391960       0.51481934       0.38384479       0.46053670      -8.76988142
Si      12.47905753       9.57384478       6.70290654      -0.29954075      -0.31050571      -0.20768569      -0.10441864      -0.18592779      -0.49327440      -8.72277102
Si       8.53364746       0.48469483       0.37406375      -0.07771021      -0.23632258      -0.32755516       0.49107230       0.32757901      -0.48025125      -8.73315078
Si      10.42964021       1.55105621       3.54891908       0.18529229       1.02470219       0.67496145      -0.14115167       0.79646735      -0.48483302      -8.73986104
Si      12.44949328       2.78342354       6.48426345      -0.34314035      -1.18485909      -0.35025018       0.08599927      -0.40701766       1.16930696      -8.59863195
Si      10.59572763       3.85740370       0.22528184      -0.98298305       0.22503996       1.03854794      -0.68579536       0.12823696       0.52668993      -8.77085841
Si      12.55942163       4.83189042       3.35210520      -0.81323136       0.71732647       0.77817222      -0.56512074       0.25335582      -0.00674691      -8.58829998
Si      14.37935601       6.12669171       6.48902434      -0.37999844       0.02282475      -1.27860454       1.18438960      -0.01861062       0.98268075      -8.67282154
Si      12.46825591       7.18615896       0.52214256       1.64708144       2.33309593       0.13214731       0.50012095      -0.12361610      -0.81833150      -8.72427042
Si      14.47540494       8.37140606       3.64872882      -0.03905238       0.10318728       1.11818953      -0.75789066      -0.20133955       0.03427099      -8.73745620
Si      16.45455361       9.46724974       6.68857705      -0.86515071      -0.47172122       0.33676259      -0.62220421       0.11108011       0.37385216      -8.73261045
54
Lattice="11.5478352 0.0 0.0 5.773917198490155 10.000722372470358 0.0 5.773916394327279 3.333571176804646 9.428767828939895" Properties=species:S:1:pos:R:3:momenta:R:3:forces:R:3:energies:R:1 spacegroup="_JSON {\"number\": 1, \"setting\": 1}" unit_cell=conventional occupancy="_JSON {\"0\": {\"Si\": 1.0}, \"1\": {\"Si\": 1.0}, \"2\": {\"Si\": 1.0}, \"3\": {\"Si\": 1.0}, \"4\": {\"Si\": 1.0}, \"5\": {\"Si\": 1.0}, \"6\": {\"Si\": 1.0}, \"7\": {\"Si\": 1.0}, \"8\": {\"Si\": 1.0}, \"9\": {\"Si\": 1.0}, \"10\": {\"Si\": 1.0}, \"11\": {\"Si\": 1.0}, \"12\": {\"Si\": 1.0}, \"13\": {\"Si\": 1.0}, \"14\": {\"Si\": 1.0}, \"15\": {\"Si\": 1.0}, \"16\": {\"Si\": 1.0}, \"17\": {\"Si\": 1.0}, \"18\": {\"Si\": 1.0}, \"19\": {\"Si\": 1.0}, \"20\": {\"Si\": 1.0}, \"21\": {\"Si\": 1.0}, \"22\": {\"Si\": 1.0}, \"23\": {\"Si\": 1.0}, \"24\": {\"Si\": 1.0}, \"25\": {\"Si\": 1.0}, \"26\": {\"Si\": 1.0}, \"27\": {\"Si\": 1.0}, \"28\": {\"Si\": 1.0}, \"29\": {\"Si\": 1.0}, \"30\": {\"Si\": 1.0}, \"31\": {\"Si\": 1.0}, \"32\": {\"Si\": 1.0}, \"33\": {\"Si\": 1.0}, \"34\": {\"Si\": 1.0}, \"35\": {\"Si\": 1.0}, \"36\": {\"Si\": 1.0}, \"37\": {\"Si\": 1.0}, \"38\": {\"Si\": 1.0}, \"39\": {\"Si\": 1.0}, \"40\": {\"Si\": 1.0}, \"41\": {\"Si\": 1.0}, \"42\": {\"Si\": 1.0}, \"43\": {\"Si\": 1.0}, \"44\": {\"Si\": 1.0}, \"45\": {\"Si\": 1.0}, \"46\": {\"Si\": 1.0}, \"47\": {\"Si\": 1.0}, \"48\": {\"Si\": 1.0}, \"49\": {\"Si\": 1.0}, \"50\": {\"Si\": 1.0}, \"51\": {\"Si\": 1.0}, \"52\": {\"Si\": 1.0}, \"53\": {\"Si\": 1.0}}" energy=-470.48473813464267 stress="0.0036144794704482913 -0.0011084706217434576 -0.0009633546896036432 -0.0011084706217434576 -0.002480859865400849 0.0018248052424334634 -0.0009633546896036432 0.0018248052424334634 -0.00045591078408947105" free_energy=-470.48473813464267 pbc="T T T"
Si       6.83011734       3.91493255       2.67594450      -0.29362875       1.09148333       0.05497430      -0.82937406      -0.76073547       0.28222022      -8.68354869
Si       8.63693150       5.07288446       5.79782259       0.63256220      -0.46275625      -0.31356700       1.44144148      -0.04718001       1.04174625      -8.64023760
Si      10.60680712       5.94645969       9.06202932       0.83426849       0.24820466       0.16032625       0.73130095       1.30657958      -0.25524747      -8.65003771
Si       8.65597997       7.17298377       2.65461244       0.56091452      -0.72708735      -2.04972710      -0.82474341       0.96078007       0.06213167      -8.69153650
Si      10.56008502       8.28995892       5.92181918      -0.35658827      -0.74042195       0.47381648       0.19622277       1.80910411      -0.63001682      -8.69529006
Si      12.36012958       9.46994238       9.02278397       0.04697647       0.56799310       0.18403826       1.23270635      -0.14475454      -0.08745998      -8.74015474
Si      10.57144737      10.38054322       2.77877425      -0.94485859       0.22123847      -0.19507378       0.41135679       0.71243982       0.05571707      -8.75207384
Si      12.57066092      11.78363400       5.86419640      -0.66963671      -0.59761764       0.88341067      -0.83258696      -0.55303209       0.46097799      -8.72881762
Si      14.31580650      12.89845947       9.06699950      -0.20040546      -0.90212177       1.04106879      -0.03371414      -0.26811620       0.09782773      -8.74551696
Si      10.42972704       3.76972694       2.61750874       1.07837636       1.72871062       1.20262951       0.99222328       0.70049322       0.65076664      -8.67382723
Si      12.52719377       4.98599711       5.71094127      -0.87366096      -0.62307820       0.59490606      -0.36072606      -0.34920340       0.46703262      -8.73876648
Si      14.44950056       6.08573318       8.89358996      -0.05817503       0.11162247      -0.52733610      -0.20478413      -0.62779282      -0.38958895      -8.70646104
Si      12.55470655       7.12210327       2.85807986      -0.43916401      -0.85724879      -0.18769516      -0.01292991       0.86660931      -0.28390675      -8.73244149
Si      14.46426090       8.36983064       6.04729531       0.04960697      -1.44507939       0.29255077      -0.60870772       0.60629767      -0.65255304      -8.73181606
Si      16.35934852       9.43646276       9.06811261       0.45229863       0.13666552       1.24964222      -0.07679939       1.05505180       0.16265238      -8.67047617
Si      14.33642916      10.49688084       2.67899824       0.93972503      -0.38588131      -0.60601576       0.28535103      -0.22416795       0.47467294      -8.74957640
Si      16.27430203      11.71310281       5.86068713       1.71714604       1.91532650       1.00425687      -0.41332747      -0.80015580       0.50265882      -8.74170709
Si      18.21400493      12.68478644       8.93277418      -0.02485722       0.56187896      -1.18513766      -0.04931375       0.62558898      -0.14992170      -8.72412988
Si      14.59225177       3.85164932       2.65686541      -1.19034893       0.46324474       0.38802110      -0.79125593      -0.22281351       0.84858701      -8.68938321
Si      16.42439662       5.06046722       5.88061389      -1.49773117       0.83724599      -0.30244629      -0.45907817      -0.33800927      -0.20863769      -8.72904493
Si      18.28466302       6.06790956       9.08508333      -0.70148842      -0.45874224       0.37765512      -0.17816480       0.43655132      -0.66359445      -8.70419279
Si      16.39464561       7.23446492       2.90334409       0.14103354       0.17848282      -1.45843517      -0.04290531       0.98488179      -0.13696200      -8.73512059
Si      18.42705440       8.39394259       5.97472969      -0.24952215      -1.61708629      -0.51238814      -0.81336646      -0.03223171      -0.21071906      -8.72527384
Si      20.24908250       9.40798479       9.09284859      -0.14735136      -0.34427273       0.06586885      -0.11197588       0.78568274       0.43446314      -8.71896750
Si      18.24113382      10.69198040       2.95413382       0.15064938       0.04862325      -1.65250750       0.36457107      -0.30860578      -1.14984642      -8.67249007
Si      20.32056706      11.79835732       5.91564444      -0.47613135       0.64637402      -0.87410834      -0.77897433      -0.82120606       0.15062675      -8.74632555
Si      22.14136187      12.68983398       9.08335992       0.56772359      -0.16811882       0.68099510      -0.92746914       0.66316793       0.34393395      -8.72695453
Si       0.80708246       0.57873462       0.50787242      -0.24925388      -0.13205398       0.55014047       0.90913977       0.10560289       0.58961689      -8.69402808
Si       3.01933622       1.61802097       3.60671255       0.61171939      -0.45094095      -0.99620477      -0.64854764       0.74819395      -0.64436340      -8.72391484
Si       4.84416513       2.85069458       6.76876758      -2.26278301      -0.76782817       0.96817902       0.75307053       0.27240256      -0.55789358      -8.71895555
Si       2.93231264       3.84409461       0.35066097      -0.19349171       0.05354978      -0.38355110       0.10957629      -0.44336415      -0.22394944      -8.77347789
Si       4.88862524       5.02791616       3.51047410      -0.35292342       0.69490169       0.86673257       0.31507173      -0.68543810       0.20048331      -8.74885582
Si       6.78459857       6.10926749       6.66209616      -0.16654222      -0.53265927      -0.47686574      -0.11027686       0.79017385       0.71057040      -8.74157561
Si       4.82817569       7.22544039       0.55715234      -1.10000353       0.78383158      -1.22622472      -0.79631665      -0.36664723      -0.19867422      -8.72915410
Si       6.76953033       8.47143723       3.60454912       0.62465271      -1.30926559      -0.76203337       0.38591194      -1.21010884       0.04999524      -8.67547177
Si       8.72958190       9.57919455       6.77242883       1.01545956       1.02740179       1.05175200       0.24078766      -0.45410322      -0.36923294      -8.72286865
Si       4.77554452       0.43704017       0.44971053       0.84745796       1.10505400       0.91362642       0.17214767       0.05910672      -0.44190214      -8.75058531
Si       6.70419794       1.60157233       3.54551412      -0.43851102      -1.10879592      -1.20267168      -0.09016488       0.79343863      -0.67940298      -8.67453849
Si       8.63607480       2.88549019       6.71936109       1.74011517      -0.00708860      -0.66775826       0.34355080       0.25967896      -0.28927195      -8.73917653
Si       6.84858059       3.89762493       0.32399522       1.09377501       0.23703521      -0.09907718      -1.20693639      -0.33705580       0.01267961      -8.69888042
Si       8.66262814       5.02664225       3.50971303       1.22388070       0.49864050      -0.71617064       0.14719916      -0.28238528      -0.49096281      -8.77779240
Si      10.73944518       6.20246470       6.67844292      -0.96927017       0.48403298       0.87318600      -1.22455848      -2.08962275       0.20310731      -8.62166075
Si       8.54488444       7.32490697       0.29189207      -0.09717653      -1.59690054       0.19432398       0.48156429      -1.06476259       0.19691857      -8.67104663
Si      10.53553008       8.21030426       3.50915909       0.12132741       0.24341661       0.15889059       0.63111509      -0.40146529       0.77380259      -8.72977402
Si      12.46157499       9.54755772       6.67509182      -0.30723704      -0.75107299      -0.75196672       0.12600724      -0.40206777      -0.10686719      -8.69128416
Si       8.55321324       0.48602085       0.33598330       0.85871841       0.27996459      -1.12332291       0.62122979       0.30078015      -0.46238259      -8.68877585
Si      10.43155470       1.63030047       3.56115877      -0.08434091       1.85569451      -0.20750959      -0.03608718       0.23200872      -0.48131331      -8.74790594
Si      12.44410235       2.72159932       6.50950826       0.33332500      -0.85068030       1.24159015       0.83444505       0.84314133       0.87164354      -8.66596023
Si      10.53116929       3.86926904       0.29461010      -1.21287975       0.15063194       1.48723589       0.34978031      -0.16276187       0.05899197      -8.79248464
Si      12.50101480       4.86854310       3.38751468      -1.27484824       0.47916028       0.51346129      -0.00694689      -0.51610164      -0.22683260      -8.66083127
Si      14.40399715       6.12182351       6.46801130       1.14934498      -0.33095564       0.54942158       0.51113664      -0.47268573       1.26673937      -8.70393431
Si      12.56350400       7.28329643       0.50007701       1.77148988       1.03387854      -0.86469966      -0.34865125      -1.41571985      -0.40263744      -8.68753236
Si      14.44875721       8.36464520       3.70019405      -0.84366507      -0.44059151       0.66950094      -0.23892952      -0.49831376      -0.64237243      -8.70005592
Si      16.40128037       9.45101123       6.71648729      -0.88607257      -0.07594225       0.65029310       0.47070512       0.38285237       0.06594936      -8.71004801
54
Lattice="11.5478352 0.0 0.0 5.773917198490155 10.000722372470358 0.0 5.773916394327279 3.333571176804646 9.428767828939895" Properties=species:S:1:pos:R:3:momenta:R:3:forces:R:3:energies:R:1 spacegroup="_JSON {\"number\": 1, \"setting\": 1}" unit_cell=conventional occupancy="_JSON {\"0\": {\"Si\": 1.0}, \"1\": {\"Si\": 1.0}, \"2\": {\"Si\": 1.0}, \"3\": {\"Si\": 1.0}, \"4\": {\"Si\": 1.0}, \"5\": {\"Si\": 1.0}, \"6\": {\"Si\": 1.0}, \"7\": {\"Si\": 1.0}, \"8\": {\"Si\": 1.0}, \"9\": {\"Si\": 1.0}, \"10\": {\"Si\": 1.0}, \"11\": {\"Si\": 1.0}, \"12\": {\"Si\": 1.0}, \"13\": {\"Si\": 1.0}, \"14\": {\"Si\": 1.0}, \"15\": {\"Si\": 1.0}, \"16\": {\"Si\": 1.0}, \"17\": {\"Si\": 1.0}, \"18\": {\"Si\": 1.0}, \"19\": {\"Si\": 1.0}, \"20\": {\"Si\": 1.0}, \"21\": {\"Si\": 1.0}, \"22\": {\"Si\": 1.0}, \"23\": {\"Si\": 1.0}, \"24\": {\"Si\": 1.0}, \"25\": {\"Si\": 1.0}, \"26\": {\"Si\": 1.0}, \"27\": {\"Si\": 1.0}, \"28\": {\"Si\": 1.0}, \"29\": {\"Si\": 1.0}, \"30\": {\"Si\": 1.0}, \"31\": {\"Si\": 1.0}, \"32\": {\"Si\": 1.0}, \"33\": {\"Si\": 1.0}, \"34\": {\"Si\": 1.0}, \"35\": {\"Si\": 1.0}, \"36\": {\"Si\": 1.0}, \"37\": {\"Si\": 1.0}, \"38\": {\"Si\": 1.0}, \"39\": {\"Si\": 1.0}, \"40\": {\"Si\": 1.0}, \"41\": {\"Si\": 1.0}, \"42\": {\"Si\": 1.0}, \"43\": {\"Si\": 1.0}, \"44\": {\"Si\": 1.0}, \"45\": {\"Si\": 1.0}, \"46\": {\"Si\": 1.0}, \"47\": {\"Si\": 1.0}, \"48\": {\"Si\": 1.0}, \"49\": {\"Si\": 1.0}, \"50\": {\"Si\": 1.0}, \"51\": {\"Si\": 1.0}, \"52\": {\"Si\": 1.0}, \"53\": {\"Si\": 1.0}}" energy=-470.8336772324993 stress="0.001186796540127615 0.0009574305439058801 0.0003415642471285809 0.0009574305439058801 8.838821658964561e-05 0.0005447095630529708 0.0003415642471285809 0.0005447095630529708 -0.001139251636853727" free_energy=-470.8336772324993 pbc="T T T"
Si       6.79011954       3.93770546       2.69068311      -1.04584231      -0.27628730       0.49715191      -0.10987868      -0.95976408       0.24096685      -8.68578083
Si       8.71425821       5.05260364       5.81706589       1.97952958      -0.21080763       0.89310402       0.10065809       0.31489642       0.43272996      -8.73084570
Si      10.67195088       6.00865285       9.06527085       1.45746442       1.97693176       0.06488556      -0.03915681       0.72737864       0.12865137      -8.72263613
Si       8.65913313       7.17309226       2.56736969      -0.29202623       0.67056017      -0.92192558      -0.23949913       0.72056799       1.41214766      -8.70382776
Si      10.54848954       8.31724599       5.92299390      -0.08415925       1.44861914      -0.32846637       0.18860057       0.55759094      -0.25992425      -8.75018284
Si      12.40048332       9.48896616       9.02352608       1.22377510       0.06595266      -0.23362416       0.19070592      -0.50238924      -0.39593990      -8.71739218
Si      10.54776844      10.41083706       2.77244350       0.16990642       0.74763172      -0.02820586       0.88880846       0.00692276       0.12492412      -8.78246953
Si      12.51150788      11.73798665       5.91502346      -1.37522676      -0.98910852       0.80133188      -0.01299860       0.04781969      -0.52576553      -8.67478646
Si      14.31314757      12.84393542       9.11746941       0.26220928      -1.12727368       0.72653487       0.60041246      -0.06346750      -0.51739783      -8.66488195
Si      10.51584253       3.87592866       2.69510957       1.95526281       2.03621850       1.49453121      -0.01243126      -0.41727877      -0.36652536      -8.76810399
Si      12.47528330       4.94774754       5.76365751      -0.94585906      -0.67981159       1.42659076       0.25797667       0.26447502       0.50916285      -8.66758854
Si      14.44294512       6.06988872       8.86019284      -0.12177678      -0.60114776      -0.48387326       0.06354215      -0.17395200       0.63931049      -8.73705449
Si      12.53351275       7.11736287       2.83470355      -0.32737496       0.67742389      -0.73673306       0.14656843       0.86753302      -0.40790735      -8.73909769
Si      14.44464248       8.32547282       6.03908151      -0.70915499      -0.18599517      -0.55100108      -0.26032506       0.83458273      -0.43538955      -8.74476195
Si      16.38261259       9.47668571       9.13224142       0.48356147       1.15719560       1.03556786       0.11611738       0.12154433      -0.46839460      -8.68565748
Si      14.38984149      10.47251086       2.66550031       0.95523103      -0.43001906       0.05191696      -0.26343198       0.22109413       0.32774851      -8.73246112
Si      16.34120688      11.76594936       5.91746258       0.80824217      -0.10627315       0.89077604      -0.51489212      -1.58948712      -0.53488664      -8.72967382
Si      18.21659279      12.73635366       8.88163604       0.24621336       1.29419304      -0.39213010       0.42199432       0.20328191       1.28649706      -8.71757118
Si      14.50743575       3.86851167       2.70299328      -1.85047372       0.21717286       1.17697885      -0.02842370      -0.07197382       0.09279544      -8.69772467
Si      16.34787574       5.07933813       5.86390441      -1.00801798      -0.30375164      -0.20863278       1.10626117      -1.05378352       0.28296372      -8.71849045
Si      18.24160805       6.06399516       9.07851156      -0.89425917       0.32484229      -0.58780280       0.00347409       0.49281176      -0.49955303      -8.70149308
Si      16.39554980       7.27583242       2.82835835      -0.18096100       1.17828023      -1.26988668      -0.33076214       0.13845169       0.36911528      -8.73513805
Si      18.39116469       8.32344461       5.94579440      -0.95001488      -0.81376367      -0.48911236      -0.14628509       0.96590413       0.18596898      -8.68501774
Si      20.23848760       9.41717099       9.10867722      -0.23453890       0.52050500       0.40104432      -0.02652297       0.10371057      -0.10612452      -8.77109495
Si      18.25794187      10.67798251       2.84236311       0.38628676      -0.65038462      -2.15502576      -0.04269917      -0.56534400       0.63370130      -8.68038330
Si      20.26802514      11.79397269       5.87508001      -1.37779822      -0.86327301      -0.67988367      -0.19161420      -1.00745783       0.12472347      -8.74607975
Si      22.13486231      12.71061847       9.12400440      -0.71918877       0.98000589       0.69380345      -0.54031696       0.70895066      -0.33874364      -8.73804825
Si       0.83041367       0.57468935       0.54836089       1.09258710      -0.04878684       0.67731247       0.72607084       0.00300026      -0.65343347      -8.76606364
Si       3.01588079       1.62838062       3.53598290      -0.88430844       0.86345244      -1.54059203      -1.17200010       0.79188571      -0.02388051      -8.72451693
Si       4.76542107       2.82933709       6.79451290      -0.64425946       0.02834569      -0.02513351       1.12750181       0.56275498      -0.71731198      -8.68455959
Si       2.92601605       3.82863359       0.32978590      -0.06905780      -0.59213052      -0.24924262       0.01887047      -0.24530219       0.40658301      -8.73378302
Si       4.87602295       5.04086333       3.55189670      -0.27122889      -0.08066009       0.48572198      -0.23992902      -0.23155419      -0.67511721      -8.75861773
Si       6.77145749       6.10194360       6.66380549      -0.32030954       0.03382765       0.46872756      -0.05217650      -0.04945395       0.42576232      -8.74759435
Si       4.75137801       7.24405320       0.49136148      -1.52400174      -0.15284507      -1.17704577       0.39388286      -0.64920156       0.21848891      -8.74521180
Si       6.81343876       8.37044975       3.56325344       0.94027416      -2.20169452      -0.85726681      -0.05378889       0.11902137      -0.10989748      -8.70346808
Si       8.77768434       9.60732686       6.80208293       0.54933292      -0.06081904      -0.07311443      -0.82257295      -0.87074172      -0.95970607      -8.65575856
Si       4.81719076       0.49010556       0.47179392       0.58042743       0.83761979      -0.19274417      -0.45368715      -0.26295473      -0.90162652      -8.72439472
Si       6.68309927       1.57971021       3.47082920      -0.25016064       0.32684021      -1.34772872       0.36296653       0.98742762       0.48352813      -8.65773579
Si       8.72229686       2.89045561       6.68573375       1.18249750       0.07239506      -0.38188941      -1.06367501      -0.22504196       0.61090915      -8.73088360
Si       6.85565918       3.90182527       0.32109077      -0.78688909       0.00903909       0.02014416      -1.04176591       0.00665810       0.14350008      -8.71612326
Si       8.72099774       5.04295162       3.46292070       0.76226770       0.17562318      -0.84457879      -0.77526707      -0.08718512       0.37217431      -8.75021362
Si      10.64955989       6.15000849       6.72586826      -2.23774243      -2.15674787       0.76038692      -0.31686769      -0.84251207      -0.43685874      -8.73268809
Si       8.56098964       7.21612828       0.30060384       0.74725219      -2.17516170      -0.02723155       0.61327151       0.39622503      -0.42393971      -8.73656480
Si      10.55833257       8.20782302       3.53983623       0.57150127      -0.24980576       0.81562015      -0.05578663      -0.06669491       0.01653290      -8.71241826
Si      12.45355898       9.49326904       6.63968485       0.05776469      -1.25352020      -0.45161345       0.34178577      -0.13926976       0.46317908      -8.73519700
Si       8.61523964       0.50926915       0.26746245       1.31389573       0.54594629      -1.27142877      -0.13814936       0.06849664       0.39534015      -8.69183583
Si      10.43429056       1.72611756       3.54075036       0.35163881       1.57405795      -0.39598086       0.58973229      -0.64557577       0.19352704      -8.71024204
Si      12.49512240       2.71699750       6.59660495       1.49852910       0.71479302       1.78171057       0.38068798       0.98794187      -0.29244432      -8.73362854
Si      10.48839936       3.87259756       0.36938533      -0.31921546       0.03865141       1.25440119       0.74082033       0.07435121      -0.37102789      -8.72706784
Si      12.44441098       4.87489222       3.41165486      -0.63082430      -0.09069531       0.57006622       0.98982549       0.06466246       0.40966258      -8.73322897
Si      14.46102244       6.08732985       6.53777394       0.58306799      -0.86519724       1.88357245      -1.18078734      -0.01949537       0.35482890      -8.72608560
Si      12.63261264       7.28649212       0.44683413       0.65809374      -0.70684221      -1.02381751      -1.14574477      -0.62116443       0.16209626      -8.68131071
Si      14.40391492       8.32334770       3.70562396      -0.70019256      -1.06008691      -0.51436806       0.41344090      -0.20192540      -0.83884490      -8.70628927
Si      16.37635706       9.46113533       6.75011929      -0.06194936       0.41676558       0.56819861       0.48745975       0.20302937      -0.18687888      -8.67995171
54
Lattice="11.5478352 0.0 0.0 5.773917198490155 10.000722372470358 0.0 5.773916394327279 3.333571176804646 9.428767828939895" Properties=species:S:1:pos:R:3:momenta:R:3:forces:R:3:energies:R:1 spacegroup="_JSON {\"number\": 1, \"setting\": 1}" unit_cell=conventional occupancy="_JSON {\"0\": {\"Si\": 1.0}, \"1\": {\"Si\": 1.0}, \"2\": {\"Si\": 1.0}, \"3\": {\"Si\": 1.0}, \"4\": {\"Si\": 1.0}, \"5\": {\"Si\": 1.0}, \"6\": {\"Si\": 1.0}, \"7\": {\"Si\": 1.0}, \"8\": {\"Si\": 1.0}, \"9\": {\"Si\": 1.0}, \"10\": {\"Si\": 1.0}, \"11\": {\"Si\": 1.0}, \"12\": {\"Si\": 1.0}, \"13\": {\"Si\": 1.0}, \"14\": {\"Si\": 1.0}, \"15\": {\"Si\": 1.0}, \"16\": {\"Si\": 1.0}, \"17\": {\"Si\": 1.0}, \"18\": {\"Si\": 1.0}, \"19\": {\"Si\": 1.0}, \"20\": {\"Si\": 1.0}, \"21\": {\"Si\": 1.0}, \"22\": {\"Si\": 1.0}, \"23\": {\"Si\": 1.0}, \"24\": {\"Si\": 1.0}, \"25\": {\"Si\": 1.0}, \"26\": {\"Si\": 1.0}, \"27\": {\"Si\": 1.0}, \"28\": {\"Si\": 1.0}, \"29\": {\"Si\": 1.0}, \"30\": {\"Si\": 1.0}, \"31\": {\"Si\": 1.0}, \"32\": {\"Si\": 1.0}, \"33\": {\"Si\": 1.0}, \"34\": {\"Si\": 1.0}, \"35\": {\"Si\": 1.0}, \"36\": {\"Si\": 1.0}, \"37\": {\"Si\": 1.0}, \"38\": {\"Si\": 1.0}, \"39\": {\"Si\": 1.0}, \"40\": {\"Si\": 1.0}, \"41\": {\"Si\": 1.0}, \"42\": {\"Si\": 1.0}, \"43\": {\"Si\": 1.0}, \"44\": {\"Si\": 1.0}, \"45\": {\"Si\": 1.0}, \"46\": {\"Si\": 1.0}, \"47\": {\"Si\": 1.0}, \"48\": {\"Si\": 1.0}, \"49\": {\"Si\": 1.0}, \"50\": {\"Si\": 1.0}, \"51\": {\"Si\": 1.0}, \"52\": {\"Si\": 1.0}, \"53\": {\"Si\": 1.0}}" energy=-470.33645491873847 stress="-0.005906184659113828 0.0009544651444300974 6.440310113172155e-05 0.0009544651444300974 0.0017840773661266613 -0.0022801974014630684 6.440310113172155e-05 -0.0022801974014630684 -0.0008043920271004772" free_energy=-470.33645491873847 pbc="T T T"
Si       6.73926690       3.89291156       2.72188015      -0.77152579      -1.22153105       0.59477530       0.36649114      -0.11819396      -0.13901957      -8.73235259
Si       8.79223918       5.04789158       5.86645411       0.39012794      -0.16479052       0.70631416      -2.20621482      -0.42150584      -0.65220849      -8.69525604
Si      10.72951284       6.12090284       9.07359827       0.36822667       1.89588558       0.18943189      -1.46020096      -0.85252249      -0.10240418      -8.73871353
Si       8.64541395       7.22387508       2.57516809      -0.01621542       1.00155245       1.09301375       0.59459129      -0.31036103       0.93266335      -8.72211386
Si      10.55057384       8.38555742       5.90382902       0.14364456       0.67083520      -0.27701893       0.11199970      -1.33919361       0.23892162      -8.69607340
Si      12.45773288       9.47212135       8.99719627       0.75102575      -0.68018031      -0.70167073      -0.61194665      -0.37967977      -0.11732082      -8.69460599
Si      10.58273676      10.44809109       2.77360012       0.93542140       0.68907709       0.00885772       0.01344902       0.05699445      -0.12305817      -8.75548265
Si      12.45034223      11.69370691       5.93068313      -0.75545510      -0.61391426      -0.26744965       0.77590083       0.38172155      -0.77118915      -8.61258708
Si      14.35263431      12.78400822       9.13013118       1.24376392      -1.11263978      -0.32592592       0.59936043       0.11708260      -0.83205873      -8.66520272
Si      10.59908248       3.95283725       2.74836706       0.92673608       0.71178610       0.41150548      -1.09259893      -1.11057577      -0.82788964      -8.75907065
Si      12.43993284       4.92889565       5.85201515      -0.34722001       0.08710071       1.79174389       0.47563035       0.75748585      -0.07743621      -8.66683416
Si      14.43838734       6.04382991       8.87627772      -0.08063258      -0.14820442       1.34002001      -0.04055065       0.77708037       1.54112071      -8.70976891
Si      12.52182978       7.17210178       2.78188714      -0.13740142       1.12086998      -1.21589057       0.07179197      -0.24619037      -0.15872592      -8.73563865
Si      14.40808861       8.33777891       5.99732480      -0.46710410       0.42823656      -0.97299953       0.58315082      -0.04493482      -0.16781499      -8.72796911
Si      16.41393896       9.52530942       9.16142356       0.70834011       0.39441258      -0.04771135       0.09211200      -1.05682465      -0.95262354      -8.69731188
Si      14.42627396      10.46513526       2.67679813       0.40163455       0.26184620       0.31311422      -0.38679645       0.65665948       0.07286610      -8.66789937
Si      16.37299790      11.71038849       5.94128740       0.54051528      -1.67950506       0.02963596       0.00741624      -0.29070321      -0.50080945      -8.74197691
Si      18.24877748      12.80255634       8.92013870       0.98747099       1.04873819       1.87035819       0.43717329      -0.50543826       1.30520865      -8.70291236
Si      14.42015503       3.88133726       2.75636842      -1.26583321       0.35777345       0.64473857       0.79772397       0.25671740      -0.73790729      -8.72284410
Si      16.34217282       5.02686415       5.86590684       0.71243282      -1.50547929       0.28834788       0.81727664      -0.30283867       0.28358388      -8.75811065
Si      18.20069907       6.09437769       9.03718157      -0.53565884       0.70269716      -0.79594484       0.51013626      -0.01710794       0.24850165      -8.73100192
Si      16.37460437       7.32737433       2.77773845      -0.54912427       0.51046736      -0.66128229      -0.05996921      -0.94375675       0.36413355      -8.72248095
Si      18.34175808       8.31790097       5.92782657      -0.83519231       0.51128735      -0.21359780       0.23870476       0.60759896       0.11687654      -8.67028825
Si      20.22416982       9.43153141       9.11516600      -0.34410072      -0.24196805      -0.32380084      -0.14687786      -0.91168685      -0.75081097      -8.75616759
Si      18.27254356      10.62320125       2.77369140       0.09867064      -1.39197439      -0.23616256      -0.32526569      -0.38366803       1.46903481      -8.66161619
Si      20.20283832      11.71902974       5.84382166      -0.86177259      -1.75154563      -0.52275557       0.75432148      -0.05251208       0.08187583      -8.72252247
Si      22.09370325      12.77787809       9.14006186      -0.49181661       1.30811568      -0.21123309       0.83367804      -0.34692744      -0.84569578      -8.71567647
Si       0.90646551       0.57159534       0.53965629       1.61423089      -0.07089091      -1.24446311      -0.02772908      -0.00695180      -1.51679371      -8.74971378
Si       2.93251029       1.69026762       3.46259913      -2.04299582       1.15993437      -1.09126522      -0.19798624      -0.50484709       0.63237067      -8.74429069
Si       4.76521077       2.84339008       6.76725201       0.41620670       0.27435773      -0.94818467       0.27269310      -0.35062710      -0.44878067      -8.71835854
Si       2.91997221       3.79740777       0.33707546      -0.22802301      -0.41782562       0.57578603      -0.24296940       0.45489858       0.59361043      -8.67150473
Si       4.84710637       5.03493261       3.54774713      -0.88748669      -0.04623529      -0.63786914      -0.45101441       0.15494445      -0.64839252      -8.71977223
Si       6.75542234       6.09633128       6.69539784      -0.23272473      -0.27965303       0.53655331       0.17118224      -0.18072672      -0.35374502      -8.72393434
Si       4.70374782       7.22214881       0.43977031      -0.02586019      -0.43284016      -0.77647060       1.40628388       0.29206715       0.26237166      -8.71312267
Si       6.84977299       8.27684616       3.51828385       0.20202111      -1.05788148      -0.72119614      -0.99334954       1.32385530       0.41276186      -8.69813272
Si       8.76635959       9.57233599       6.76501691      -1.08744740      -1.22132856      -1.21486541      -1.22114531      -0.67089989      -0.47492914      -8.68550650
Si       4.82854190       0.52736358       0.43201285      -0.13641425       0.65963972      -1.15818967      -0.40720099       0.02880309      -0.25734304      -8.71286598
Si       6.68855186       1.62731127       3.42941413       0.51712213       1.27009982      -0.06321908       0.58598789       0.12177785       1.14312211      -8.69809525
Si       8.73638079       2.87753207       6.69220356      -0.66757072      -0.70710740       0.60372774      -1.15233574      -0.77363523       0.50821447      -8.68602077
Si       6.79237622       3.90643999       0.33064477      -1.21153869       0.24120136       0.42338051       0.55706395       0.28788965       0.45080791      -8.71682212
Si       8.72558351       5.05146651       3.44148742      -0.61978667       0.16565718       0.14508311      -0.90190543      -0.02516223       0.83086329      -8.67794222
Si      10.54352925       6.03898450       6.74856403      -1.28816612      -1.42895925       0.20449019       1.64483480       1.67219277      -0.08740947      -8.64608699
Si       8.62075581       7.13332775       0.28566847       1.41158288      -0.73899896      -0.39509582       0.13509744       1.33927247       0.13143037      -8.73292978
Si      10.57954896       8.20241322       3.57351740       0.15347532       0.22728280       0.31807274      -0.37817351       0.64760150      -0.57178257      -8.71157633
Si      12.46919268       9.43116998       6.63585040       0.48749034      -0.92577281       0.29657393       0.13822075       0.58806849       0.41959411      -8.78200370
Si       8.66571609       0.53991899       0.23069873       0.38567826       0.62185298       0.14807496      -0.98324315       0.05337870       1.47475984      -8.69039293
Si      10.47820255       1.77451307       3.53125422       1.32129299       0.11991265       0.07179799       0.58261173      -1.22862334       0.34591746      -8.66871006
Si      12.57051201       2.77959723       6.66616247       1.06084741       1.35337900       0.74444834      -0.83067289      -0.26145480      -0.76817370      -8.75800976
Si      10.49883226       3.88152812       0.41735240       0.66248954       0.36157023       0.51761971       0.52526959       0.30371118      -0.59026595      -8.66444082
Si      12.46060724       4.89125618       3.46708599       1.31294978       1.02287113       1.66660912       1.17253905       1.23061933       0.86317483      -8.70254311
Si      14.44251658       6.05122628       6.63130191      -1.18739449      -0.36591904       1.33028610      -0.80068479       0.55137654      -0.97456216      -8.72016781
Si      12.61958683       7.24464025       0.40419125      -1.11139946      -0.55463000      -0.52830985      -0.94446766       0.67632465       0.44386838      -8.70355579
Si      14.38777023       8.26987556       3.65070765       0.13215160      -0.76139250      -1.45628421       0.58963755       0.64617967      -0.35690229      -8.74624632
Si      16.38587817       9.48471166       6.76999203       0.30031158       0.34272712       0.14449577       0.00096914      -0.34675230      -0.36160096      -8.71123055
54
Lattice="11.5478352 0.0 0.0 5.773917198490155 10.000722372470358 0.0 5.773916394327279 3.333571176804646 9.428767828939895" Properties=species:S:1:pos:R:3:momenta:R:3:forces:R:3:energies:R:1 spacegroup="_JSON {\"number\": 1, \"setting\": 1}" unit_cell=conventional occupancy="_JSON {\"0\": {\"Si\": 1.0}, \"1\": {\"Si\": 1.0}, \"2\": {\"Si\": 1.0}, \"3\": {\"Si\": 1.0}, \"4\": {\"Si\": 1.0}, \"5\": {\"Si\": 1.0}, \"6\": {\"Si\": 1.0}, \"7\": {\"Si\": 1.0}, \"8\": {\"Si\": 1.0}, \"9\": {\"Si\": 1.0}, \"10\": {\"Si\": 1.0}, \"11\": {\"Si\": 1.0}, \"12\": {\"Si\": 1.0}, \"13\": {\"Si\": 1.0}, \"14\": {\"Si\": 1.0}, \"15\": {\"Si\": 1.0}, \"16\": {\"Si\": 1.0}, \"17\": {\"Si\": 1.0}, \"18\": {\"Si\": 1.0}, \"19\": {\"Si\": 1.0}, \"20\": {\"Si\": 1.0}, \"21\": {\"Si\": 1.0}, \"22\": {\"Si\": 1.0}, \"23\": {\"Si\": 1.0}, \"24\": {\"Si\": 1.0}, \"25\": {\"Si\": 1.0}, \"26\": {\"Si\": 1.0}, \"27\": {\"Si\": 1.0}, \"28\": {\"Si\": 1.0}, \"29\": {\"Si\": 1.0}, \"30\": {\"Si\": 1.0}, \"31\": {\"Si\": 1.0}, \"32\": {\"Si\": 1.0}, \"33\": {\"Si\": 1.0}, \"34\": {\"Si\": 1.0}, \"35\": {\"Si\": 1.0}, \"36\": {\"Si\": 1.0}, \"37\": {\"Si\": 1.0}, \"38\": {\"Si\": 1.0}, \"39\": {\"Si\": 1.0}, \"40\": {\"Si\": 1.0}, \"41\": {\"Si\": 1.0}, \"42\": {\"Si\": 1.0}, \"43\": {\"Si\": 1.0}, \"44\": {\"Si\": 1.0}, \"45\": {\"Si\": 1.0}, \"46\": {\"Si\": 1.0}, \"47\": {\"Si\": 1.0}, \"48\": {\"Si\": 1.0}, \"49\": {\"Si\": 1.0}, \"50\": {\"Si\": 1.0}, \"51\": {\"Si\": 1.0}, \"52\": {\"Si\": 1.0}, \"53\": {\"Si\": 1.0}}" energy=-471.3546229014296 stress="-0.0033016658896060174 7.021845635194694e-07 -2.910300862289042e-05 7.021845635194694e-07 -0.001072896575978496 -0.000503552687651283 -2.910300862289042e-05 -0.000503552687651283 0.0016291350419080002" free_energy=-471.3546229014296 pbc="T T T"
Si       6.71188388       3.84286719       2.74379985      -0.31969420      -0.34440835       0.19623892       0.18733183       1.18088168      -0.29915337      -8.73433842
Si       8.72497069       5.01703085       5.87829785      -2.67722990      -1.00731618      -0.10648156      -1.15921954      -0.43335066      -0.10865809      -8.74503402
Si      10.68632067       6.17737640       9.07601307      -1.94179539       0.19531269      -0.09934451      -1.16717491      -1.09202732      -0.10978627      -8.73785554
Si       8.66991599       7.25566357       2.65197896       0.86921385       0.11854827       1.56027379       0.26823814      -0.66643022      -0.14139555      -8.74928233
Si      10.56123072       8.36442974       5.90033606       0.23329562      -1.43826962       0.15638268      -0.00601255      -1.18101303       0.27900223      -8.69674098
Si      12.47778230       9.43040671       8.96512552       0.15774176      -0.71430945      -0.32937289      -0.06154277       0.37870085       0.61889812      -8.72867364
Si      10.62087387      10.49186046       2.76545866       0.33940364       1.07210209      -0.37115715      -0.68967338       0.41282352      -0.31796322      -8.68267842
Si      12.44386936      11.67504475       5.89255211       0.51669840      -0.15382622      -1.01973629       0.79696252       0.15597228      -0.10990093      -8.67960488
Si      14.43488846      12.73386270       9.08312521       1.73919318      -0.71209326      -1.36503354       0.00005921       0.45690295      -0.42603031      -8.76239650
Si      10.61462428       3.95527092       2.74931833      -0.08863830      -0.41995278      -0.09844962      -0.17901534      -0.35424668       0.23018012      -8.76719859
Si      12.43888010       4.96456379       5.93638965       0.26906576       1.22791805       1.32492999       0.32324191       0.55690815      -0.46213786      -8.75586590
Si      14.43114751       6.07275437       8.99478811      -0.20796493       1.29784625       2.82782001      -0.08321123       0.94172615       0.20273095      -8.72369595
Si      12.51532345       7.21502810       2.71966610      -0.14153724       0.46843780      -0.97625852      -0.04651300      -0.43281519       0.54099983      -8.73721850
Si      14.41127763       8.35003898       5.94085557       0.61254630      -0.07304080      -1.15763941       0.66778511      -0.48444216      -0.07370711      -8.70884606
Si      16.44779724       9.50079372       9.12084641       0.41888919      -1.30485057      -1.46905242      -0.52653220      -0.93960157      -0.81705768      -8.73470141
Si      14.43663245      10.50434471       2.69688808       0.09930016       1.18657158       0.50252065       0.02913216       0.47100628       0.27230346      -8.67506315
Si      16.39989047      11.63242976       5.92870841       0.42025152      -0.93504060      -0.39524004      -0.23262212       1.09111027      -0.04682973      -8.71548428
Si      18.30882974      12.83377364       9.04743677       1.08010795       0.10208759       2.52751251      -0.41962906      -0.65017978      -0.45829424      -8.72855964
Si      14.38853816       3.91062971       2.75969168       0.04939146       0.71744626      -0.46995401       0.73095343       0.09311432      -0.53311562      -8.76126714
Si      16.39323405       4.95429165       5.88497938       0.88230536      -0.93179807       0.27722917      -0.56069265       0.96201081      -0.32896281      -8.72952331
Si      18.19778781       6.12479709       9.01171529       0.50426273       0.36271938      -0.09732300       0.81077587      -0.38757840       0.54523309      -8.74754386
Si      16.35053388       7.31276111       2.75253154      -0.24408328      -1.08909940      -0.39588688       0.41271237      -1.01568249      -0.01279979      -8.75235943
Si      18.30604586       8.35442468       5.91673454      -0.59931816       0.59260876      -0.30704183      -0.05502400      -0.52434392      -0.26686707      -8.70748769
Si      20.20012366       9.38978225       9.07164593      -0.54702197      -1.11218856      -1.22203601      -0.04868900      -0.00247288      -0.32076808      -8.73938445
Si      18.26427265      10.54012471       2.79808686      -0.39580618      -1.64645761       0.68787927      -0.24496378       0.13506548      -0.36304152      -8.74159403
Si      20.18735533      11.63961960       5.81939506       0.22067814      -1.03627442      -0.38986163       0.56119837       0.86489783       0.16026232      -8.70804270
Si      22.10536998      12.82496765       9.09469356       0.89378436       0.41203174      -1.48852093       0.67802557      -0.65411571      -0.71516913      -8.72356953
Si       0.98352258       0.56753190       0.43190594       1.22235295      -0.10059327      -2.46223041      -0.42471326      -0.07473888       0.01064328      -8.72443228
Si       2.83340137       1.71925574       3.43513791      -1.45725831      -0.18835999       0.10305916       0.89109379      -1.01946349       0.84789081      -8.71103246
Si       4.78885947       2.83047935       6.70663925       0.35342088      -0.98128693      -1.24273075      -0.24913349      -1.15960576       0.01034746      -8.73637388
Si       2.89540620       3.79742101       0.38589033      -0.75830663       0.46319803       1.15822716      -0.43099927       0.63179310       0.09049937      -8.70102881
Si       4.78923251       5.03600862       3.49880898      -1.14550979       0.00697597      -1.01165322       0.22472731      -0.14964283       0.19652691      -8.70684826
Si       6.75056032       6.08121313       6.70310174       0.02926273      -0.15380834      -0.31452033       0.09097485       0.37207279      -0.62239198      -8.74064203
Si       4.75108300       7.21523945       0.40467169       1.61097617       0.17741266      -0.66738937       0.56380035       0.34015858      -0.14221646      -8.71883230
Si       6.81619438       8.27482105       3.50331093      -1.46327818       0.88789917       0.22712086      -0.90188805       0.93608158       0.70430054      -8.72786655
Si       8.67007667       9.48546874       6.69124031      -2.31812131      -1.99987656      -1.44293873      -0.16831515      -0.29056576       0.13948802      -8.76792375
Si       4.81196393       0.56503087       0.37248180      -0.34945091       0.77948885      -0.91571180       0.16294077       0.03901589       0.50826037      -8.71509626
Si       6.73510751       1.68262669       3.47043970       1.15414537       0.56450035       1.55550882       0.17689627      -0.91632494       0.83462302      -8.76600176
Si       8.66831062       2.80944235       6.73130981      -1.66845059      -1.84427142       0.60313805      -0.13141917      -0.58922639      -0.60067653      -8.70135670
Si       6.76105577       3.92813095       0.37323171       0.04600007       0.47261825       1.19810501       0.66622659      -0.14347062       0.42951912      -8.73776934
Si       8.66549256       5.05492025       3.47846521      -1.49771160      -0.13010326       1.15760655      -0.21794623      -0.39036864       0.40643971      -8.70422472
Si      10.54137332       6.03732202       6.75833590       0.94185587       1.31503229       0.08899892       0.66142994       1.49306479      -0.35763429      -8.68622446
Si       8.68967409       7.14294830       0.28045020       1.03970404       0.94033090       0.35168529      -0.54014067       0.68552581       0.73838922      -8.71537024
Si      10.57755597       8.24273084       3.56840851      -0.09697198       1.32944631      -0.46422636       0.13169248       0.72192391      -0.38130412      -8.74849670
Si      12.49416421       9.40990303       6.65935129       0.36518152       0.14523884       0.40220165      -0.23938828       0.69765097      -0.34321467      -8.78756266
Si       8.65450864       0.57374428       0.30040145      -0.54018654       0.64209605       2.49159993       0.06133271      -0.03161071       1.37636153      -8.76098838
Si      10.56339496       1.73459947       3.54549896       1.76078668      -1.53736144       0.39138558      -0.07059997      -0.80342616       0.03322298      -8.72020669
Si      12.59164948       2.82399854       6.68661682      -0.23173738       0.09375915       0.26207193      -0.75119488      -1.19552420       0.09437849      -8.71944612
Si      10.54898467       3.91070233       0.42251785       1.14901205       0.68162425      -0.27160800       0.12792783       0.02678895      -0.38446393      -8.72023210
Si      12.55035972       4.98937666       3.57910346       1.60376049       2.54058533       2.34547853      -0.73951734       0.54472795      -0.13982114      -8.72077810
Si      14.36920367       6.05355350       6.66621093      -1.19719921       0.44623713       0.19526488       0.80920244       0.52262450      -0.24763865      -8.70272220
Si      12.54334055       7.24471023       0.39173751      -1.40826756       0.51533939      -0.01698655       0.53371385       0.50732643       0.16588085      -8.74213290
Si      14.41184418       8.26357030       3.56749704       0.64111724       0.64008355      -1.59460569       0.03509834       1.09767229       0.11967830      -8.75460562
Si      16.39733681       9.48223741       6.76290761       0.07183414      -0.54090986      -0.42924788      -0.25770275      -0.73527977      -0.42505996      -8.74241729
54
Lattice="11.5478352 0.0 0.0 5.773917198490155 10.000722372470358 0.0 5.773916394327279 3.333571176804646 9.428767828939895" Properties=species:S:1:pos:R:3:momenta:R:3:forces:R:3:energies:R:1 spacegroup="_JSON {\"number\": 1, \"setting\": 1}" unit_cell=conventional occupancy="_JSON {\"0\": {\"Si\": 1.0}, \"1\": {\"Si\": 1.0}, \"2\": {\"Si\": 1.0}, \"3\": {\"Si\": 1.0}, \"4\": {\"Si\": 1.0}, \"5\": {\"Si\": 1.0}, \"6\": {\"Si\": 1.0}, \"7\": {\"Si\": 1.0}, \"8\": {\"Si\": 1.0}, \"9\": {\"Si\": 1.0}, \"10\": {\"Si\": 1.0}, \"11\": {\"Si\": 1.0}, \"12\": {\"Si\": 1.0}, \"13\": {\"Si\": 1.0}, \"14\": {\"Si\": 1.0}, \"15\": {\"Si\": 1.0}, \"16\": {\"Si\": 1.0}, \"17\": {\"Si\": 1.0}, \"18\": {\"Si\": 1.0}, \"19\": {\"Si\": 1.0}, \"20\": {\"Si\": 1.0}, \"21\": {\"Si\": 1.0}, \"22\": {\"Si\": 1.0}, \"23\": {\"Si\": 1.0}, \"24\": {\"Si\": 1.0}, \"25\": {\"Si\": 1.0}, \"26\": {\"Si\": 1.0}, \"27\": {\"Si\": 1.0}, \"28\": {\"Si\": 1.0}, \"29\": {\"Si\": 1.0}, \"30\": {\"Si\": 1.0}, \"31\": {\"Si\": 1.0}, \"32\": {\"Si\": 1.0}, \"33\": {\"Si\": 1.0}, \"34\": {\"Si\": 1.0}, \"35\": {\"Si\": 1.0}, \"36\": {\"Si\": 1.0}, \"37\": {\"Si\": 1.0}, \"38\": {\"Si\": 1.0}, \"39\": {\"Si\": 1.0}, \"40\": {\"Si\": 1.0}, \"41\": {\"Si\": 1.0}, \"42\": {\"Si\": 1.0}, \"43\": {\"Si\": 1.0}, \"44\": {\"Si\": 1.0}, \"45\": {\"Si\": 1.0}, \"46\": {\"Si\": 1.0}, \"47\": {\"Si\": 1.0}, \"48\": {\"Si\": 1.0}, \"49\": {\"Si\": 1.0}, \"50\": {\"Si\": 1.0}, \"51\": {\"Si\": 1.0}, \"52\": {\"Si\": 1.0}, \"53\": {\"Si\": 1.0}}" energy=-471.3547088511288 stress="0.0011281399408795876 -0.0011498986665899127 -0.0008077992871023869 -0.0011498986665899127 -0.003157940357587682 0.0016330270949392464 -0.0008077992871023869 0.0016330270949392464 -0.0031254589401314434" free_energy=-471.3547088511288 pbc="T T T"
Si       6.69874936       3.86923664       2.74875441      -0.23724805       1.18011917       0.15801281      -0.03212191       0.54133019       0.33130283      -8.74593254
Si       8.57479329       4.95361606       5.88097758      -2.42948079      -1.31360781       0.37125102       1.25319459      -0.04069541       0.53285808      -8.68586246
Si      10.56152732       6.15890900       9.07192534      -2.39410599      -0.60382097       0.01265772       0.46536237       0.05826439       0.14983649      -8.72683471
Si       8.70987969       7.24257628       2.72562078       0.38148797      -0.46431026       1.23904213      -0.77350568      -0.07509031      -0.18009544      -8.73134460
Si      10.57136686       8.26459755       5.91353990       0.12058383      -1.82651802       0.17553228      -0.13167062       0.94560347      -0.39577129      -8.72633708
Si      12.49319255       9.41441390       8.97511353       0.58957424       0.18004889       0.69558785       0.56628970       0.66994655       0.56078808      -8.75416582
Si      10.61203155      10.56457219       2.73658592      -0.61759168       1.66944938      -0.63841783      -0.45732128       0.29532876       0.03353001      -8.67975186
Si      12.49251045      11.66575380       5.84823518       1.09399911      -0.35227813      -0.41729792      -0.16030730      -0.43689754       0.85711030      -8.76503078
Si      14.51814755      12.71770154       9.00611283       1.29524429       0.13220611      -1.35405399      -0.54471145       0.58341146       0.40842095      -8.77631778
Si      10.61167290       3.92752904       2.76337916       0.08999815      -0.51279167       0.75730453       0.28264191       0.14718503       0.71598072      -8.63135220
Si      12.46205718       5.03628718       5.99028300       0.55185553       1.21718152       0.80286316       0.08778352      -0.54325341      -0.17959290      -8.79608644
Si      14.42060208       6.16517182       9.13175802      -0.09182739       1.92453357       2.07934821       0.31207168      -0.21767924      -1.02913442      -8.71670963
Si      12.50665958       7.23121959       2.69603049      -0.16656108       0.34863512       0.14030777       0.03826582       0.34431962       0.78138328      -8.74839026
Si      14.45940728       8.33047903       5.87844905       0.99362274      -0.57492755      -1.20174594      -0.21969836      -0.10926455      -0.00490463      -8.73107483
Si      16.44587580       9.41450758       9.02299768      -0.50022313      -1.56535639      -2.00260748      -0.56895028       0.66746524       0.18625354      -8.75680639
Si      14.44937280      10.57745559       2.74126598       0.49340262       1.44925056       1.34208456       0.44249860      -0.11220760       0.85300084      -8.74967252
Si      16.40904323      11.62491231       5.91214922      -0.13681804       0.51534434      -0.14209703      -0.48375887       0.58483581       0.30987863      -8.71526734
Si      18.34115355      12.82103681       9.14730616       0.09147364      -0.39721304       1.07884292      -0.64774425       0.08663955      -1.24478560      -8.73097184
Si      14.40475577       3.94470329       2.72954286       0.25962071       0.44218276      -0.35588913      -0.45468151      -0.44418288       0.71032908      -8.74814994
Si      16.40663779       4.94380542       5.88346237      -0.51804985       0.44235964      -0.33603707      -1.13064343       0.63176935      -0.33682778      -8.67476670
Si      18.25191571       6.12807830       9.02229435       1.42073465      -0.23111011       0.35770142       0.26441854      -0.36533145      -0.00655721      -8.74519121
Si      16.35272099       7.22792988       2.72704486       0.25765684      -1.84678467      -0.64400237       0.14825739       0.14285441      -0.28545043      -8.77375272
Si      18.26308030       8.35402212       5.88599952      -1.18570041      -0.75520595      -0.90871230      -0.59048316      -1.08084678      -0.42134226      -8.73331280
Si      20.17328734       9.34858636       9.00333356      -0.40221193      -0.16435635      -1.23903356       0.24060970       1.14164605       0.24071455      -8.66522387
Si      18.24100143      10.46940180       2.80043838      -0.32536051      -0.85156725      -0.89233277       0.39999600       0.88143084      -1.51980843      -8.71517267
Si      20.21159124      11.61585672       5.80931424       0.49987030      -0.01850576       0.09296938      -0.24210358       0.29253224       0.49231913      -8.74221702
Si      22.16389001      12.82570281       8.99926755       1.06280182      -0.29189542      -1.91246580      -0.38657690      -0.29262979       0.20301421      -8.72447798
Si       1.03176555       0.55660563       0.31847375       0.64917916      -0.36871639      -1.63578995      -0.30059633      -0.27778535       0.90507138      -8.66694704
Si       2.79572063       1.67951300       3.46685620       0.03320116      -1.08845138       0.93357643       0.93370814      -0.10060929       0.17890709      -8.71158855
Si       4.79813112       2.74142065       6.64232998       0.04826191      -2.13849580      -1.22111839      -0.06435236      -0.10069422      -0.01991771      -8.77408532
Si       2.84086627       3.84323539       0.44020007      -1.23468854       1.20918262       0.72326728      -0.08972430       0.34884042      -0.63423810      -8.76615287
Si       4.74820922       5.02612437       3.46321292      -0.25765595      -0.44662920      -0.18338158       0.83432140      -0.39253988       0.82853944      -8.72893050
Si       6.74895268       6.09234255       6.66985449      -0.23925172       0.62165925      -0.76586829      -0.47944658       0.52481502       0.09505064      -8.75458893
Si       4.84103313       7.23183143       0.36085280       1.51920247       0.34359149      -1.02373731      -0.61078921      -0.09318143      -0.22711459      -8.70915962
Si       6.72099462       8.33407157       3.53683226      -1.84107593       0.88096375       0.89359914       0.34813597      -0.94240944       0.07514473      -8.73276850
Si       8.56499028       9.37983135       6.62604195      -1.26545551      -1.80233066      -0.96137912       1.44161841       0.56424569       0.44743070      -8.72884860
Si       4.80610065       0.60301484       0.34702057       0.20638728       0.56570090      -0.04286610       0.47466679      -0.35344197       0.55702377      -8.73805424
Si       6.79345876       1.68102137       3.56654819       0.87939312      -0.42904382       1.68520503      -0.57107645      -0.17657390      -0.79982240      -8.75219385
Si       8.58997290       2.70097051       6.72778224      -1.03382150      -2.03195124      -0.87027805       0.99155179       0.42072914      -1.09325147      -8.69621581
Si       6.77054560       3.94045106       0.44400059      -0.05468975      -0.06781415       1.29973101      -0.76401971      -0.39511743      -0.34703525      -8.74627799
Si       8.58888108       5.03105721       3.54479956      -1.21287074      -0.77167018       1.17972391       0.61087993      -0.35788765      -0.33064927      -8.74633411
Si      10.58743792       6.13882938       6.74389445       0.36409645       1.97326998      -0.62369476      -1.10311937      -0.80812420      -0.28981043      -8.71118939
Si       8.72329421       7.20143457       0.32651660       0.28004492       0.96812559       1.33591940      -0.40006314      -0.55199007       0.47229698      -8.69966841
Si      10.58409783       8.33458469       3.53591951       0.41719959       2.01130117      -0.64287104       0.39844327       0.09315058       0.12724326      -8.75858632
Si      12.50490904       9.43608433       6.66045389       0.08967451       0.63866521      -0.40727717      -0.06890474      -0.14176718      -0.51857411      -8.74021960
Si       8.64631648       0.60718835       0.46353798       0.45996118       0.65258421       3.20450627       0.96417422       0.03242572      -0.65739342      -8.74917600
Si      10.64340153       1.63884652       3.56280615       1.11980703      -1.76089810       0.20717963      -0.71714995       0.56895043      -0.19738762      -8.74641104
Si      12.55823486       2.78965013       6.70910081      -0.86912592      -1.16560603       0.64618602      -0.06999619      -0.28637230       0.31026025      -8.68567356
Si      10.61039840       3.93912714       0.40203371       1.12926535       0.22883848      -0.31236530      -0.11730647      -0.63580916       0.38164628      -8.77556711
Si      12.59678532       5.12541235       3.68071152       0.09564423       2.27110492       1.25831655      -1.04856304      -0.91412309      -1.17537716      -8.66601340
Si      14.35243998       6.09533207       6.68266426       0.74277785       1.08268415       0.67941107       1.51239982       0.25937551       0.72069527      -8.65687861
Si      12.49727751       7.27601148       0.39087706      -0.31343793       0.34438922      -0.12555636       0.69214800      -0.77360254      -0.25498983      -8.73286819
Si      14.44156802       8.33345857       3.49036641       0.43766686       1.81170780      -1.31651959      -0.18103764       0.26269594       0.24220643      -8.73272482
Si      16.39035024       9.43041270       6.72186150      -0.34643717      -1.26322347      -1.17273130      -0.29301350      -0.06968337      -0.55840518      -8.75741248
54
Lattice="11.5478352 0.0 0.0 5.773917198490155 10.000722372470358 0.0 5.773916394327279 3.333571176804646 9.428767828939895" Properties=species:S:1:pos:R:3:momenta:R:3:forces:R:3:energies:R:1 spacegroup="_JSON {\"number\": 1, \"setting\": 1}" unit_cell=conventional occupancy="_JSON {\"0\": {\"Si\": 1.0}, \"1\": {\"Si\": 1.0}, \"2\": {\"Si\": 1.0}, \"3\": {\"Si\": 1.0}, \"4\": {\"Si\": 1.0}, \"5\": {\"Si\": 1.0}, \"6\": {\"Si\": 1.0}, \"7\": {\"Si\": 1.0}, \"8\": {\"Si\": 1.0}, \"9\": {\"Si\": 1.0}, \"10\": {\"Si\": 1.0}, \"11\": {\"Si\": 1.0}, \"12\": {\"Si\": 1.0}, \"13\": {\"Si\": 1.0}, \"14\": {\"Si\": 1.0}, \"15\": {\"Si\": 1.0}, \"16\": {\"Si\": 1.0}, \"17\": {\"Si\": 1.0}, \"18\": {\"Si\": 1.0}, \"19\": {\"Si\": 1.0}, \"20\": {\"Si\": 1.0}, \"21\": {\"Si\": 1.0}, \"22\": {\"Si\": 1.0}, \"23\": {\"Si\": 1.0}, \"24\": {\"Si\": 1.0}, \"25\": {\"Si\": 1.0}, \"26\": {\"Si\": 1.0}, \"27\": {\"Si\": 1.0}, \"28\": {\"Si\": 1.0}, \"29\": {\"Si\": 1.0}, \"30\": {\"Si\": 1.0}, \"31\": {\"Si\": 1.0}, \"32\": {\"Si\": 1.0}, \"33\": {\"Si\": 1.0}, \"34\": {\"Si\": 1.0}, \"35\": {\"Si\": 1.0}, \"36\": {\"Si\": 1.0}, \"37\": {\"Si\": 1.0}, \"38\": {\"Si\": 1.0}, \"39\": {\"Si\": 1.0}, \"40\": {\"Si\": 1.0}, \"41\": {\"Si\": 1.0}, \"42\": {\"Si\": 1.0}, \"43\": {\"Si\": 1.0}, \"44\": {\"Si\": 1.0}, \"45\": {\"Si\": 1.0}, \"46\": {\"Si\": 1.0}, \"47\": {\"Si\": 1.0}, \"48\": {\"Si\": 1.0}, \"49\": {\"Si\": 1.0}, \"50\": {\"Si\": 1.0}, \"51\": {\"Si\": 1.0}, \"52\": {\"Si\": 1.0}, \"53\": {\"Si\": 1.0}}" energy=-470.5254631047636 stress="-0.00030453299310453176 -0.00017198076634535438 -0.0007061674786458524 -0.00017198076634535438 -0.0018552416406377812 0.001652234054336283 -0.0007061674786458524 0.001652234054336283 -0.004126854999795629" free_energy=-470.5254631047636 pbc="T T T"
Si       6.68575208       3.93355402       2.77527316      -0.21408886       0.93393842       0.87400307       0.14265303      -0.77854664       0.40877054      -8.73414077
Si       8.50643626       4.88847524       5.91800456      -0.10896559      -1.02703190       0.94282426       1.54121837       0.52230770       0.15834645      -8.61962364
Si      10.46464225       6.14141244       9.07582384      -1.16317144       0.10067023       0.08213279       1.01423352       0.69781406      -0.04993088      -8.68217553
Si       8.69982547       7.22213635       2.78749649      -0.69283282      -0.21554824       1.19054272      -0.50682136       0.31308139       0.08725742      -8.68080725
Si      10.57272274       8.23365662       5.89690095      -0.04664734       0.95322749      -0.92040631      -0.04246461       2.06387210      -0.79347767      -8.70255209
Si      12.54725275       9.44416105       9.02335390       1.42899760       0.80423132       0.94002504       0.39096219       0.08763601      -0.22754770      -8.75162251
Si      10.57201712      10.65680817       2.71020887      -0.69194435       1.68878105      -0.27927931       0.38458234      -0.32432955       0.37221739      -8.71509957
Si      12.52890683      11.62564053       5.85982125       0.08078510      -1.20808472       0.74134937      -0.95800722      -0.54341300       0.41046777      -8.75490248
Si      14.56250562      12.74104508       8.95569703       0.37945456       0.59628248      -0.51962621      -0.60612929      -0.04121733       0.61054143      -8.73955383
Si      10.62669457       3.90883345       2.82571050       0.44156571      -0.16901537       1.47295914       0.12368206       0.27063986       0.14981795      -8.59355703
Si      12.49492572       5.07386857       6.02979133       0.72921725       0.18654252       0.76033080       0.18146132      -0.67791854       0.04240024      -8.75566553
Si      14.43248025       6.24377288       9.19819178       0.57708812       0.87006742       0.47885787       0.42782777      -1.01066271      -0.93449848      -8.71198964
Si      12.50135854       7.27143812       2.72515656       0.00276819       1.27663602       0.76293983       0.18680651       0.68450535      -0.01594557      -8.76856998
Si      14.49211758       8.30239318       5.81451567       0.07757059      -0.40092761      -1.24642204      -0.90842693       0.25426308      -0.03575340      -8.71319757
Si      16.40273361       9.37040096       8.93790992      -1.03429017      -0.02174989      -1.03507504      -0.13349484       1.04680695       0.99466364      -8.71749553
Si      14.49110773      10.64463912       2.84272773       1.00698160       1.04983460       2.34401089       0.08223277      -0.36710329       0.13187142      -8.77800708
Si      16.38496831      11.65866598       5.91446661      -0.67853161       0.48027051       0.14812885      -0.06332884      -0.54927306      -0.00101406      -8.72307229
Si      18.33131592      12.81200286       9.16065540      -0.23774227       0.13354206      -0.40719198       0.23644751       0.39852947      -0.61589859      -8.73971128
Si      14.39316504       3.94792122       2.74634005      -0.75762122      -0.33274209       1.03652671      -0.68489291      -0.49753778       0.87203605      -8.70170976
Si      16.34211872       4.97909922       5.86008365      -1.73390997       0.67592779      -0.39495142      -0.32198302      -0.26251956       0.28810821      -8.67016463
Si      18.32325306       6.10406310       9.03317162       1.04712115      -0.63524744      -0.05874136      -0.70829155      -0.16696331      -0.45469726      -8.72401242
Si      16.36524591       7.15198687       2.68132646       0.09778728      -0.83133802      -1.09219077      -0.33252885       0.98266577      -0.25730472      -8.72415548
Si      18.18707166       8.28231214       5.83002936      -1.44019618      -1.68643630      -1.02192645       0.43342536       0.04639057       0.34568361      -8.75561892
Si      20.16449517       9.38650839       8.95094419       0.12105282       1.56226245      -0.71660702       0.45504739       0.95657600       0.40454097      -8.67426235
Si      18.24619764      10.45753485       2.69865823       0.59370201       0.28421189      -2.76672591       0.66821327       0.45767122      -0.64818556      -8.72001884
Si      20.21769017      11.61258897       5.83441954      -0.43654198      -0.33741759       0.84989073      -0.89124667      -0.60161106       0.43784329      -8.74619150
Si      22.19801445      12.80370872       8.91727008       0.15997320      -0.45552933      -1.05291426      -0.70225753       0.06923194       0.83501751      -8.68459088
Si       1.05687372       0.52604647       0.26720381       0.34586467      -0.78020502      -0.39575424      -0.15494920      -0.21347282       0.60061633      -8.71938159
Si       2.82315775       1.63066119       3.51315321       0.76017256      -0.57228939       0.68283480      -0.05362058       0.69336695      -0.40008848      -8.72374264
Si       4.80308115       2.64674906       6.57895610       0.20292458      -1.09888630      -1.12939680       0.15948358       1.34991971       0.23201659      -8.73057015
Si       2.78233676       3.91685474       0.45232490      -0.80728626       1.54165705      -0.20554623       0.64075291       0.11986114      -0.42542248      -8.77869086
Si       4.76190523       4.99013432       3.48587506       0.58565500      -0.82474344       0.99003958       0.08031739       0.00615277       0.60371950      -8.77387198
Si       6.71434629       6.13447153       6.64183004      -1.08484281       0.67828706      -0.17915616      -0.50173021      -0.66854063       0.58512009      -8.72777876
Si       4.88900785       7.24324740       0.30218047       0.21272418       0.05118366      -1.13301868      -0.98972134      -0.25663687       0.07877821      -8.70542996
Si       6.64657108       8.33439499       3.57073501      -0.87722272      -0.87719149       0.05532981       0.83208787      -1.00190899      -1.25133768      -8.70708031
Si       8.55462912       9.31204107       6.59097753       0.71516339      -0.74034784      -0.44427296       0.86588685       0.74923421       0.19417537      -8.69933227
Si       4.83209781       0.61645397       0.36133167       0.68479280      -0.05322399       0.47531175       0.08631838      -0.34770733       0.11666412      -8.76294748
Si       6.80962128       1.66575528       3.60871155      -0.37492361       0.06846167      -0.21421399      -0.99981311       0.68929331      -1.32916048      -8.64389936
Si       8.58431073       2.62367766       6.65297386       0.91404749      -0.71332147      -1.65512979       1.32385080       1.19524903       0.15088132      -8.70447205
Si       6.72986042       3.92690674       0.48971094      -1.53818546      -0.34021860       0.30936650      -0.92512597       0.02095036      -0.86508561      -8.71027159
Si       8.55804504       4.98291065       3.59094017       0.18531839      -0.92989655       0.57528626       1.18550398       0.16256510      -0.35621695      -8.74569315
Si      10.56149164       6.18140147       6.71244607      -1.30845563      -0.71401307      -0.39044745      -0.94397640      -2.15781234       0.39145474      -8.65209536
Si       8.72725546       7.22677252       0.40630289      -0.03221382       0.01169237       1.53321747      -0.01544961      -0.51336486      -0.19634838      -8.71690353
Si      10.61474257       8.43329847       3.51038351       0.58132002       1.58180157      -0.30087452      -0.25635212      -0.56494770       0.24670229      -8.72494412
Si      12.51088104       9.45088109       6.62901395       0.20901916      -0.30297425      -0.56592508       0.20948341      -1.03203403       0.35035924      -8.67462787
Si       8.70204258       0.64100992       0.58041521       1.50617888       0.58786417       0.90240176       0.36280369      -0.15585522      -2.00946473      -8.62538407
Si      10.67640420       1.58355439       3.56881083       0.28242724      -0.12199726       0.09415565      -0.14922239       1.45196305       0.07132559      -8.72861599
Si      12.51840984       2.73369477       6.75269563      -0.51846838      -0.69325466       0.94401205       0.43718878       0.78753944       0.02365062      -8.68602359
Si      10.66430377       3.92461537       0.40840108       0.91611155      -0.73066595       0.65565791      -0.16221968      -0.43681230       0.77573418      -8.75538004
Si      12.56649675       5.19631976       3.70212434      -1.12993884       0.27027825      -0.32971512      -0.57225892      -1.53640631      -0.74890066      -8.68430570
Si      14.43831347       6.15419840       6.74640056       2.19813815       1.00459305       1.68415401       0.22581093      -0.33890748       0.46990428      -8.71729463
Si      12.50032110       7.25653901       0.37433061       0.27531750      -1.09319249      -0.47459526       0.08494787      -0.79542713      -0.14187300      -8.72509475
Si      14.46033638       8.41970483       3.43267417       0.33877336       1.12211030      -0.83702425       0.05298770      -1.10983291       0.41491646      -8.68492963
Si      16.36119918       9.37500269       6.64187946      -0.74999276      -0.60686514      -1.75916099      -0.23190436       0.87267621      -0.09745049      -8.73423331
54
Lattice="11.5478352 0.0 0.0 5.773917198490155 10.000722372470358 0.0 5.773916394327279 3.333571176804646 9.428767828939895" Properties=species:S:1:pos:R:3:momenta:R:3:forces:R:3:energies:R:1 spacegroup="_JSON {\"number\": 1, \"setting\": 1}" unit_cell=conventional occupancy="_JSON {\"0\": {\"Si\": 1.0}, \"1\": {\"Si\": 1.0}, \"2\": {\"Si\": 1.0}, \"3\": {\"Si\": 1.0}, \"4\": {\"Si\": 1.0}, \"5\": {\"Si\": 1.0}, \"6\": {\"Si\": 1.0}, \"7\": {\"Si\": 1.0}, \"8\": {\"Si\": 1.0}, \"9\": {\"Si\": 1.0}, \"10\": {\"Si\": 1.0}, \"11\": {\"Si\": 1.0}, \"12\": {\"Si\": 1.0}, \"13\": {\"Si\": 1.0}, \"14\": {\"Si\": 1.0}, \"15\": {\"Si\": 1.0}, \"16\": {\"Si\": 1.0}, \"17\": {\"Si\": 1.0}, \"18\": {\"Si\": 1.0}, \"19\": {\"Si\": 1.0}, \"20\": {\"Si\": 1.0}, \"21\": {\"Si\": 1.0}, \"22\": {\"Si\": 1.0}, \"23\": {\"Si\": 1.0}, \"24\": {\"Si\": 1.0}, \"25\": {\"Si\": 1.0}, \"26\": {\"Si\": 1.0}, \"27\": {\"Si\": 1.0}, \"28\": {\"Si\": 1.0}, \"29\": {\"Si\": 1.0}, \"30\": {\"Si\": 1.0}, \"31\": {\"Si\": 1.0}, \"32\": {\"Si\": 1.0}, \"33\": {\"Si\": 1.0}, \"34\": {\"Si\": 1.0}, \"35\": {\"Si\": 1.0}, \"36\": {\"Si\": 1.0}, \"37\": {\"Si\": 1.0}, \"38\": {\"Si\": 1.0}, \"39\": {\"Si\": 1.0}, \"40\": {\"Si\": 1.0}, \"41\": {\"Si\": 1.0}, \"42\": {\"Si\": 1.0}, \"43\": {\"Si\": 1.0}, \"44\": {\"Si\": 1.0}, \"45\": {\"Si\": 1.0}, \"46\": {\"Si\": 1.0}, \"47\": {\"Si\": 1.0}, \"48\": {\"Si\": 1.0}, \"49\": {\"Si\": 1.0}, \"50\": {\"Si\": 1.0}, \"51\": {\"Si\": 1.0}, \"52\": {\"Si\": 1.0}, \"53\": {\"Si\": 1.0}}" energy=-470.70979721881656 stress="-0.002560283392876366 0.0015259544570115004 0.001006911713522334 0.0015259544570115004 0.0029473606041475653 -0.0009562234572179346 0.001006911713522334 -0.0009562234572179346 0.0014617705799847428" free_energy=-470.70979721881656 pbc="T T T"
Si       6.68493520       3.94630471       2.82672468       0.25631528      -0.45122511       0.87248624       0.41364785      -0.78158108      -0.41767905      -8.75571867
Si       8.54785267       4.86304489       5.96579459       1.37696446       0.15817179       0.72230437       0.31049241       0.89681158      -0.46044463      -8.70575595
Si      10.43983017       6.16947642       9.07700456       0.10012253       0.82519223      -0.06125901       0.55381091       0.14419007      -0.15537307      -8.72873650
Si       8.65440273       7.22124262       2.85214810      -0.80791605       0.10632125       1.20244288       0.40879321       0.02087609      -0.19562292      -8.68398718
Si      10.57177977       8.33317046       5.83060002       0.06613778       2.16566537      -1.32317316       0.16990719      -0.50091089       0.29319332      -8.73820295
Si      12.62466610       9.48005847       9.05708676       1.24076283       0.39109751       0.25333288      -0.69539266      -0.58900789      -0.59458967      -8.71830264
Si      10.55789840      10.72439945       2.70855998       0.21321050       0.75414454       0.15974398       0.60110211      -0.84473866       0.15841877      -8.74152911
Si      12.50569602      11.55150406       5.89955736      -0.69552239      -1.37926073       0.51514923       0.04779201       0.37007678      -0.59182557      -8.74604308
Si      14.56370500      12.76186847       8.94992913      -0.21381866       0.05642598       0.24059183      -0.14018038      -0.59538113       0.37816676      -8.69884521
Si      10.64961613       3.90923506       2.89816568       0.32946595       0.14650419       1.08628023      -0.27739166       0.12594835      -0.64958731      -8.70904800
Si      12.53904259       5.06205063       6.06938551       0.88870229      -0.53534257       0.69046189      -0.06876441      -0.27606045      -0.18371790      -8.67184560
Si      14.47157397       6.25205683       9.19777616       0.74238685      -0.46132772      -0.26150761      -0.22766208      -0.65428123      -0.02232306      -8.73524701
Si      12.50888259       7.35308202       2.75483006       0.25659515       1.52633106       0.21583344       0.07163164      -0.50509925      -0.62041927      -8.75318334
Si      14.46151170       8.28907785       5.75125668      -1.15503758      -0.18474332      -1.05770381      -0.55400097      -0.04085983       0.38373112      -8.69703090
Si      16.34971753       9.39743999       8.92304597      -0.86430400       0.77874720       0.42348382       0.34884739      -0.01070051       0.82609124      -8.70075582
Si      14.53562417      10.68421781       2.94777645       0.49205349       0.44119782       1.25248892      -0.66390042      -0.43115682      -1.44919198      -8.72365792
Si      16.36255027      11.65710235       5.91713526       0.13566260      -0.55928270      -0.11809788       1.12100830      -0.61724172      -0.27869438      -8.73365473
Si      18.33655026      12.82732198       9.12822141       0.54870663       0.30241140      -0.59295520       0.67146708      -0.16151713       0.30992621      -8.71262474
Si      14.33509342       3.91631641       2.82187722      -1.26871043      -0.74577608       1.56164263       0.04082918       0.00040716      -0.22039544      -8.70902132
Si      16.25502050       4.99724946       5.85727165      -1.30022330      -0.08688893       0.38278370       0.78801942      -0.66605212       0.65883562      -8.67814561
Si      18.34707109       6.06862685       9.01487945      -0.13120565      -0.61591544      -0.53370757      -0.68964494       0.22411507      -0.04676103      -8.72460081
Si      16.35421666       7.14130894       2.61800835      -0.55393963       0.25306714      -1.23468984      -0.46841233       0.33050523       0.08057942      -8.70117126
Si      18.14056691       8.21354153       5.79520709      -0.17986948      -0.67290737      -0.28395340       1.04001869       1.05726325       0.44793898      -8.73180781
Si      20.18920220       9.49097551       8.92705567       0.79734657       2.09845580      -0.25720955       0.34312686      -0.30031566       0.16074464      -8.74386729
Si      18.29685694      10.48109244       2.55592468       1.18770418       0.47465529      -2.13005883       0.09282915      -0.09483803       1.46326942      -8.66665617
Si      20.16396552      11.57204708       5.89029946      -1.45868751      -1.09927546       1.14675329      -0.30788752      -0.17565197      -0.09115804      -8.74933509
Si      22.18219837      12.78633261       8.89436148      -0.67022788      -0.14957975       0.12994190      -0.33834286       0.29066671       0.64268353      -8.70034609
Si       1.06780331       0.48120857       0.25714226       0.03110476      -0.83208779      -0.25208581      -0.30580124       0.16646046      -0.41771738      -8.77578906
Si       2.84775569       1.62937022       3.53390877      -0.01580245       0.48909815       0.15578469      -0.79853605       0.55647779      -0.22549776      -8.73923469
Si       4.81324169       2.64567597       6.53441644       0.01025730       1.02222581      -0.46726664      -0.49690759       1.20864079       0.63019067      -8.70092843
Si       2.76808057       3.99816606       0.43430104       0.26445227       1.45274163      -0.32008172       0.65103148      -0.29529930       0.20161547      -8.73222561
Si       4.78001214       4.95683503       3.55067422      -0.14588094      -0.27600200       1.25489541      -0.88166213       0.65292806      -0.27761421      -8.75003741
Si       6.64514357       6.12676482       6.65436480      -1.39830517      -1.18778336       0.58994245       0.10742506      -1.48234634       0.31333667      -8.69541211
Si       4.86795859       7.23659412       0.24832314      -0.83059494      -0.27110069      -0.88175824      -0.26718297      -0.11893718       0.23672678      -8.74045133
Si       6.63252521       8.26577276       3.51817222       0.28956332      -1.40703060      -2.02717062       0.61574351       0.29704297      -1.12639338      -8.73092906
Si       8.60652611       9.30054819       6.57320662       0.91112589       0.25447162      -0.23214583      -0.50821852       0.54757418       0.19366091      -8.69981734
Si       4.86397937       0.60705669       0.38548869       0.40649020      -0.16329704       0.36060020      -0.39262778       0.19602507      -0.22075847      -8.75280239
Si       6.75662092       1.69517142       3.56145617      -1.45564530       0.95001860      -1.23357901      -0.25477056       0.28747472       0.03722612      -8.67248325
Si       8.66377014       2.62896672       6.58586664       1.63994919       0.76486456      -0.69525422      -0.47212768       0.62027683       0.97877377      -8.72609525
Si       6.62892364       3.91375769       0.47520327      -1.93656457      -0.09187232      -0.74950143       0.53027846       0.29793641      -0.42712143      -8.68972442
Si       8.61168368       4.94606681       3.61166859       1.73620758      -0.38555602       0.29692549       0.69668197       0.51667155      -0.03878637      -8.73599140
Si      10.46996788       6.08501251       6.70202453      -1.83935621      -2.37060230      -0.11336209       0.41186202       0.09831954       0.01637235      -8.70810110
Si       8.72962189       7.21684638       0.47447267       0.19655971      -0.20458344       1.02258641       0.26840400       0.20351235      -0.37228737      -8.73262605
Si      10.62674208       8.49398753       3.50103394      -0.24992332       0.76228045      -0.13587311      -0.74449173      -0.46398386      -0.06464189      -8.71637297
Si      12.53116005       9.39390422       6.62144427       0.55983348      -1.79364709       0.38845522       0.18555470      -0.73111470       0.78707605      -8.69652150
Si       8.78560833       0.66232621       0.55907959       1.49920519       0.15800790      -1.43915980      -0.35685682      -0.41770427      -0.95141630      -8.60881003
Si      10.70124643       1.63084673       3.57768668       0.90782247       1.77479186       0.22721090       0.76761257       0.85279403       0.00606751      -8.71211946
Si      12.50725660       2.73083347       6.79593987       0.04150843       0.56651126       0.56262791       0.24826610       0.72523958      -0.52372710      -8.71723865
Si      10.70459945       3.88081938       0.46884817       0.57605527      -0.72311404       1.52823255      -0.33633257       0.39958127       0.30465465      -8.70403679
Si      12.49400077       5.16120421       3.66952734      -1.43463880      -1.30485792      -0.64296208       0.22034839      -0.35755551       0.31136487      -8.74688395
Si      14.54077958       6.19181802       6.84189929       1.33707885       0.44049039       1.71327629      -1.22813985      -0.31276536      -0.48852139      -8.71757092
Si      12.51053058       7.18629693       0.34838938      -0.00837968      -1.20520035      -0.42223944      -0.38612659       0.66849950       0.21686445      -8.70686064
Si      14.48229301       8.43049432       3.40537489       0.52659510      -0.68393431      -0.21757875       0.16077460      -1.01153404       0.36250320      -8.71466170
Si      16.31519925       9.37943595       6.55693448      -0.95139215       0.72830367      -1.27192410      -0.02594394       0.68031953       0.71225386      -8.72695088
54
Lattice="11.5478352 0.0 0.0 5.773917198490155 10.000722372470358 0.0 5.773916394327279 3.333571176804646 9.428767828939895" Properties=species:S:1:pos:R:3:momenta:R:3:forces:R:3:energies:R:1 spacegroup="_JSON {\"number\": 1, \"setting\": 1}" unit_cell=conventional occupancy="_JSON {\"0\": {\"Si\": 1.0}, \"1\": {\"Si\": 1.0}, \"2\": {\"Si\": 1.0}, \"3\": {\"Si\": 1.0}, \"4\": {\"Si\": 1.0}, \"5\": {\"Si\": 1.0}, \"6\": {\"Si\": 1.0}, \"7\": {\"Si\": 1.0}, \"8\": {\"Si\": 1.0}, \"9\": {\"Si\": 1.0}, \"10\": {\"Si\": 1.0}, \"11\": {\"Si\": 1.0}, \"12\": {\"Si\": 1.0}, \"13\": {\"Si\": 1.0}, \"14\": {\"Si\": 1.0}, \"15\": {\"Si\": 1.0}, \"16\": {\"Si\": 1.0}, \"17\": {\"Si\": 1.0}, \"18\": {\"Si\": 1.0}, \"19\": {\"Si\": 1.0}, \"20\": {\"Si\": 1.0}, \"21\": {\"Si\": 1.0}, \"22\": {\"Si\": 1.0}, \"23\": {\"Si\": 1.0}, \"24\": {\"Si\": 1.0}, \"25\": {\"Si\": 1.0}, \"26\": {\"Si\": 1.0}, \"27\": {\"Si\": 1.0}, \"28\": {\"Si\": 1.0}, \"29\": {\"Si\": 1.0}, \"30\": {\"Si\": 1.0}, \"31\": {\"Si\": 1.0}, \"32\": {\"Si\": 1.0}, \"33\": {\"Si\": 1.0}, \"34\": {\"Si\": 1.0}, \"35\": {\"Si\": 1.0}, \"36\": {\"Si\": 1.0}, \"37\": {\"Si\": 1.0}, \"38\": {\"Si\": 1.0}, \"39\": {\"Si\": 1.0}, \"40\": {\"Si\": 1.0}, \"41\": {\"Si\": 1.0}, \"42\": {\"Si\": 1.0}, \"43\": {\"Si\": 1.0}, \"44\": {\"Si\": 1.0}, \"45\": {\"Si\": 1.0}, \"46\": {\"Si\": 1.0}, \"47\": {\"Si\": 1.0}, \"48\": {\"Si\": 1.0}, \"49\": {\"Si\": 1.0}, \"50\": {\"Si\": 1.0}, \"51\": {\"Si\": 1.0}, \"52\": {\"Si\": 1.0}, \"53\": {\"Si\": 1.0}}" energy=-469.7914977571253 stress="-0.0025067700936118073 0.0006979984949548328 0.00019105160056425834 0.0006979984949548328 0.0010624404993442066 -0.001569563190150827 0.00019105160056425834 -0.001569563190150827 0.003430802327969221" free_energy=-469.7914977571253 pbc="T T T"
Si       6.71075491       3.90995252       2.84965726       0.62210573      -0.54214210      -0.08114492       0.01118549       0.72250807      -0.74923132      -8.72435125
Si       8.60963223       4.89723654       5.97951264       0.57372603       0.91443442      -0.28113640      -1.22922741       0.02688012      -0.76145816      -8.73418547
Si      10.45537143       6.20760563       9.06547290       0.30008758       0.44823579      -0.41131972      -0.17684213      -0.55243758      -0.26822341      -8.74735979
Si       8.64028969       7.22062562       2.89888498       0.46002066      -0.24513784       0.41676281       1.12631946      -0.41435749      -0.82349199      -8.69367460
Si      10.58146814       8.40578926       5.78358997       0.26754021       0.32137420      -0.30204604       0.03104633      -1.63971236       0.95530493      -8.61969523
Si      12.65400604       9.47566872       9.04979423      -0.19449488      -0.53140231      -0.43246254      -0.98109315      -0.48138112      -0.20575664      -8.70075499
Si      10.58033662      10.73187320       2.71879769       0.36118877      -0.40886990       0.15484240      -0.46892579      -0.61142733      -0.13874825      -8.74890261
Si      12.48027866      11.50243275       5.90164547      -0.17830444      -0.36992825      -0.39547021       0.44287489       0.85772865      -0.44241012      -8.66220454
Si      14.55338831      12.74159958       8.97265499      -0.08602939      -0.78171932       0.54181901       0.22304605      -0.40795196       0.04999525      -8.71232215
Si      10.65341764       3.91998953       2.92338708      -0.18992189       0.25135610      -0.20214404      -0.28640307       0.08219874      -0.94508615      -8.77217802
Si      12.57607356       5.02986699       6.09424787       0.39956407      -0.55433780       0.18003777      -0.54785275       0.26833588      -0.48707069      -8.62752307
Si      14.49578899       6.21263751       9.19344977       0.10346522      -0.83887662       0.23807551      -0.53801024       0.13952289       0.52103880      -8.70838644
Si      12.51913992       7.39862580       2.74132795       0.01658989       0.00241021      -0.69362618      -0.37735544      -1.32069196      -0.47135658      -8.68410186
Si      14.39419225       8.27302776       5.71790575      -1.10781740      -0.49476986      -0.10597408       0.62474200      -0.30098393       0.80019090      -8.68604473
Si      16.32191965       9.42683483       8.96859478      -0.14382193       0.18126263       1.13714646       0.55275960      -0.64493532       0.13865954      -8.67383246
Si      14.53829175      10.69229844       2.95145745      -0.26765150      -0.09232673      -1.13335643      -0.20853901      -0.28147242      -1.55143302      -8.61840923
Si      16.41405207      11.61816296       5.90202588       1.70261749      -0.58303561      -0.39631266       0.65357874       0.69089957      -0.04507519      -8.76124554
Si      18.38646562      12.83415086       9.11465080       1.19870139      -0.05468958       0.11657600       0.06340217      -0.21886385       0.47227316      -8.69079250
Si      14.27875650       3.88592202       2.88260311      -0.74258117      -0.25126463       0.55332260       0.58259491       0.62888668      -1.01296910      -8.70399639
Si      16.21968365       4.97001850       5.89971061      -0.09902730      -0.82079708       1.11455161       0.59493548      -0.14994219       0.18109175      -8.74959271
Si      18.32146919       6.04989531       8.99517965      -0.68514985      -0.02297015      -0.03719240      -0.06798010       0.52133469       0.64795873      -8.70020407
Si      16.31176879       7.15584905       2.56056458      -0.92435629       0.10903618      -0.88322276       0.08009638      -0.42072722       0.36834195      -8.71177596
Si      18.16607972       8.21382956       5.79222027       0.98376272       0.49627301       0.06867057       0.38273386       0.35072821       0.04904514      -8.69605291
Si      20.23313913       9.57414336       8.91585858       0.60937676       0.82798145      -0.22156079      -0.68637590      -1.26125918      -0.03390100      -8.73573257
Si      18.35541717      10.50028893       2.51234035       0.91302858       0.23243914       0.49126126      -0.43723381      -0.20117225       1.56333988      -8.61657222
Si      20.08798282      11.52431748       5.93806569      -1.21979992      -0.38836583       0.51226495       0.55371091       1.10460134      -0.72312166      -8.68730806
Si      22.14254873      12.78814228       8.91764798      -0.66364771       0.15443737       0.57862548       0.35983988       0.04192455      -0.05567402      -8.73788600
Si       1.05588388       0.44906255       0.22349025      -0.49150247      -0.30535901      -0.97717960      -0.31903406       0.51445456      -0.20935091      -8.76347582
Si       2.82094531       1.66525205       3.53818136      -0.83034529       0.64261736       0.09942984      -0.12561482      -0.34948066       0.13726019      -8.75337720
Si       4.78961525       2.72683484       6.53661375      -0.93462999       1.62137584       0.57507478      -0.59709197      -0.55429875       0.72548632      -8.68119479
Si       2.80040960       4.05626656       0.42781569       0.82386697       0.64940955       0.08708381       0.08660931      -0.73958172       0.26530119      -8.64088476
Si       4.74096957       4.96753814       3.59638925      -1.20475848       0.62350230       0.36099873      -0.36080049       0.42591742      -0.77285809      -8.69539244
Si       6.58506707       6.02210365       6.68690997      -0.71025058      -2.39963376       0.45032365       0.82703176       0.06666339      -0.45115270      -8.70528371
Si       4.82876203       7.22299480       0.21272951      -0.39760636      -0.14112674      -0.44968843       0.75978945       0.28558065       0.33300972      -8.72783768
Si       6.66081732       8.21712666       3.38976668       0.56523205      -0.24231109      -2.43148461      -0.23503378       1.09498937       0.56890277      -8.71092544
Si       8.62748151       9.32753352       6.57168636      -0.15379209       0.60062499       0.21955171      -0.68297163      -0.12077937       0.36082568      -8.73109574
Si       4.87016626       0.60952586       0.39435812      -0.12820666       0.28442009      -0.03729936      -0.23621336       0.30614226      -0.28171144      -8.71934642
Si       6.68765569       1.74151141       3.51411925      -0.85899891       0.52918066      -0.32588340       0.96637456      -0.82016750       0.99713309      -8.70656689
Si       8.71875027       2.67889778       6.58711482       0.36969810       0.86336787       0.66699297      -0.85026988      -0.45215607       0.68745356      -8.69910160
Si       6.56764372       3.92185255       0.43022882      -0.09277525       0.38885097      -0.76015908       1.71991977       0.23752281       0.37231201      -8.63598059
Si       8.71256126       4.94679588       3.62749075       1.75224843       0.40751983       0.31954678      -0.69926105       0.49249723       0.01277545      -8.70839099
Si      10.41384494       5.99222470       6.69860536       0.12429217      -0.71614705       0.04641832       2.02449719       1.86123240       0.22704716      -8.55881721
Si       8.74825334       7.21786136       0.51574679       0.42830453       0.25136896       0.58072163      -0.05950410       0.23380295      -0.26814094      -8.72999282
Si      10.58825662       8.51787001       3.48769089      -1.08401033       0.15807291      -0.41134933      -0.22497440      -0.42669925      -0.20584373      -8.72911924
Si      12.56146186       9.28845358       6.66807637       0.43999340      -1.86787674       1.25013614      -0.41619255       0.66474502       0.23901434      -8.74012012
Si       8.84188320       0.65304986       0.46638238       0.49025984      -0.51022664      -1.72326757      -0.97123875      -0.40777364       0.51468371      -8.65339588
Si      10.77196393       1.73513306       3.58517397       1.57388627       1.74349542      -0.02397263      -0.04177169      -0.92326378      -0.31071916      -8.69686472
Si      12.51557658       2.77860701       6.80318872       0.22461567       1.03427470      -0.26017373       0.04643400      -0.13374798      -0.42013001      -8.73382327
Si      10.71828835       3.86327150       0.54994572      -0.11542561       0.10174519       1.33687978      -0.57374537       0.59570564      -0.59149148      -8.66179003
Si      12.43902321       5.09979895       3.65727123      -0.47053748      -0.68561940       0.29635583       0.95182569       1.00759693       0.77997469      -8.67251804
Si      14.55791554       6.20521368       6.90048316      -0.69431407       0.08993109       0.33160550      -1.28374613      -0.24096424      -1.21369911      -8.67199049
Si      12.49697041       7.16104760       0.33735720      -0.41437552       0.38373377       0.02232445      -0.02808256       1.23125927       0.29660604      -8.69005605
Si      14.51319237       8.37126132       3.40507498       0.54759734      -1.24559360       0.15239112      -0.25316087       0.26489451       0.15346046      -8.76249536
Si      16.26798515       9.42805197       6.52359172      -0.76763711       0.78179563       0.07763544       0.29919838      -0.64232467       1.02161849      -8.70657510
54
Lattice="11.5478352 0.0 0.0 5.773917198490155 10.000722372470358 0.0 5.773916394327279 3.333571176804646 9.428767828939895" Properties=species:S:1:pos:R:3:momenta:R:3:forces:R:3:energies:R:1 spacegroup="_JSON {\"number\": 1, \"setting\": 1}" unit_cell=conventional occupancy="_JSON {\"0\": {\"Si\": 1.0}, \"1\": {\"Si\": 1.0}, \"2\": {\"Si\": 1.0}, \"3\": {\"Si\": 1.0}, \"4\": {\"Si\": 1.0}, \"5\": {\"Si\": 1.0}, \"6\": {\"Si\": 1.0}, \"7\": {\"Si\": 1.0}, \"8\": {\"Si\": 1.0}, \"9\": {\"Si\": 1.0}, \"10\": {\"Si\": 1.0}, \"11\": {\"Si\": 1.0}, \"12\": {\"Si\": 1.0}, \"13\": {\"Si\": 1.0}, \"14\": {\"Si\": 1.0}, \"15\": {\"Si\": 1.0}, \"16\": {\"Si\": 1.0}, \"17\": {\"Si\": 1.0}, \"18\": {\"Si\": 1.0}, \"19\": {\"Si\": 1.0}, \"20\": {\"Si\": 1.0}, \"21\": {\"Si\": 1.0}, \"22\": {\"Si\": 1.0}, \"23\": {\"Si\": 1.0}, \"24\": {\"Si\": 1.0}, \"25\": {\"Si\": 1.0}, \"26\": {\"Si\": 1.0}, \"27\": {\"Si\": 1.0}, \"28\": {\"Si\": 1.0}, \"29\": {\"Si\": 1.0}, \"30\": {\"Si\": 1.0}, \"31\": {\"Si\": 1.0}, \"32\": {\"Si\": 1.0}, \"33\": {\"Si\": 1.0}, \"34\": {\"Si\": 1.0}, \"35\": {\"Si\": 1.0}, \"36\": {\"Si\": 1.0}, \"37\": {\"Si\": 1.0}, \"38\": {\"Si\": 1.0}, \"39\": {\"Si\": 1.0}, \"40\": {\"Si\": 1.0}, \"41\": {\"Si\": 1.0}, \"42\": {\"Si\": 1.0}, \"43\": {\"Si\": 1.0}, \"44\": {\"Si\": 1.0}, \"45\": {\"Si\": 1.0}, \"46\": {\"Si\": 1.0}, \"47\": {\"Si\": 1.0}, \"48\": {\"Si\": 1.0}, \"49\": {\"Si\": 1.0}, \"50\": {\"Si\": 1.0}, \"51\": {\"Si\": 1.0}, \"52\": {\"Si\": 1.0}, \"53\": {\"Si\": 1.0}}" energy=-470.0675405761596 stress="0.0016932071967108834 -0.00025233116638736825 -0.00019930900285537802 -0.00025233116638736825 -0.0010483146429420066 0.0003896148137430741 -0.00019930900285537802 0.0003896148137430741 0.001704589139370495" free_energy=-470.0675405761596 pbc="T T T"
Si       6.73777367       3.91925344       2.82015147       0.30517917       0.93148816      -0.91302467      -0.39648850       0.86843761      -0.23098002      -8.66769347
Si       8.59657528       4.93866135       5.94412641      -0.78503135       0.58011046      -0.81665176      -0.15637512      -0.34083182       0.19665234      -8.77412425
Si      10.46624984       6.21005678       9.03792271       0.23259262      -0.28422483      -0.51415516       0.26283267      -0.28900370       0.21010605      -8.76670131
Si       8.69955026       7.19486237       2.88663560       1.51124481      -0.61417342      -0.88001539       0.01958288       0.05428631      -0.81316655      -8.73565332
Si      10.59225310       8.36239674       5.80420796       0.06141873      -1.82275107       1.01595867      -0.28755371      -1.02499025       0.66972925      -8.65032324
Si      12.61565083       9.43927566       9.02899892      -1.03897526      -0.64472589      -0.18160119      -0.09404570       0.33269809       0.48178871      -8.71677761
Si      10.57345289      10.69531339       2.72048608      -0.66567062      -0.80685368      -0.08182115      -0.63659519       0.08098943      -0.10332838      -8.74876041
Si      12.48490565      11.51465356       5.87490246       0.27694642       0.76041618      -0.37912330       0.13975400       0.56115585       0.51552733      -8.61150088
Si      14.55606253      12.69412586       9.00073187       0.12783346      -0.82391319       0.49813958      -0.00517368       0.39018412      -0.07596316      -8.74944435
Si      10.64049404       3.93841210       2.88387132      -0.12882988       0.47713296      -1.07835059       0.37359947       0.17115964      -0.06597352      -8.76891012
Si      12.57432198       5.01717021       6.08362553      -0.46035443       0.14504862      -0.57806397      -0.52942202       0.54749031      -0.45632403      -8.70300047
Si      14.48173021       6.18098064       9.22021461      -0.58566000      -0.28568452       0.59596950      -0.32342739       0.45749787      -0.19655183      -8.70516926
Si      12.50435095       7.35208744       2.69658027      -0.55538408      -1.60742591      -0.78886333      -0.28417074      -0.65846509       0.39913528      -8.68245627
Si      14.36907808       8.23854738       5.74142387       0.22882504      -0.70634178       0.93093008       0.93520751       0.14828487       0.52502729      -8.70593370
Si      16.33389367       9.41333860       9.02649123       0.54188557      -0.58931939       0.95194241       0.32653602      -0.22514273      -0.33737034      -8.69504530
Si      14.52480028      10.67724350       2.84236587      -0.10963193      -0.48219819      -2.75856216       0.32904798      -0.27659573      -0.47988902      -8.58055867
Si      16.51009765      11.62326106       5.88373657       1.58941465       0.79085401      -0.22335564      -0.80577729       0.74947447       0.25862757      -8.74751248
Si      18.43841079      12.82669891       9.13194561       0.52020043      -0.13650454       0.37621930      -0.96341119       0.14751420      -0.17290300      -8.69786336
Si      14.26382777       3.89876848       2.87122684       0.16766312       0.70340798      -0.94525241       0.56229892       0.48182302      -0.84568991      -8.72786604
Si      16.22588943       4.93421386       5.95286801       0.12343839      -0.32950119       0.68859690      -0.21594060       0.66038392      -0.67785489      -8.76761438
Si      18.28858053       6.06890953       9.01886582      -0.48180923       0.72476580       0.87873114       0.28044956       0.42916027       0.41146908      -8.66683345
Si      16.27614127       7.14453573       2.53084703      -0.28034492      -0.47850860      -0.20830722       0.67293506      -0.17400539       0.53588570      -8.73167489
Si      18.21888863       8.24133368       5.79395745       0.77919002       0.35022195      -0.06557552      -0.59500867      -0.44578378      -0.19874701      -8.59743810
Si      20.23074650       9.56850840       8.90676342      -0.73207165      -0.95835613      -0.01025833      -0.81482250      -0.93565489       0.40635448      -8.73364907
Si      18.38115012      10.50456165       2.57719133      -0.00933911      -0.06066014       1.54429890      -0.73068676      -0.16022860      -0.12901601      -8.66020545
Si      20.05142034      11.55149440       5.93468423      -0.08845033       1.37316824      -0.62334539       0.89443619       0.90273785      -0.65053340      -8.68337889
Si      22.12791814      12.79280977       8.93963973       0.16726536      -0.04897033       0.19888890       0.59130439      -0.23278202      -0.28797639      -8.75300291
Si       1.02366890       0.45460821       0.18061866      -0.59117257       0.52545572      -0.35017370       0.24497036       0.54945366       0.98014149      -8.71523637
Si       2.78540748       1.68094655       3.55083005      -0.30688592      -0.03796336       0.38309864       0.72234967      -0.33280012       0.12707933      -8.74508168
Si       4.72487100       2.76845614       6.59138770      -1.36121810      -0.33269149       1.39527024       0.08734887      -1.69012538       0.24479762      -8.65829797
Si       2.84000242       4.05993001       0.43968526       0.56373394      -0.51789464       0.29298417      -0.39549092      -0.77351656      -0.02145990      -8.64690561
Si       4.67662992       5.00857265       3.58888684      -1.00121138       0.77782425      -0.53651213       0.61393603      -0.21565977      -0.35016822      -8.65876119
Si       6.58585939       5.92176364       6.69165369       0.78598894      -1.03854427      -0.22509135       0.98272259       1.59602016      -0.29101740      -8.69323443
Si       4.83781900       7.22700261       0.20109945       0.63001728       0.24099121      -0.02739589       0.32850742       0.08166196       0.21151343      -8.72466208
Si       6.67860778       8.24241922       3.29934474       0.14457074       1.01937269      -0.79195423      -0.13640928       0.36904664       1.46767243      -8.66665122
Si       8.60162377       9.34935326       6.59400004      -0.64886964       0.20481195       0.53207955       0.02417484      -0.23181670      -0.02490485      -8.77699171
Si       4.85896571       0.63231433       0.38274912      -0.21942031       0.48303030      -0.36958417       0.07260667      -0.09208866      -0.14008905      -8.70344326
Si       6.68464158       1.73367695       3.53267893       0.74204210      -0.78497888       0.85846545       0.96997011      -0.66310403       0.31417510      -8.77255227
Si       8.71434791       2.70022095       6.63749060      -0.35752021      -0.09414660       1.02608918      -0.14942172      -0.63119614      -0.20283649      -8.68753677
Si       6.62484468       3.94274726       0.40993406       2.05561938       0.21287189       0.04288313       0.87785408      -0.50286060       0.60225817      -8.69857509
Si       8.76443938       4.98241753       3.64166169       0.06143894       0.82481046       0.13489352      -1.34492971      -0.00461605      -0.32364880      -8.71277639
Si      10.49098610       6.02617678       6.70624258       2.44285968       1.84090704       0.11236635       0.60895577       1.21863439      -0.25695571      -8.66332356
Si       8.76207104       7.23125679       0.53342759       0.00249378       0.06145270       0.02597324      -0.43427355      -0.52984875      -0.52962740      -8.71125710
Si      10.53559159       8.50701873       3.46356953      -0.67171712      -0.62203626      -0.36649469       0.76281713      -0.61374575       0.34190703      -8.73064879
Si      12.56212050       9.22972952       6.72915427      -0.47423404      -0.18166770       0.79639067      -0.64223775       1.41724661      -0.86114681      -8.72019191
Si       8.82776795       0.61535841       0.40778870      -0.99386994      -0.81617148      -0.36986129      -0.82014289       0.02308325       1.05989948      -8.72554576
Si      10.83931341       1.77688182       3.57061878       0.74968432      -0.28364002      -0.54538401      -1.01557229      -1.44410107      -0.37036383      -8.67377735
Si      12.52900982       2.81899499       6.78243291       0.29414674       0.40284427      -0.34650502       0.06819096      -0.52971750       0.29109626      -8.72589940
Si      10.69002095       3.88816883       0.58649095      -0.93427820       0.75246043      -0.11219903      -0.46061848       0.21925822      -1.24341980      -8.70158188
Si      12.44850278       5.10476022       3.69650462       0.70408826       0.80375511       0.99327868       0.47135203       0.74203031      -0.02764872      -8.67319642
Si      14.48247961       6.19719596       6.87561983      -1.93297832      -0.47253310      -1.09612028      -0.30265580      -0.53153348      -0.50794216      -8.69791218
Si      12.48160231       7.22142950       0.34606143      -0.06101724       1.69146704       0.21484919       0.39974663       0.33512710      -0.06673561      -8.73046935
Si      14.52250312       8.32751942       3.41717849      -0.35326950      -0.27829684       0.27045204      -0.86374654       0.83159863      -0.00489363      -8.74635739
Si      16.24514485       9.43553106       6.56515860       0.01943340      -0.53799198       1.42485352       0.78091016      -0.81622421       0.69428241      -8.67758179
54
Lattice="11.5478352 0.0 0.0 5.773917198490155 10.000722372470358 0.0 5.773916394327279 3.333571176804646 9.428767828939895" Properties=species:S:1:pos:R:3:momenta:R:3:forces:R:3:energies:R:1 spacegroup="_JSON {\"number\": 1, \"setting\": 1}" unit_cell=conventional occupancy="_JSON {\"0\": {\"Si\": 1.0}, \"1\": {\"Si\": 1.0}, \"2\": {\"Si\": 1.0}, \"3\": {\"Si\": 1.0}, \"4\": {\"Si\": 1.0}, \"5\": {\"Si\": 1.0}, \"6\": {\"Si\": 1.0}, \"7\": {\"Si\": 1.0}, \"8\": {\"Si\": 1.0}, \"9\": {\"Si\": 1.0}, \"10\": {\"Si\": 1.0}, \"11\": {\"Si\": 1.0}, \"12\": {\"Si\": 1.0}, \"13\": {\"Si\": 1.0}, \"14\": {\"Si\": 1.0}, \"15\": {\"Si\": 1.0}, \"16\": {\"Si\": 1.0}, \"17\": {\"Si\": 1.0}, \"18\": {\"Si\": 1.0}, \"19\": {\"Si\": 1.0}, \"20\": {\"Si\": 1.0}, \"21\": {\"Si\": 1.0}, \"22\": {\"Si\": 1.0}, \"23\": {\"Si\": 1.0}, \"24\": {\"Si\": 1.0}, \"25\": {\"Si\": 1.0}, \"26\": {\"Si\": 1.0}, \"27\": {\"Si\": 1.0}, \"28\": {\"Si\": 1.0}, \"29\": {\"Si\": 1.0}, \"30\": {\"Si\": 1.0}, \"31\": {\"Si\": 1.0}, \"32\": {\"Si\": 1.0}, \"33\": {\"Si\": 1.0}, \"34\": {\"Si\": 1.0}, \"35\": {\"Si\": 1.0}, \"36\": {\"Si\": 1.0}, \"37\": {\"Si\": 1.0}, \"38\": {\"Si\": 1.0}, \"39\": {\"Si\": 1.0}, \"40\": {\"Si\": 1.0}, \"41\": {\"Si\": 1.0}, \"42\": {\"Si\": 1.0}, \"43\": {\"Si\": 1.0}, \"44\": {\"Si\": 1.0}, \"45\": {\"Si\": 1.0}, \"46\": {\"Si\": 1.0}, \"47\": {\"Si\": 1.0}, \"48\": {\"Si\": 1.0}, \"49\": {\"Si\": 1.0}, \"50\": {\"Si\": 1.0}, \"51\": {\"Si\": 1.0}, \"52\": {\"Si\": 1.0}, \"53\": {\"Si\": 1.0}}" energy=-470.62718871543314 stress="0.0031972949877292762 -0.0005311300203757827 -0.00013463099048775445 -0.0005311300203757827 -0.0012374980429338221 0.0017351582238940989 -0.00013463099048775445 0.0017351582238940989 -0.002711065058575364" free_energy=-470.62718871543314 pbc="T T T"
Si       6.73659452       3.98615248       2.77562610      -0.35971823       1.28493855      -0.55264387      -0.43416050      -0.43530441       0.66784008      -8.66167460
Si       8.57282747       4.95451444       5.91998357       0.25606038       0.00366895       0.02573011       1.30602382      -0.40486838       0.70858124      -8.68965262
Si      10.49743289       6.19172045       9.02470471       1.08679427      -0.27693321       0.07514122       0.76937789       0.24849308       0.46775587      -8.72578354
Si       8.76063551       7.17321234       2.81539555       0.52114100      -0.07989781      -1.67537885      -1.13675820       0.56709833      -0.17648198      -8.73317958
Si      10.58299796       8.25066811       5.87121636      -0.42001694      -1.85827656       1.25478852      -0.31469260       1.26276802      -0.44972981      -8.69856837
Si      12.56796694       9.42274215       9.03836333      -0.61800146       0.01848727       0.46095937       0.53519104       0.35264261       0.18023937      -8.72788239
Si      10.52575046      10.66091379       2.71629875      -0.87525060      -0.47417588       0.00478211       0.44781578       0.20014678       0.21290599      -8.75092577
Si      12.49985984      11.56778702       5.88406784       0.19625819       1.09937388       0.81073705      -0.23947774      -0.08285707       0.81320109      -8.67346373
Si      14.55799458      12.67390790       9.02356711      -0.13361211       0.15018047       0.36652509      -0.31786957       0.76572774      -0.10121209      -8.74735829
Si      10.65088764       3.96701866       2.83803561       0.50505224       0.53269143      -0.48993073       0.29451700      -0.14323679       0.62280552      -8.73123326
Si      12.53337502       5.03963797       6.04038584      -1.02525041       0.53436385      -0.96869277      -0.23200410      -0.13324641      -0.06529021      -8.74173546
Si      14.44556440       6.17758503       9.23134372      -0.62898855      -0.02009097      -0.38695252       0.31946039      -0.22477521      -1.03948152      -8.69456607
Si      12.46986250       7.25898860       2.67888078      -0.64250653      -1.59906451       0.19364784       0.17583814       0.69007423       0.70045344      -8.70525183
Si      14.40859246       8.21765551       5.80450127       1.07068962       0.09297041       1.35657145       0.13270841       0.84995785       0.06391033      -8.73908039
Si      16.37080270       9.38656290       9.05998170       0.79096594      -0.17706921       0.27616485       0.03411307       0.75748585      -0.52284339      -8.73098813
Si      14.53209206      10.64124985       2.70214459       0.35161673      -0.87478372      -2.10035242       0.19059868      -0.21379536       1.42182537      -8.66253461
Si      16.54821434      11.67690532       5.88297323      -0.33228348       0.91328520       0.18366487      -1.56011145      -0.57117381       0.22102908      -8.69897272
Si      18.42082137      12.83083343       9.13777436      -1.26060087       0.38613913      -0.25123304      -1.22486263       0.49506296      -0.54775618      -8.71009096
Si      14.29002225       3.94479166       2.80015251       0.74041566       0.86110372      -1.50980017       0.21399862      -0.25651974       0.14905294      -8.72507158
Si      16.22323908       4.93852109       5.96130949      -0.16342075       0.34239469      -0.32719346       0.01050701       0.09846611      -0.53849723      -8.74363580
Si      18.27477816       6.11898596       9.07058156      -0.06109520       1.07801669       0.88273722       0.20972928       0.00854181      -0.41107842      -8.68164570
Si      16.28602526       7.12524984       2.54181524       0.57977129      -0.00109899       0.63729086       0.37896010       0.80927794       0.57696422      -8.73529756
Si      18.23236695       8.23994208       5.78272777      -0.26975657      -0.39317914      -0.33268263      -0.61137053      -0.40426462      -0.07736877      -8.64689572
Si      20.17258062       9.49499587       8.92701685      -1.24072704      -1.58688726       0.81977190       0.13733285       0.07023985       0.54164255      -8.73548827
Si      18.35641782      10.49834037       2.63984896      -0.79512643      -0.10591526       0.67995009      -0.19457423       0.10802585      -0.77938368      -8.71649001
Si      20.07911217      11.63916482       5.88601071       1.03737090       1.57161507      -1.03078332       0.46636000      -0.63971955       0.13109784      -8.73408283
Si      22.15254584      12.78365750       8.94583344       0.60859773      -0.22792731       0.20262489      -0.03021807       0.03877095       0.34093008      -8.75378807
Si       1.00854159       0.50051855       0.20592095       0.09413331       1.14867022       1.34581953       0.55206173       0.24632559       1.10232862      -8.68290704
Si       2.79790109       1.67562679       3.56799521       0.71300288       0.01892146       0.08509479       0.45080300       0.37747228      -0.58916812      -8.73633089
Si       4.66884503       2.69954059       6.66084452      -0.52432882      -1.88426271       0.99892385       1.07263344      -0.11891816      -0.72443691      -8.69968352
Si       2.85216707       4.00613037       0.44922098      -0.09975233      -1.44891337      -0.02614408      -0.38841306      -0.43873406      -0.39881168      -8.74154551
Si       4.65610296       5.03500654       3.55455179       0.32638190       0.14454824      -0.64385733       1.03216483      -0.54706012       0.15581180      -8.68343055
Si       6.65240966       5.93477539       6.67622345       1.44562492       1.53902082      -0.22408456      -0.18268922       1.60405025       0.24874412      -8.72491631
Si       4.86788852       7.23515801       0.20779303       0.23266332      -0.06414880       0.31442575      -0.77229145      -0.43585183       0.33349599      -8.72085923
Si       6.68695674       8.29322046       3.31537447       0.26534194       0.61558455       1.35009404       0.22246277      -0.79831046       1.25028189      -8.65391523
Si       8.57432182       9.35639014       6.61429278      -0.32299656       0.15458508       0.14010699       0.29821777       0.11654989      -0.41472273      -8.73742505
Si       4.85073551       0.64785130       0.36113013      -0.11316491       0.00647267      -0.38518699      -0.00228105      -0.48681681       0.13611943      -8.72446503
Si       6.75105287       1.67992127       3.57155045       1.56798432      -1.01072428       0.31372154       0.09851618       0.32700110      -0.87011888      -8.72661141
Si       8.69626133       2.67856100       6.67611771      -0.22726089      -0.55401401       0.36444060       0.26566165       0.06036984      -0.52175008      -8.71062456
Si       6.74453290       3.93173074       0.43268573       2.06584305      -0.58370167       0.74405928      -0.85538491      -0.31402981       0.28775768      -8.74384322
Si       8.72169742       5.01755438       3.63139307      -1.50521817       0.39029927      -0.58226589      -0.61852002      -0.48227773      -0.52892750      -8.75962643
Si      10.61330245       6.14524547       6.70005196       1.72199148       2.13708867      -0.27625098      -1.34747284      -1.01043018       0.02817678      -8.70250675
Si       8.74579821       7.20802120       0.50994171      -0.58985141      -0.98236932      -0.99729975      -0.30671734      -0.65523662      -0.82132726      -8.71358042
Si      10.53666015       8.45156069       3.46452833       0.76264179      -1.43890772       0.49827522       0.94604286      -0.40216916       0.70963356      -8.70193473
Si      12.51946076       9.27283820       6.73039619      -0.98114809       1.71658556      -0.78019164       0.01873286       0.98733470      -0.97601785      -8.71789125
Si       8.75750348       0.57853825       0.41896064      -1.40062415      -0.50669220       0.48745822       0.27070364       0.33896607      -0.13974042      -8.75006900
Si      10.83142833       1.71884752       3.52922394      -1.15918198      -1.61941709      -0.97061882      -1.43209956      -0.24459179      -0.11853575      -8.69193821
Si      12.54741416       2.82572571       6.77899886       0.39764719       0.00148279       0.20919425       0.01948930       0.02301538       0.25864822      -8.71878851
Si      10.62872977       3.92827211       0.53619122      -1.27298329       0.61693919      -1.63085905       0.05107668      -0.40215590      -0.56047970      -8.76604926
Si      12.49433458       5.16099274       3.73147486       0.89372401       1.02496397       0.06032076      -0.11730629      -0.49829463      -1.10584365      -8.69234136
Si      14.38410830       6.15141610       6.81295341      -1.54647083      -1.22164767      -1.04616954       0.76101355      -0.32029704       0.45173104      -8.70974455
Si      12.49227073       7.30392802       0.35205155       0.40373386       1.09317517       0.00771305       0.15729937      -1.05923945      -0.08770572      -8.73103512
Si      14.47293111       8.33982134       3.42901235      -1.41644454       0.58720255       0.15715517      -0.39885664       0.21371843      -0.08578995      -8.70962199
Si      16.28034008       9.38702778       6.65731113       1.35033320      -1.07467085       1.88068192       0.87872028       0.10659163      -0.13046465      -8.68016572
54
Lattice="11.5478352 0.0 0.0 5.773917198490155 10.000722372470358 0.0 5.773916394327279 3.333571176804646 9.428767828939895" Properties=species:S:1:pos:R:3:momenta:R:3:forces:R:3:energies:R:1 spacegroup="_JSON {\"number\": 1, \"setting\": 1}" unit_cell=conventional occupancy="_JSON {\"0\": {\"Si\": 1.0}, \"1\": {\"Si\": 1.0}, \"2\": {\"Si\": 1.0}, \"3\": {\"Si\": 1.0}, \"4\": {\"Si\": 1.0}, \"5\": {\"Si\": 1.0}, \"6\": {\"Si\": 1.0}, \"7\": {\"Si\": 1.0}, \"8\": {\"Si\": 1.0}, \"9\": {\"Si\": 1.0}, \"10\": {\"Si\": 1.0}, \"11\": {\"Si\": 1.0}, \"12\": {\"Si\": 1.0}, \"13\": {\"Si\": 1.0}, \"14\": {\"Si\": 1.0}, \"15\": {\"Si\": 1.0}, \"16\": {\"Si\": 1.0}, \"17\": {\"Si\": 1.0}, \"18\": {\"Si\": 1.0}, \"19\": {\"Si\": 1.0}, \"20\": {\"Si\": 1.0}, \"21\": {\"Si\": 1.0}, \"22\": {\"Si\": 1.0}, \"23\": {\"Si\": 1.0}, \"24\": {\"Si\": 1.0}, \"25\": {\"Si\": 1.0}, \"26\": {\"Si\": 1.0}, \"27\": {\"Si\": 1.0}, \"28\": {\"Si\": 1.0}, \"29\": {\"Si\": 1.0}, \"30\": {\"Si\": 1.0}, \"31\": {\"Si\": 1.0}, \"32\": {\"Si\": 1.0}, \"33\": {\"Si\": 1.0}, \"34\": {\"Si\": 1.0}, \"35\": {\"Si\": 1.0}, \"36\": {\"Si\": 1.0}, \"37\": {\"Si\": 1.0}, \"38\": {\"Si\": 1.0}, \"39\": {\"Si\": 1.0}, \"40\": {\"Si\": 1.0}, \"41\": {\"Si\": 1.0}, \"42\": {\"Si\": 1.0}, \"43\": {\"Si\": 1.0}, \"44\": {\"Si\": 1.0}, \"45\": {\"Si\": 1.0}, \"46\": {\"Si\": 1.0}, \"47\": {\"Si\": 1.0}, \"48\": {\"Si\": 1.0}, \"49\": {\"Si\": 1.0}, \"50\": {\"Si\": 1.0}, \"51\": {\"Si\": 1.0}, \"52\": {\"Si\": 1.0}, \"53\": {\"Si\": 1.0}}" energy=-470.91228099813895 stress="-0.00044138841250149945 0.000713053993870863 0.00010027917768975862 0.000713053993870863 -0.0003602595882243543 0.0006195991957321347 0.00010027917768975862 0.0006195991957321347 -0.0026638439967621237" free_energy=-470.91228099813895 pbc="T T T"
Si       6.70450632       4.02193463       2.77624730      -0.76496683      -0.17057260       0.57336750      -0.03744432      -1.42010768       0.65902638      -8.69950404
Si       8.63491250       4.94368221       5.94345813       1.93200978      -0.28062783       0.72697450       0.61779429       0.11736388       0.15624589      -8.67670791
Si      10.58158254       6.18846707       9.04474167       1.99873698       0.13491751       0.64140840       0.28049398       0.17452116       0.28312218      -8.70212096
Si       8.74466429       7.19043464       2.73135727      -1.02896436       0.67956511      -1.34118590      -0.75137607       0.34264894       0.54749148      -8.74038685
Si      10.55091017       8.23110590       5.90680941      -0.73712538       1.39528697      -0.02220285      -0.04314044       2.28237043      -0.90180260      -8.70484981
Si      12.55412474       9.42889512       9.05777812      -0.03344688       0.04998677       0.05691879       0.04747346      -0.28792775      -0.68032665      -8.72785426
Si      10.51119068      10.63735648       2.72629379       0.53950698      -0.55743071       0.38211492       1.29423970      -0.30753578       0.24249658      -8.70389233
Si      12.49918514      11.61864439       5.94390406      -0.20120424       0.82157649       1.12108566      -0.14250263      -0.15357659      -0.53362266      -8.75510311
Si      14.53692393      12.70637296       9.03835047      -0.68964019       0.94704713       0.18285181      -0.39845387       0.22494274      -0.15585907      -8.72234954
Si      10.67834482       3.98405358       2.83048041       0.30815838       0.01296482       0.02946665      -0.61379228      -0.55079114      -0.03473024      -8.66190462
Si      12.47510092       5.05355849       5.98967983      -1.08697594      -0.12410883      -0.94228473       0.20577165      -0.60116277       0.02566810      -8.72392464
Si      14.43108173       6.15844596       9.16882590       0.11813596      -0.81712367      -1.94691995       0.46911548      -0.62899680      -0.83173695      -8.72010214
Si      12.44846740       7.21478022       2.70709492      -0.07104553       0.07385181       0.67168489       0.57936821       1.29114714      -0.09950787      -8.73429698
Si      14.45971890       8.25541313       5.87406218       0.71210379       1.27914523       1.22737006      -0.52120051       0.59390164      -0.20872574      -8.70198944
Si      16.41152048       9.41048873       9.05708875       0.72332085       1.05371119      -0.28989696      -0.12370257       0.61528394      -0.14967075      -8.75497696
Si      14.55094883      10.58970979       2.66073315       0.19890642      -1.03838661       0.57508273      -0.48242176      -0.01422149       1.60179187      -8.76929590
Si      16.47832362      11.69232975       5.89796986      -2.06608711      -0.46066308       0.31944113      -0.52590918      -1.11051036      -0.05277156      -8.66974497
Si      18.31855908      12.86653166       9.10722517      -2.33264905       0.82020586      -0.80037913      -0.02984563      -0.10922324      -0.12366951      -8.75791627
Si      14.33511787       3.97438412       2.73774326       0.96754145       0.19455282      -0.72114137       0.16625893      -0.54597628       0.72113876      -8.70812924
Si      16.22405819       4.95202515       5.93035443       0.36367049       0.05683265      -0.71454178       0.66901818      -0.35650801       0.00666785      -8.65739742
Si      18.27402816       6.16923860       9.09322881      -0.09493286       0.71040275      -0.12988396      -0.28066066      -0.49164818      -0.84196406      -8.72875189
Si      16.32370633       7.16117497       2.59639183       0.71244145       1.36015136       1.41317722      -0.18917988       0.76691007       0.45571173      -8.72336559
Si      18.20504967       8.21275375       5.76831102      -0.53578228      -0.42688686      -0.08585695       0.30627510       0.44298093       0.43120533      -8.76578004
Si      20.12228452       9.42279794       8.98268537      -0.52435610      -1.05374339       1.10706474       0.73947176       0.51272310      -0.21234587      -8.72572212
Si      18.31650791      10.49840280       2.65301423      -0.58998675       0.11407027       0.06507116       0.33298044       0.14006807       0.17121385      -8.76555866
Si      20.13953173      11.68458049       5.84432933       1.05123853       0.01848367      -0.46224704      -0.35313357      -1.19277489       0.51253576      -8.73960544
Si      22.17784365      12.77627835       8.97435486       0.28816352      -0.02211494       0.91177528      -0.30129257       0.15828753       0.44939164      -8.72483781
Si       1.03052157       0.56431234       0.30846383       0.61802175       1.16194408       2.28427189       0.06223430      -0.22982278       0.00413849      -8.72529833
Si       2.84138673       1.69517443       3.54369302       0.73480156       0.74988434      -1.04785626      -0.35400960       0.46461524      -0.72272268      -8.73303651
Si       4.69154938       2.61987767       6.68328619       1.45979888      -0.76340696      -0.09092449       1.31280293       1.41416011      -0.53507701      -8.70112941
Si       2.83903075       3.91983288       0.43061618      -0.22746555      -1.69650188      -0.67494493       0.28811838       0.13288156      -0.36156762      -8.77468799
Si       4.70803979       5.02448196       3.52954222       1.48326231      -0.43056715      -0.27608325       0.36109008      -0.09313304       0.29675070      -8.75166199
Si       6.71176001       6.05941167       6.67643147       0.73166934       2.74496463       0.24636142      -0.53529817      -0.23319044       0.31441904      -8.73438389
Si       4.84635345       7.21401123       0.24101945      -1.03860084      -0.71517512       1.01036187      -0.71493395      -0.33137518       0.55553881      -8.72356439
Si       6.70963398       8.29277595       3.42046658       0.58226021      -0.55661676       2.31422669       0.15946861      -0.50953127      -0.09408199      -8.71909931
Si       8.56612947       9.36992662       6.60740397      -0.06738954       0.36951488      -0.32903494      -0.00283264       0.15986495      -0.13072847      -8.67887180
Si       4.83989041       0.63101363       0.35044427      -0.40817770      -0.55821792       0.06403250      -0.42059036      -0.13536032       0.47718602      -8.75980994
Si       6.82555652       1.64745231       3.55593424       1.06076835      -0.11657585      -0.77390021      -0.73530466       0.76307468      -0.36507565      -8.60784231
Si       8.69503450       2.66047798       6.68081715       0.14096438       0.00747173      -0.03577178       0.10628712       0.62269820       0.05269506      -8.76628489
Si       6.80639667       3.90042179       0.47677823       0.17520169      -0.41771007       0.81228881      -1.29612247       0.42122011      -0.20812516      -8.74280490
Si       8.63441920       5.02132484       3.58627938      -1.50333492      -0.16090672      -0.97733912       0.63349082      -0.15548956       0.08960677      -8.74654064
Si      10.64389581       6.19201510       6.69933071      -0.59928797      -0.60479065       0.40979439      -1.52869009      -1.91052979       0.61952904      -8.67694277
Si       8.70763318       7.14308263       0.42719394      -0.75793780      -1.19882538      -2.06522728       0.11544209       0.49053517      -0.44961430      -8.74803206
Si      10.60068058       8.36775385       3.51456872       1.35362424      -1.58943784       1.28790899      -0.31759895       0.25737350       0.23281184      -8.71523048
Si      12.47691175       9.38712994       6.66532260      -0.50895401       2.33111432      -1.39606318       0.53890415      -0.22993921       0.20352118      -8.71419307
Si       8.70148216       0.56470037       0.42143344      -0.67118853      -0.05792930      -0.60196279       0.53588704       0.19368647      -0.92653019      -8.71609358
Si      10.72190089       1.64014794       3.48128904      -2.77418404      -1.11686469      -0.69560620      -0.46802911       0.80114284       0.51496001      -8.71148998
Si      12.56427904       2.82976698       6.78870760       0.13035228       0.15458060      -0.08853341      -0.42402484       0.03727064      -0.70041972      -8.71979140
Si      10.57173083       3.94142227       0.44584538      -0.75874891      -0.12119657      -1.51268479       0.59886612      -0.42238385       0.60911363      -8.75273483
Si      12.53490960       5.18077106       3.69127200       0.63857900      -0.49589988      -1.50779101      -0.18786437      -1.36025460      -0.79167520      -8.70467019
Si      14.33855325       6.08545996       6.77689719      -0.14218626      -1.08075578      -0.38651000       0.94985952       0.49686155       0.22425049      -8.73763682
Si      12.51471573       7.31626881       0.35414613       0.36591156      -0.56068161       0.16948004      -0.17942193      -0.82328131       0.28576375      -8.72082776
Si      14.39561122       8.36829435       3.43825554      -1.28279938       0.31668965       0.31560532       0.57746851      -0.49690113       0.38483191      -8.67323882
Si      16.37685683       9.34477642       6.73877942       2.10826880      -0.36519798       0.99758689       0.01059623       0.78361887      -1.01647265      -8.69031400
54
Lattice="11.5478352 0.0 0.0 5.773917198490155 10.000722372470358 0.0 5.773916394327279 3.333571176804646 9.428767828939895" Properties=species:S:1:pos:R:3:momenta:R:3:forces:R:3:energies:R:1 spacegroup="_JSON {\"number\": 1, \"setting\": 1}" unit_cell=conventional occupancy="_JSON {\"0\": {\"Si\": 1.0}, \"1\": {\"Si\": 1.0}, \"2\": {\"Si\": 1.0}, \"3\": {\"Si\": 1.0}, \"4\": {\"Si\": 1.0}, \"5\": {\"Si\": 1.0}, \"6\": {\"Si\": 1.0}, \"7\": {\"Si\": 1.0}, \"8\": {\"Si\": 1.0}, \"9\": {\"Si\": 1.0}, \"10\": {\"Si\": 1.0}, \"11\": {\"Si\": 1.0}, \"12\": {\"Si\": 1.0}, \"13\": {\"Si\": 1.0}, \"14\": {\"Si\": 1.0}, \"15\": {\"Si\": 1.0}, \"16\": {\"Si\": 1.0}, \"17\": {\"Si\": 1.0}, \"18\": {\"Si\": 1.0}, \"19\": {\"Si\": 1.0}, \"20\": {\"Si\": 1.0}, \"21\": {\"Si\": 1.0}, \"22\": {\"Si\": 1.0}, \"23\": {\"Si\": 1.0}, \"24\": {\"Si\": 1.0}, \"25\": {\"Si\": 1.0}, \"26\": {\"Si\": 1.0}, \"27\": {\"Si\": 1.0}, \"28\": {\"Si\": 1.0}, \"29\": {\"Si\": 1.0}, \"30\": {\"Si\": 1.0}, \"31\": {\"Si\": 1.0}, \"32\": {\"Si\": 1.0}, \"33\": {\"Si\": 1.0}, \"34\": {\"Si\": 1.0}, \"35\": {\"Si\": 1.0}, \"36\": {\"Si\": 1.0}, \"37\": {\"Si\": 1.0}, \"38\": {\"Si\": 1.0}, \"39\": {\"Si\": 1.0}, \"40\": {\"Si\": 1.0}, \"41\": {\"Si\": 1.0}, \"42\": {\"Si\": 1.0}, \"43\": {\"Si\": 1.0}, \"44\": {\"Si\": 1.0}, \"45\": {\"Si\": 1.0}, \"46\": {\"Si\": 1.0}, \"47\": {\"Si\": 1.0}, \"48\": {\"Si\": 1.0}, \"49\": {\"Si\": 1.0}, \"50\": {\"Si\": 1.0}, \"51\": {\"Si\": 1.0}, \"52\": {\"Si\": 1.0}, \"53\": {\"Si\": 1.0}}" energy=-471.0000552143799 stress="-0.005026283358501422 0.0006390049065120888 0.0009578422361798231 0.0006390049065120888 0.0012357738351925144 -0.0019009430628839556 0.0009578422361798231 -0.0019009430628839556 1.9765856656578764e-05" free_energy=-471.0000552143799 pbc="T T T"
Si       6.67237620       3.95602298       2.82247441      -0.27007469      -2.25990990       0.98446416       0.68969128      -1.06409820      -0.13756527      -8.76831561
Si       8.73730583       4.93963082       5.97788666       1.49646019       0.18004508       0.39353716      -1.24361971       0.32495615      -0.60189477      -8.67967562
Si      10.68135291       6.19431726       9.08543277       1.46438999      -0.08925406       0.81233944      -1.03902156      -0.51306304      -0.10127650      -8.70606273
Si       8.67489283       7.23079545       2.68346075      -1.35938008       0.67964997      -0.51883229       0.31207306      -0.35506361       0.42068764      -8.71380423
Si      10.51742325       8.35859961       5.88573413      -0.41622354       2.74886705      -0.45891803       0.42982468      -0.44696599       0.32689330      -8.75305203
Si      12.54078450       9.41706071       9.03076102      -0.69603808      -0.50684250      -1.07827563      -0.79018789      -0.30466713      -0.64165409      -8.70796414
Si      10.58527557      10.59444547       2.75429949       2.08269429      -1.05786383       0.65617492       0.50671429      -0.23413786       0.12463806      -8.68359747
Si      12.49389991      11.66073833       5.96580687       0.23401306       0.86773984      -0.52312875       0.74510136       0.15918589      -1.45765486      -8.72857746
Si      14.48644133      12.75669612       9.04154969      -1.19840144       0.84243045      -0.05516584      -0.25364230      -0.27809887      -0.12842074      -8.70415907
Si      10.66173176       3.96073990       2.82137690      -1.04467983      -0.91539950      -0.51601427      -1.00865123      -0.59758630      -0.58061367      -8.66168487
Si      12.43265030       5.02780470       5.93944052      -0.43749415      -0.72838324      -1.01005003       0.56494322      -0.10499387      -0.11982776      -8.75110312
Si      14.44684474       6.10018471       9.05079906       0.31837581      -1.17529986      -2.19120068      -0.15501146       0.24656533       0.56199226      -8.76060805
Si      12.46915954       7.25546330       2.73240859       0.84598735       1.11627927       0.24391762       0.51090504      -0.08619783      -0.29712842      -8.76801185
Si      14.47550861       8.33564949       5.92835680      -0.09003204       1.57442755       0.81081036      -0.44526598      -0.21142354      -0.33174922      -8.64264785
Si      16.44183842       9.47453564       9.04203179       0.37020072       1.08348495      -0.20783960      -0.36448946      -0.55777055       0.14688612      -8.76105989
Si      14.53134886      10.53645360       2.72562301      -1.12400026      -0.95047335       1.34463088      -1.14344187       0.16341756      -0.51461903      -8.78609490
Si      16.37009290      11.62945674       5.90860075      -1.70996089      -1.76703219       0.01378414       0.82762674      -0.42851378      -0.33049296      -8.66669445
Si      18.21459872      12.89196858       9.06454938      -1.31516478      -0.06552960      -0.79054972       1.18441085      -0.93629505       0.02553417      -8.73418100
Si      14.39426118       3.96543307       2.72237262       1.31753960      -0.46445174      -0.02823692       0.27798909      -0.26509713       0.09819856      -8.75060226
Si      16.27256198       4.94321341       5.89862548       1.50191428      -0.30751613      -0.40637330       0.73289146      -0.02105219       0.35457057      -8.65293651
Si      18.25531008       6.18383839       9.05717897      -0.60548045      -0.19133708      -1.11039996      -0.22298572      -0.63902538      -0.31180004      -8.75820111
Si      16.34869162       7.24873774       2.68474476       0.17152142       1.68390718       1.86883125      -0.45480750      -0.37380519       0.11652356      -8.71140281
Si      18.19931494       8.21787951       5.78473974       0.48025700       0.74768892       0.75017096       0.94660279       0.90872330       0.57800540      -8.74810446
Si      20.12402355       9.38561304       9.02422118       0.54328710      -0.42043273       0.35846387       0.55102453       0.30327210      -0.67483275      -8.72632970
Si      18.29666603      10.50946119       2.68044630      -0.23046361       0.31337062       1.24029854       0.09663049       0.16541749       1.15608220      -8.72529723
Si      20.18046135      11.64893118       5.83793365       0.55651204      -1.09796296       0.14610078      -0.19129839      -0.09923222       0.23004200      -8.76075662
Si      22.18313200      12.77809755       9.03291448      -0.02944108       0.01410410       1.17183070      -0.08273870      -0.13821907      -0.12497826      -8.69896552
Si       1.05602905       0.61171799       0.41064882       0.17451882       0.57293808       1.32698980      -0.64748874      -0.51656093      -1.08116354      -8.72763868
Si       2.86513458       1.74365953       3.47176631       0.23068728       0.86112336      -1.42675853      -0.12751720      -0.46378972       0.31674359      -8.74102911
Si       4.80061868       2.63896523       6.66791995       2.24387206       1.47650400      -0.29386630      -0.42397699       1.35746734       0.25265369      -8.74176818
Si       2.84635947       3.84324980       0.38747297       0.60673475      -1.10390408      -0.84389430       0.66947309       0.59689943       0.11925653      -8.73241871
Si       4.78501953       5.00905405       3.52698262       1.19084091       0.03172669       0.18236308      -0.63287155       0.63022206       0.30493848      -8.75122221
Si       6.73444603       6.16556536       6.69891673       0.23567978       0.83821393       0.52737857      -0.14073277      -2.01968768      -0.03212609      -8.64914564
Si       4.77624582       7.17069518       0.31416591      -1.36975895      -0.77994568       1.72461840       0.31105277       0.27683250       0.34792575      -8.73626530
Si       6.74334954       8.25849822       3.51936229       0.63273750      -0.46161974       1.16922192      -0.11897561       0.61398737      -1.19606156      -8.73979043
Si       8.55829060       9.39633060       6.59204649      -0.28222301       0.65072502      -0.11458075      -0.18824139       0.20630571       0.42939210      -8.69311365
Si       4.79958954       0.60515514       0.37545245      -1.10970184      -0.29423598       0.92020632      -0.33180883       0.36803256       0.58792607      -8.75297950
Si       6.84751817       1.66783781       3.51423876      -0.26689268       0.76032653      -0.58052746      -0.90066584       0.22413023       0.55890445      -8.63653277
Si       8.69942883       2.68631552       6.68773156      -0.09104635       0.95718697       0.38181992      -0.33099974       0.54119595       0.36962454      -8.77949003
Si       6.78280682       3.89526280       0.50563731      -0.66833036       0.19076707       0.20555509       0.26180062       0.31453717      -0.52623554      -8.73548437
Si       8.59142261       5.01346125       3.54701619      -0.00053851      -0.03814580      -0.39376580       1.15634324       0.23124542       0.58078457      -8.68135199
Si      10.56809574       6.11801787       6.73667174      -1.86971785      -1.54636235       0.85192787       0.12764821       0.65309980       0.01953446      -8.75730671
Si       8.67716801       7.11418564       0.31452571      -0.35582543       0.31793431      -1.97013678       0.28552873       1.34340953       0.55349730      -8.73035985
Si      10.64168684       8.30360619       3.57962594      -0.05008573      -0.71273684       0.95737290      -1.31798623       0.80419312      -0.68556281      -8.71556292
Si      12.47198057       9.48550657       6.61225479       0.29770170       1.19167652      -0.45348144       0.44697309      -1.10540034       0.88315552      -8.71512782
Si       8.68249959       0.56377609       0.36711560      -0.16362917      -0.09032317      -1.16342451       0.10250378      -0.24624800       0.22983253      -8.72527885
Si      10.58227333       1.61783391       3.47188010      -2.11398179       0.30410001       0.43919930       1.18959721       0.93463322       0.90283001      -8.70076649
Si      12.55010143       2.83295439       6.75001460      -0.72432071      -0.17663219      -1.43252817      -0.63283428      -0.52355793      -0.88488930      -8.70727345
Si      10.55607255       3.92588105       0.39504630       0.11968130      -0.33616659      -0.39719155       0.43432187       0.09362677       0.72186411      -8.71540704
Si      12.55996230       5.10823019       3.59247062       0.27009415      -2.04126189      -2.05728370      -0.37223108      -0.49496090      -0.00253765      -8.74972035
Si      14.36067193       6.05337484       6.75227136       0.82358377      -0.08681905      -0.82308898       0.32877588       0.72306953      -0.81980542      -8.75086590
Si      12.52601864       7.27225331       0.37559064       0.08425033      -0.78520427       0.64418432      -0.10192616       0.45840604       0.26872044      -8.71461920
Si      14.36008545       8.36359146       3.47766474       0.06532299      -0.48097694       1.31973307       1.10883024      -0.44011445       0.90102975      -8.69718264
Si      16.47223287       9.35917732       6.74847113       1.23402913       0.92680576      -0.60041204      -1.13585942       0.82279517      -0.90577746      -8.71246291
54
Lattice="11.5478352 0.0 0.0 5.773917198490155 10.000722372470358 0.0 5.773916394327279 3.333571176804646 9.428767828939895" Properties=species:S:1:pos:R:3:momenta:R:3:forces:R:3:energies:R:1 spacegroup="_JSON {\"number\": 1, \"setting\": 1}" unit_cell=conventional occupancy="_JSON {\"0\": {\"Si\": 1.0}, \"1\": {\"Si\": 1.0}, \"2\": {\"Si\": 1.0}, \"3\": {\"Si\": 1.0}, \"4\": {\"Si\": 1.0}, \"5\": {\"Si\": 1.0}, \"6\": {\"Si\": 1.0}, \"7\": {\"Si\": 1.0}, \"8\": {\"Si\": 1.0}, \"9\": {\"Si\": 1.0}, \"10\": {\"Si\": 1.0}, \"11\": {\"Si\": 1.0}, \"12\": {\"Si\": 1.0}, \"13\": {\"Si\": 1.0}, \"14\": {\"Si\": 1.0}, \"15\": {\"Si\": 1.0}, \"16\": {\"Si\": 1.0}, \"17\": {\"Si\": 1.0}, \"18\": {\"Si\": 1.0}, \"19\": {\"Si\": 1.0}, \"20\": {\"Si\": 1.0}, \"21\": {\"Si\": 1.0}, \"22\": {\"Si\": 1.0}, \"23\": {\"Si\": 1.0}, \"24\": {\"Si\": 1.0}, \"25\": {\"Si\": 1.0}, \"26\": {\"Si\": 1.0}, \"27\": {\"Si\": 1.0}, \"28\": {\"Si\": 1.0}, \"29\": {\"Si\": 1.0}, \"30\": {\"Si\": 1.0}, \"31\": {\"Si\": 1.0}, \"32\": {\"Si\": 1.0}, \"33\": {\"Si\": 1.0}, \"34\": {\"Si\": 1.0}, \"35\": {\"Si\": 1.0}, \"36\": {\"Si\": 1.0}, \"37\": {\"Si\": 1.0}, \"38\": {\"Si\": 1.0}, \"39\": {\"Si\": 1.0}, \"40\": {\"Si\": 1.0}, \"41\": {\"Si\": 1.0}, \"42\": {\"Si\": 1.0}, \"43\": {\"Si\": 1.0}, \"44\": {\"Si\": 1.0}, \"45\": {\"Si\": 1.0}, \"46\": {\"Si\": 1.0}, \"47\": {\"Si\": 1.0}, \"48\": {\"Si\": 1.0}, \"49\": {\"Si\": 1.0}, \"50\": {\"Si\": 1.0}, \"51\": {\"Si\": 1.0}, \"52\": {\"Si\": 1.0}, \"53\": {\"Si\": 1.0}}" energy=-470.9773104146142 stress="-0.001611962467024726 -0.00012108854974525591 -0.00015387957074489324 -0.00012108854974525591 -0.0020160613004162444 -5.3155401367623506e-05 -0.00015387957074489324 -5.3155401367623506e-05 0.000679016629778912" free_energy=-470.9773104146142 pbc="T T T"
Si       6.68718080       3.82533393       2.85878757       0.80826601      -2.04302154       0.22072988       0.61003320       1.54413403      -0.84388651      -8.73090874
Si       8.75195974       4.95704365       5.96918906      -1.05134754       0.42745094      -0.76487205      -1.65400946       0.13345308      -0.74002856      -8.70178390
Si      10.70844346       6.16416746       9.11890482      -0.47405742      -1.09806079       0.39943781      -1.19821005      -0.65782625      -0.34992193      -8.73073255
Si       8.62593304       7.24659548       2.66542210      -0.37567325      -0.14510588      -0.30588124       0.81905723      -0.61932236      -0.10827196      -8.70100017
Si      10.51321023       8.46398804       5.88303274       0.23621625       0.97646035       0.43630088       0.36101342      -1.63202983       0.65063061      -8.65288772
Si      12.47742461       9.38765582       8.96247967      -1.56176886      -0.41097748      -1.21405679      -0.19851085       0.47706149       0.56976503      -8.71667090
Si      10.69222358      10.53602831       2.79097164       1.56655183      -1.05627615       0.68146090      -1.16446413       0.20095595      -0.11253224      -8.66926568
Si      12.53656249      11.71037275       5.88841946       1.29223352       0.95625056      -2.15597084       0.36980846      -0.09561033      -0.38799581      -8.74243568
Si      14.41819051      12.79010617       9.03681465      -1.30646918       0.47942397      -0.04889310       0.12437216      -0.08965833       0.16901114      -8.74476354
Si      10.57703243       3.89643384       2.77340436      -1.93492385      -1.36824793      -1.23215277      -0.04785292       0.04969803      -0.27216827      -8.75747415
Si      12.42951897       4.99396018       5.88062342       0.25574718      -0.43276872      -1.24694254       0.33102753       0.39580602      -0.17656175      -8.74519906
Si      14.45500918       6.05870675       8.96951899      -0.02186696      -0.25898335      -0.79795618      -0.22338301       0.82174177       0.99496838      -8.73178099
Si      12.52358765       7.29326624       2.74035024       1.02728856       0.08083478       0.21962629      -0.25932175      -1.05361608       0.32323370      -8.74712500
Si      14.46002270       8.40056947       5.95841369      -0.36461599       0.74411468       0.36563049       0.07832439      -0.82511706      -0.20394294      -8.67552724
Si      16.44522254       9.50242279       9.03514759      -0.25762644      -0.06857561      -0.09119772      -0.43191713      -0.75170294       0.01527991      -8.75079348
Si      14.43712319      10.49825120       2.76380703      -2.18014412      -0.41117836       0.00621402      -0.04688145       0.50701857      -0.95706470      -8.72089890
Si      16.31468770      11.54312111       5.89619070      -0.45686563      -1.02306761      -0.46908234       0.63729177       1.51618818      -0.26098642      -8.70003342
Si      18.18971995      12.85395317       9.02231385       0.23656497      -1.28134174      -0.85359590       0.70404939      -0.55256870      -0.10824025      -8.71628392
Si      14.47145341       3.93743490       2.71608081       1.53650567      -0.49150774      -0.32759353      -0.06998334       0.15622457      -0.35327335      -8.77026796
Si      16.37165016       4.93603833       5.89096462       2.06951618       0.23481493       0.07196503      -0.07719521       0.75719382       0.18686090      -8.73778416
Si      18.22464214       6.15225899       9.00148740      -0.36836090      -0.92943163      -0.73226178       0.52767205      -0.31556603       0.76816106      -8.75742216
Si      16.34317685       7.31049240       2.78102671      -0.27453766       0.49489537       1.68716166      -0.03552744      -1.06460329      -0.33008803      -8.72427031
Si      18.25881963       8.28078342       5.84094448       1.64331595       1.34831090       1.25248968       0.37197945      -0.24230689       0.03440950      -8.74376680
Si      20.16416990       9.37330928       9.01920354       0.79680718      -0.06117974      -0.45096497      -0.17975985       0.25487668      -0.28587513      -8.71963805
Si      18.28509219      10.53423523       2.78136348      -0.25773231       0.67046368       2.31900497      -0.09143448       0.31791705       0.06473017      -8.71179973
Si      20.20625427      11.60832882       5.84809819       0.48297281      -0.08491640       0.12902262       0.03231329       1.31529935      -0.20183118      -8.68308240
Si      22.18151720      12.77042537       9.08344132       0.00458689      -0.34374409       0.66769289       0.05411333      -0.28621597      -0.46703321      -8.70439908
Si       1.03385123       0.62112944       0.44272536      -1.10260694      -0.20693237       0.08746954      -0.96922565      -0.48917969      -0.36160376      -8.73438307
Si       2.88220867       1.75669848       3.42317704       0.60424129      -0.56598629      -0.20863495       0.58769721      -1.23500426       1.16436153      -8.67637282
Si       4.88514588       2.75182377       6.66882384       0.80722917       2.40143874       0.40250567      -1.11661867      -0.29424636       0.54443832      -8.73121909
Si       2.89754248       3.80958021       0.35074589       1.16214469      -0.18177984      -0.52667222      -0.03411798       0.59820583       0.24502805      -8.70177770
Si       4.82371169       5.03378514       3.54587561       0.39344874       0.79812299       0.47207549      -0.23455320       0.20202814       0.05240224      -8.72408943
Si       6.74471011       6.13563880       6.71467182       0.21067350      -1.71934223      -0.12963868       0.08406884      -1.03260791      -0.79219462      -8.68923614
Si       4.72711818       7.14704358       0.41169557      -0.35871591      -0.03563556       1.85032026       0.87649778       0.61230295      -0.21636628      -8.70757350
Si       6.76770408       8.26647971       3.53936897       0.23324871       0.85605780      -0.20854497      -0.35255898       0.96650699      -0.45332719      -8.75942166
Si       8.54264680       9.43720469       6.60868263      -0.12186028       0.88517088       0.83844625       0.56227945       0.13532563       0.77674330      -8.74726808
Si       4.74086720       0.60018610       0.44052675      -0.87192822      -0.02826269       1.40499535       0.65230821      -0.14090647      -0.01497724      -8.73681620
Si       6.80636005       1.69797185       3.51149676      -1.11334961       0.00671205       0.53683832      -0.17716029      -1.22788720       0.78355188      -8.72503687
Si       8.68510302       2.74964064       6.71674237      -0.34417778       1.28749765       0.57479245       0.08257966      -0.10926521      -0.20473253      -8.75018327
Si       6.77219745       3.91169816       0.49699821       0.41107787       0.29268794      -0.50734739       0.84208478      -0.24933532      -0.43107583      -8.69390339
Si       8.62780868       5.01866332       3.54762593       1.15913774       0.16887475       0.35219327       0.27832658      -0.01983529       0.32956461      -8.69400796
Si      10.50284598       6.08239864       6.77877344      -0.22282911       0.41263340       0.67149872       1.63508667       1.53661860      -0.33945009      -8.63779069
Si       8.66284708       7.17704540       0.23995325      -0.33974730       1.85540905      -0.78317510      -0.27729131       0.47845050       0.91949548      -8.71648767
Si      10.59434522       8.29452377       3.59595665      -1.52924987       0.25513334      -0.39500679      -0.45887716       0.37940167      -0.91334490      -8.74276587
Si      12.49807100       9.50974195       6.61876358       0.54595903      -0.08656992       0.54733879      -0.13864668      -0.41920786       0.28727630      -8.75938538
Si       8.67186302       0.54605931       0.32533417      -0.33819892      -0.61336152      -0.30089755      -0.27447960      -0.35474578       0.74234473      -8.72383056
Si      10.51827327       1.65794137       3.52448033      -0.45780305       0.92372810       1.39048030       0.71784183      -0.21750759       0.22093446      -8.73962242
Si      12.49149760       2.79778102       6.65018285      -1.39579050      -1.21799729      -2.15496027      -0.18404172      -0.71897461      -0.03986547      -8.71125567
Si      10.57049627       3.91362377       0.39472976       0.26171159      -0.13554539       0.20326807      -0.21686942       0.08324502       0.00974313      -8.71924189
Si      12.55551849       4.99773788       3.49066565      -0.50223295      -1.91852148      -1.73784536      -0.60805528       0.49780906       0.34012424      -8.71537319
Si      14.41032040       6.07338149       6.67290546       0.97723795       0.75323795      -2.15964208      -0.04076397       0.34447701      -0.65367369      -8.72162672
Si      12.53142774       7.25538479       0.41410612       0.20693954       0.17260495       0.68930224       0.21969247       0.58683390      -0.25252772      -8.73646261
Si      14.40175831       8.32927233       3.58017700       1.33871605      -0.64892007       2.47515501       0.38569607       0.25558362       0.44698344      -8.76157752
Si      16.48698903       9.42820709       6.69514424      -0.68385831       1.38490965      -1.14962979      -1.18350423      -0.42950991       0.19279947      -8.73260537
54
Lattice="11.5478352 0.0 0.0 5.773917198490155 10.000722372470358 0.0 5.773916394327279 3.333571176804646 9.428767828939895" Properties=species:S:1:pos:R:3:momenta:R:3:forces:R:3:energies:R:1 spacegroup="_JSON {\"number\": 1, \"setting\": 1}" unit_cell=conventional occupancy="_JSON {\"0\": {\"Si\": 1.0}, \"1\": {\"Si\": 1.0}, \"2\": {\"Si\": 1.0}, \"3\": {\"Si\": 1.0}, \"4\": {\"Si\": 1.0}, \"5\": {\"Si\": 1.0}, \"6\": {\"Si\": 1.0}, \"7\": {\"Si\": 1.0}, \"8\": {\"Si\": 1.0}, \"9\": {\"Si\": 1.0}, \"10\": {\"Si\": 1.0}, \"11\": {\"Si\": 1.0}, \"12\": {\"Si\": 1.0}, \"13\": {\"Si\": 1.0}, \"14\": {\"Si\": 1.0}, \"15\": {\"Si\": 1.0}, \"16\": {\"Si\": 1.0}, \"17\": {\"Si\": 1.0}, \"18\": {\"Si\": 1.0}, \"19\": {\"Si\": 1.0}, \"20\": {\"Si\": 1.0}, \"21\": {\"Si\": 1.0}, \"22\": {\"Si\": 1.0}, \"23\": {\"Si\": 1.0}, \"24\": {\"Si\": 1.0}, \"25\": {\"Si\": 1.0}, \"26\": {\"Si\": 1.0}, \"27\": {\"Si\": 1.0}, \"28\": {\"Si\": 1.0}, \"29\": {\"Si\": 1.0}, \"30\": {\"Si\": 1.0}, \"31\": {\"Si\": 1.0}, \"32\": {\"Si\": 1.0}, \"33\": {\"Si\": 1.0}, \"34\": {\"Si\": 1.0}, \"35\": {\"Si\": 1.0}, \"36\": {\"Si\": 1.0}, \"37\": {\"Si\": 1.0}, \"38\": {\"Si\": 1.0}, \"39\": {\"Si\": 1.0}, \"40\": {\"Si\": 1.0}, \"41\": {\"Si\": 1.0}, \"42\": {\"Si\": 1.0}, \"43\": {\"Si\": 1.0}, \"44\": {\"Si\": 1.0}, \"45\": {\"Si\": 1.0}, \"46\": {\"Si\": 1.0}, \"47\": {\"Si\": 1.0}, \"48\": {\"Si\": 1.0}, \"49\": {\"Si\": 1.0}, \"50\": {\"Si\": 1.0}, \"51\": {\"Si\": 1.0}, \"52\": {\"Si\": 1.0}, \"53\": {\"Si\": 1.0}}" energy=-470.8288629254354 stress="0.0027016309280050712 -0.0005620909051416298 -0.0005797520901782706 -0.0005620909051416298 -0.001956912388207531 0.001830996660984696 -0.0005797520901782706 0.001830996660984696 -0.0024545034682188355" free_energy=-470.8288629254354 pbc="T T T"
Si       6.74728214       3.79650417       2.83590338       1.36816090       0.99486197      -1.04162194       0.14950607       1.78691637      -0.65454870      -8.67617750
Si       8.65992257       4.98831194       5.91190234      -1.83512445       0.80563747      -1.17831116       0.74524489       0.26864541       0.17115380      -8.76436831
Si      10.65469914       6.09008849       9.12791311      -1.20336913      -1.52490028      -0.03062077       0.22450817       0.11801286      -0.26651789      -8.76603122
Si       8.63126278       7.22025597       2.64301088       0.38570305      -0.71996646      -0.54437109       0.08473109      -0.08585739      -0.09501923      -8.73384718
Si      10.53512941       8.45304972       5.92328832       0.51408067      -1.27325401       0.90612762       0.03155581      -1.15615214      -0.09511969      -8.69737156
Si      12.40036383       9.39133506       8.93609636      -1.15116819       0.61581202       0.41459940       0.69193411       0.73315480       1.36521345      -8.69819109
Si      10.71640669      10.49098905       2.81893879      -0.78046002      -0.63230002       0.33326900      -1.69666421       0.31842085      -0.31368387      -8.70038398
Si      12.60323907      11.75216532       5.79113013       0.97916123       0.55523401      -0.95446956      -0.68851935      -0.41749148       1.91741318      -8.67066583
Si      14.35909929      12.81898010       9.04425543      -0.87849002       0.75286544       0.37414291       0.39190058       0.40876942       0.33100765      -8.76750940
Si      10.48863828       3.83453896       2.70698932      -1.19646027      -0.88500649      -1.13429054       0.88872452       0.46968598       0.36874686      -8.76517151
Si      12.45199121       4.98557383       5.81039068       0.53476074       0.05447677      -1.37713144       0.07027694       0.17989412       0.02956926      -8.70222688
Si      14.44787945       6.07297477       8.95609692      -0.18346378       0.65575804       0.05084458       0.03792083       0.25083215       0.08746928      -8.72026750
Si      12.56181763       7.25905258       2.77032999       0.36270856      -1.26885108       0.97482313      -0.53881865      -0.60981290       0.52043227      -8.69902085
Si      14.44733038       8.40693201       5.97573969      -0.10870842      -0.45253473       0.43166683       0.11692204      -0.63723020       0.31927784      -8.73439948
Si      16.41677147       9.47965145       9.03101571      -0.78617322      -0.57551241      -0.05449927      -0.27472891       0.10862484       0.05712166      -8.72160550
Si      14.33983347      10.49270666       2.73621952      -1.22075202       0.07769358      -0.83749677       1.16322027       0.04963626      -0.10293243      -8.65231925
Si      16.30500688      11.56134762       5.86749591      -0.12573797       1.72089848      -0.46355291      -0.20725563       1.51804706       0.36476311      -8.73552711
Si      18.21754239      12.77612455       8.97256511       0.61243085      -1.47665863      -1.05091882      -0.12550446       0.26596196      -0.13790750      -8.69036214
Si      14.54096886       3.91634404       2.68902575       0.96109317      -0.38068164      -0.58354177      -0.66208230      -0.09608266       0.10786699      -8.75091723
Si      16.46144758       4.98032949       5.89531602       1.04746488       1.38586709      -0.02845790      -1.27516026       0.48754808      -0.27947994      -8.75680190
Si      18.23016223       6.09754830       8.99654101       0.60697685      -1.03443656       0.51386549       0.64430601       0.16253644       0.67235611      -8.72885218
Si      16.33614846       7.29791692       2.85344426       0.14845317      -0.84103107       1.03629320       0.51032959      -0.54633368      -0.48150016      -8.75814983
Si      18.34149404       8.32882118       5.89969803       1.20272141       0.32524747       0.86157184      -0.79287912      -0.85730738      -0.44984647      -8.68424830
Si      20.19511847       9.38272125       8.99636031       0.36218102       0.47798484      -0.16759241      -0.27284700       0.47708459       0.70174261      -8.71480770
Si      18.26820714      10.58216521       2.88701812      -0.36353645       1.15051128       1.40997820       0.00015052       0.29364897      -1.11211619      -8.70695799
Si      20.23254952      11.65656733       5.84730858       0.50636204       1.82358948      -0.10058515      -0.01263297       0.94336637       0.02511860      -8.68316833
Si      22.18004170      12.74274589       9.10107505      -0.17177387      -0.67215284       0.04373276      -0.37989190      -0.13483163      -0.32102269      -8.74575565
Si       0.94370044       0.59476761       0.44750738      -2.16767691      -0.71380912       0.33485371      -0.32004037      -0.15710126       0.58366850      -8.72973104
Si       2.93910815       1.68737579       3.45577436       1.53905627      -1.81662504       1.33922749       0.47734460      -0.23727927       0.73752009      -8.69956393
Si       4.89198245       2.84519715       6.70599678      -0.37290212       0.88715594       0.87369121      -0.44968786      -1.34708294      -0.00255706      -8.67736728
Si       2.94565683       3.82123215       0.33220271       0.48604789       0.57668820      -0.19171104      -0.75623695       0.39942531       0.20054859      -8.71130701
Si       4.84447302       5.07110806       3.56868633       0.54019657       0.39542524       0.32271322       0.32399067      -0.69824353      -0.24850905      -8.70592091
Si       6.76079401       6.03386776       6.68099252       0.42323510      -1.59725928      -0.94643222       0.15653342       1.17458581       0.00346998      -8.72836390
Si       4.73828034       7.16566109       0.49201010       0.65094868       0.64673137       1.07997906       0.36757783       0.23572452      -0.72203411      -8.69758163
Si       6.76923974       8.33990360       3.52408508      -0.08452443       1.70168055      -0.16292899      -0.01296613       0.03549065       0.38082239      -8.76177069
Si       8.56993143       9.49053171       6.67849183       1.31605940       1.18184212       1.65758462       1.14734660       0.24729146       0.12363127      -8.78105192
Si       4.72696987       0.58377748       0.50332656       0.40039263      -0.75603017       0.79771144       0.89562305      -0.76108628      -0.77312117      -8.69079834
Si       6.74947451       1.65133965       3.55741694      -0.93767346      -1.53981124       0.85712383       0.29358795      -0.32330303      -0.57788704      -8.74997600
Si       8.67583048       2.80787526       6.73080556       0.06245274       0.89521029      -0.14714841       0.36582414      -0.25642576      -0.61981513      -8.70549581
Si       6.81518592       3.91014874       0.45484536       0.95267211      -0.43137492      -1.07171924      -0.21994706      -0.55077198      -0.31562147      -8.71656299
Si       8.68600955       5.02333598       3.57061833       0.84637667      -0.02676374       0.34642049      -0.55671924      -0.16073246      -0.36648863      -8.72315855
Si      10.54405019       6.14982544       6.79079769       1.49850385       1.80464492      -0.37943783       0.53750031       0.16930720      -0.95927745      -8.66883002
Si       8.63176585       7.27172755       0.23314171      -0.84463333       1.36460250       0.46833350      -0.28813895      -1.02987399       0.70390750      -8.68425588
Si      10.51392086       8.31255337       3.55067651      -1.22267608       0.22789136      -1.07292893       0.77367842      -0.42906234       0.08095224      -8.72717170
Si      12.51543446       9.50174675       6.64592903       0.04037057      -0.01899569       0.29324929      -0.44040411       0.35853723      -0.45484601      -8.72840257
Si       8.64363269       0.50537724       0.33395889      -0.70452054      -0.81091144       0.48936837      -0.14983536       0.13331741       0.19949792      -8.75184423
Si      10.50767309       1.68601154       3.59036537      -0.19578196       0.01116305       0.81432389      -0.26420440      -0.75873498      -0.97874113      -8.70724647
Si      12.42250860       2.71703296       6.54710078      -0.98623114      -1.56277298      -1.57412397       0.79670252       0.44078231       0.75736086      -8.71982418
Si      10.57208374       3.90617957       0.39508997      -0.22582208      -0.21576673      -0.36747512      -0.31840554      -0.17629840      -0.68400414      -8.75464691
Si      12.50906491       4.92004771       3.41337153      -1.15714214      -1.02422147      -1.20723507      -0.17623910       0.58292935       0.35497995      -8.68770531
Si      14.45783028       6.11765650       6.55224985       0.79128653       0.75723402      -2.08033016      -0.21827302      -0.35424491       0.74074224      -8.68648481
Si      12.54984860       7.27659472       0.43530803       0.44292286       0.39428938       0.07561074       0.01941594      -0.34984253      -0.41807811      -8.75976597
Si      14.46919884       8.31286192       3.70793437       0.92424352       0.12051537       1.97306955      -0.80441177       0.63154810      -1.19416838      -8.72871469
Si      16.41905448       9.46644667       6.65297906      -1.60222196      -0.10988422      -0.32524290      -0.00386224      -1.11854277       0.71848942      -8.72021478
54
Lattice="11.5478352 0.0 0.0 5.773917198490155 10.000722372470358 0.0 5.773916394327279 3.333571176804646 9.428767828939895" Properties=species:S:1:pos:R:3:momenta:R:3:forces:R:3:energies:R:1 spacegroup="_JSON {\"number\": 1, \"setting\": 1}" unit_cell=conventional occupancy="_JSON {\"0\": {\"Si\": 1.0}, \"1\": {\"Si\": 1.0}, \"2\": {\"Si\": 1.0}, \"3\": {\"Si\": 1.0}, \"4\": {\"Si\": 1.0}, \"5\": {\"Si\": 1.0}, \"6\": {\"Si\": 1.0}, \"7\": {\"Si\": 1.0}, \"8\": {\"Si\": 1.0}, \"9\": {\"Si\": 1.0}, \"10\": {\"Si\": 1.0}, \"11\": {\"Si\": 1.0}, \"12\": {\"Si\": 1.0}, \"13\": {\"Si\": 1.0}, \"14\": {\"Si\": 1.0}, \"15\": {\"Si\": 1.0}, \"16\": {\"Si\": 1.0}, \"17\": {\"Si\": 1.0}, \"18\": {\"Si\": 1.0}, \"19\": {\"Si\": 1.0}, \"20\": {\"Si\": 1.0}, \"21\": {\"Si\": 1.0}, \"22\": {\"Si\": 1.0}, \"23\": {\"Si\": 1.0}, \"24\": {\"Si\": 1.0}, \"25\": {\"Si\": 1.0}, \"26\": {\"Si\": 1.0}, \"27\": {\"Si\": 1.0}, \"28\": {\"Si\": 1.0}, \"29\": {\"Si\": 1.0}, \"30\": {\"Si\": 1.0}, \"31\": {\"Si\": 1.0}, \"32\": {\"Si\": 1.0}, \"33\": {\"Si\": 1.0}, \"34\": {\"Si\": 1.0}, \"35\": {\"Si\": 1.0}, \"36\": {\"Si\": 1.0}, \"37\": {\"Si\": 1.0}, \"38\": {\"Si\": 1.0}, \"39\": {\"Si\": 1.0}, \"40\": {\"Si\": 1.0}, \"41\": {\"Si\": 1.0}, \"42\": {\"Si\": 1.0}, \"43\": {\"Si\": 1.0}, \"44\": {\"Si\": 1.0}, \"45\": {\"Si\": 1.0}, \"46\": {\"Si\": 1.0}, \"47\": {\"Si\": 1.0}, \"48\": {\"Si\": 1.0}, \"49\": {\"Si\": 1.0}, \"50\": {\"Si\": 1.0}, \"51\": {\"Si\": 1.0}, \"52\": {\"Si\": 1.0}, \"53\": {\"Si\": 1.0}}" energy=-470.50643374502 stress="-3.325449811879196e-05 0.0004611176881884443 0.00032598871272521943 0.0004611176881884443 -0.00034729023363200083 6.396832054997646e-05 0.00032598871272521943 6.396832054997646e-05 -0.0019230258468645692" free_energy=-470.50643374502 pbc="T T T"
Si       6.81704495       3.89057743       2.76561697       1.13698249       2.04978272      -1.47655531      -0.45731675      -0.32492549      -0.02931061      -8.67391592
Si       8.61869310       5.03545876       5.86267780       0.60200194       0.89803815      -0.63595226       2.06386469      -0.06735774       0.44116310      -8.67854410
Si      10.61155975       6.02410906       9.11417674      -0.31591557      -0.84772909      -0.53217098       0.73432528       0.67885000      -0.41110459      -8.72181408
Si       8.64476898       7.18712565       2.61739256      -0.01119107      -0.41203081      -0.27913908      -0.46950546       0.43391909       0.50564823      -8.72100439
Si      10.56095776       8.36370955       5.95548219       0.44373771      -1.63461029       0.11398478      -0.07775717       0.77595222      -0.90796135      -8.73722254
Si      12.37413845       9.44452744       9.00145992       0.24573614       1.21690136       1.79679011       1.05864150      -0.02656990       0.29399460      -8.71643040
Si      10.62475325      10.46827043       2.82370875      -2.29063727      -0.31653615      -0.17038764      -0.05288278      -0.01714629      -0.40523774      -8.77468917
Si      12.62120720      11.76303109       5.82120975      -0.37896756      -0.16115492       1.94588933      -1.02764920      -0.49348105       1.35704133      -8.68659960
Si      14.32859390      12.87198261       9.07412312      -0.29459824       1.14665172       0.69616512       0.35712132      -0.05523789       0.06763013      -8.73541579
Si      10.46224739       3.80535502       2.66488224       0.15905328      -0.26883412      -0.47705763       0.77749725       0.31746096       0.34910742      -8.74340347
Si      12.48078994       4.99101251       5.74368451       0.54056837       0.08249258      -1.08427698      -0.01865979      -0.09883784       0.35337197      -8.65887526
Si      14.44371834       6.10340239       8.95128594       0.07985204       0.25008646      -0.40414187       0.24096848      -0.73794939      -0.57862170      -8.68881700
Si      12.56072482       7.18216064       2.83297052      -0.36817079      -1.39625334       1.20499434      -0.39813034       0.42956652      -0.28598169      -8.67526789
Si      14.43947465       8.36843344       6.01177784      -0.32577521      -0.80951958       0.86446966      -0.39380720       0.16275815       0.01380557      -8.75201747
Si      16.36783570       9.46184039       9.03143769      -1.02009788      -0.00737746       0.09059541      -0.03980146       0.49032383       0.13758614      -8.69693549
Si      14.32351391      10.49237615       2.69990771       0.54960416      -0.17334096      -0.37223422       0.98059119      -0.27762745       0.57320764      -8.69143537
Si      16.28203904      11.67873153       5.86302019      -0.82193477       2.13839088       0.29813185      -0.45058736      -0.85065240       0.38767521      -8.75142326
Si      18.23989545      12.71620609       8.91487168       0.19781120      -0.72569537      -1.06886333      -0.29429510       0.58695963       0.17923246      -8.69542185
Si      14.56301614       3.88858345       2.67073378      -0.12499343      -0.73265974       0.01485496      -0.68867413      -0.31248893       0.60927005      -8.66691507
Si      16.46148796       5.05478596       5.88318534      -0.98848033       1.14126006      -0.37831339      -1.04115044      -0.71576939      -0.07460476      -8.74529955
Si      18.27995078       6.05447203       9.03933861       1.11933903      -0.53662604       0.92534359      -0.02449155       0.44630505      -0.07664315      -8.69792099
Si      16.36252561       7.24761096       2.88963747       0.78752978      -0.79892084       0.36176559       0.25076761       0.52670769      -0.41335938      -8.75360741
Si      18.37394706       8.32136435       5.92895443       0.12253926      -0.36923712       0.32478298      -0.48262405       0.06840484      -0.18696507      -8.66716644
Si      20.20751075       9.42643978       9.02333785       0.19725014       1.15728077       1.26428336       0.06679939       0.35028485       0.95586601      -8.74336422
Si      18.25349984      10.64959599       2.91468839      -0.10806279       1.30864711      -0.32734650       0.34046005      -0.14724162      -1.01169503      -8.69624213
Si      20.25814324      11.76979079       5.85074434       0.47093950       2.11422500       0.36636320      -0.00721505      -0.53611890       0.54211513      -8.74086276
Si      22.14930910      12.70606823       9.09442580      -1.10018035      -0.63646268      -0.23229768      -0.76284507       0.22580490      -0.06539171      -8.75929641
Si       0.83289052       0.55763192       0.49067984      -1.77704840      -0.58317425       1.29493365       0.76967342       0.30407874       0.51895072      -8.72505097
Si       3.02249850       1.60304502       3.54107455       1.25676698      -1.02485390       1.66282277      -1.01709887       1.23475141      -0.23114620      -8.70094666
Si       4.86361761       2.84908779       6.74246752      -0.54913958      -0.46851001       0.37575953       0.18230558      -0.32115675      -0.54778878      -8.67669948
Si       2.94285936       3.86125113       0.32913310      -0.49809097       0.82069383       0.06267561      -0.39919245      -0.10067303       0.15860646      -8.75376032
Si       4.88491980       5.05883929       3.57220334       0.94960598      -0.91447533      -0.25413093       0.12323891      -0.89918902      -0.50368612      -8.73843772
Si       6.78475051       6.01342634       6.64966374       0.37972548       0.98356059       0.01768111      -0.25104629       1.82030179       1.02549509      -8.71089446
Si       4.77647117       7.20187568       0.52272869       0.62533960       0.61701803       0.19904287      -0.33271749      -0.22247308      -0.31112815      -8.72597103
Si       6.76866317       8.41597244       3.53297153       0.12093381       0.97596542       0.51018204       0.22048148      -0.83488336       0.42436077      -8.71818143
Si       8.67365048       9.55774156       6.75331882       2.38083567       1.25967430       0.91505336       0.16427072      -0.21519334      -0.94466610      -8.73442210
Si       4.77688380       0.51529829       0.50898454       1.35363760      -1.77036194      -0.65164249       0.31406400      -0.43257080      -1.04515187      -8.69977244
Si       6.71269320       1.58258798       3.56715069      -0.46329005      -0.69875707      -0.54587069       0.30580315       1.18659772      -0.83751261      -8.71107896
Si       8.69023082       2.85052035       6.70530856       0.37795901       0.86032906      -0.63467931      -0.06718836       0.24013258       0.11280309      -8.72761150
Si       6.84189375       3.87373719       0.39046316      -0.16720106      -0.77135862      -1.29805878      -1.12587223       0.15585498       0.01018612      -8.72948768
Si       8.70773526       5.01841502       3.56746603       0.02435167      -0.09370893      -0.55444190      -0.40162480       0.09652331      -0.71037661      -8.74864653
Si      10.62920811       6.22633167       6.73921324       1.52796261       0.63144279      -1.39767222      -0.33952611      -1.71298163      -0.24477370      -8.65660980
Si       8.58139831       7.29793197       0.27756522      -0.96372777      -0.33322677       1.06132914       0.15680499      -0.92266418       0.06670445      -8.71447734
Si      10.48729872       8.29927221       3.50971626       0.27792982      -0.85025092      -0.31030541       1.06079792      -0.87550986       0.78527392      -8.67795123
Si      12.50200993       9.51424155       6.64822864      -0.50239444       0.42788150      -0.03723574      -0.25006424       0.10488773       0.18152901      -8.71063434
Si       8.60523477       0.47433033       0.35632200      -0.68317966      -0.27825368       0.17021201       0.14438303       0.50825038      -0.54966889      -8.72320597
Si      10.48206383       1.66276503       3.58817818      -0.82197339      -0.75271510      -0.90072246      -0.42664169      -0.20187934      -0.99291590      -8.71270891
Si      12.41303565       2.67115283       6.49978243       0.74222458       0.10526949      -0.17297165       1.22138927       1.57396041       0.97740135      -8.68242969
Si      10.55313518       3.88752153       0.34955987      -0.37010842      -0.47842218      -1.29546152       0.17361071      -0.11071035      -0.40914530      -8.77227905
Si      12.45137817       4.88457514       3.36486815      -0.85471033      -0.43518684      -0.61281212       0.56270556       0.16945758       0.47154840      -8.70207350
Si      14.48633243       6.13559781       6.48425731       0.18702181      -0.19091050      -0.34512369      -0.64980004      -0.81097003       1.41076899      -8.66359791
Si      12.56763605       7.27387694       0.42944461       0.10306200      -0.61440678      -0.15562950      -0.50546691      -0.80234879       0.13040476      -8.72998628
Si      14.48340934       8.33821238       3.75040618      -0.36196641       0.68540771      -0.47875161      -0.74877554       0.00771778      -1.68531908      -8.69137877
Si      16.34981191       9.43366472       6.66084306      -0.79846594      -0.78543821       0.54614051       0.93184238       0.22879570       0.41940796      -8.69823161
54
Lattice="11.5478352 0.0 0.0 5.773917198490155 10.000722372470358 0.0 5.773916394327279 3.333571176804646 9.428767828939895" Properties=species:S:1:pos:R:3:momenta:R:3:forces:R:3:energies:R:1 spacegroup="_JSON {\"number\": 1, \"setting\": 1}" unit_cell=conventional occupancy="_JSON {\"0\": {\"Si\": 1.0}, \"1\": {\"Si\": 1.0}, \"2\": {\"Si\": 1.0}, \"3\": {\"Si\": 1.0}, \"4\": {\"Si\": 1.0}, \"5\": {\"Si\": 1.0}, \"6\": {\"Si\": 1.0}, \"7\": {\"Si\": 1.0}, \"8\": {\"Si\": 1.0}, \"9\": {\"Si\": 1.0}, \"10\": {\"Si\": 1.0}, \"11\": {\"Si\": 1.0}, \"12\": {\"Si\": 1.0}, \"13\": {\"Si\": 1.0}, \"14\": {\"Si\": 1.0}, \"15\": {\"Si\": 1.0}, \"16\": {\"Si\": 1.0}, \"17\": {\"Si\": 1.0}, \"18\": {\"Si\": 1.0}, \"19\": {\"Si\": 1.0}, \"20\": {\"Si\": 1.0}, \"21\": {\"Si\": 1.0}, \"22\": {\"Si\": 1.0}, \"23\": {\"Si\": 1.0}, \"24\": {\"Si\": 1.0}, \"25\": {\"Si\": 1.0}, \"26\": {\"Si\": 1.0}, \"27\": {\"Si\": 1.0}, \"28\": {\"Si\": 1.0}, \"29\": {\"Si\": 1.0}, \"30\": {\"Si\": 1.0}, \"31\": {\"Si\": 1.0}, \"32\": {\"Si\": 1.0}, \"33\": {\"Si\": 1.0}, \"34\": {\"Si\": 1.0}, \"35\": {\"Si\": 1.0}, \"36\": {\"Si\": 1.0}, \"37\": {\"Si\": 1.0}, \"38\": {\"Si\": 1.0}, \"39\": {\"Si\": 1.0}, \"40\": {\"Si\": 1.0}, \"41\": {\"Si\": 1.0}, \"42\": {\"Si\": 1.0}, \"43\": {\"Si\": 1.0}, \"44\": {\"Si\": 1.0}, \"45\": {\"Si\": 1.0}, \"46\": {\"Si\": 1.0}, \"47\": {\"Si\": 1.0}, \"48\": {\"Si\": 1.0}, \"49\": {\"Si\": 1.0}, \"50\": {\"Si\": 1.0}, \"51\": {\"Si\": 1.0}, \"52\": {\"Si\": 1.0}, \"53\": {\"Si\": 1.0}}" energy=-470.75286912395325 stress="-0.0025232711038821677 0.0011609335673979386 0.0006458907040660345 0.0011609335673979386 0.0009782711248695055 -0.0013877930370225975 0.0006458907040660345 -0.0013877930370225975 0.0027637067739728904" free_energy=-470.75286912395325 pbc="T T T"
Si       6.85310408       3.96469322       2.68996357       0.16879414       0.46034566      -1.37674192      -0.72704244      -1.57829398       0.10862963      -8.67992079
Si       8.71491888       5.08237281       5.84573208       2.61927325       0.95405101      -0.05456064       0.34866835       0.14458208       0.25630533      -8.72810070
Si      10.61818134       6.00502772       9.07096224       0.41513341       0.04289141      -1.08633562       0.13981218       0.38549670      -0.30407605      -8.69812460
Si       8.62783656       7.18488078       2.62973806      -0.55445933       0.34820397       0.84839328      -0.16358267       0.52520559       0.88735708      -8.71362081
Si      10.58208580       8.32409564       5.92509694       0.39588361       0.20898621      -1.18618134       0.05612101       1.11610604      -0.57121679      -8.74158419
Si      12.42059557       9.49433613       9.08832789       1.28505104       0.45958152       1.20466032       0.12601108      -0.89659283      -0.92524727      -8.70741700
Si      10.52944255      10.44296079       2.79636337      -0.96264783      -0.74575257      -0.89160633       1.42122451      -0.36522845      -0.45942531      -8.75351873
Si      12.56702828      11.74023501       5.94557119      -1.50478571      -0.57084400       2.24495197      -0.32190974       0.03418747      -0.79229178      -8.72838107
Si      14.32482027      12.91819947       9.10846850       0.10089073       0.41531147       0.52557300       0.16274917      -0.83792592      -0.27889266      -8.65508416
Si      10.49150685       3.80047863       2.64602298       0.76387724       0.02616692      -0.39072704       0.03650391       0.09865160      -0.22190237      -8.73443238
Si      12.50906286       4.99010839       5.70399111       0.55578447      -0.13491697      -0.38102255       0.04937202      -0.17067086       0.54156701      -8.69398160
Si      14.45272542       6.08386096       8.90963569       0.13416253      -0.98405135      -1.06141738      -0.24949978      -0.70136223      -0.09786447      -8.72479200
Si      12.53111519       7.13427640       2.87376346      -0.64444271      -0.34918185       0.16498142       0.05999363       0.74066400      -1.02074344      -8.69541999
Si      14.40702567       8.33988004       6.04409556      -0.84673112      -0.18600100       0.13494517      -0.14948236       0.52966208      -0.88584769      -8.74341902
Si      16.31655253       9.47594926       9.04212377      -0.86719179       0.41832895       0.32102685       0.22757991       0.00209846       0.15168121      -8.71763655
Si      14.37463313      10.47503463       2.69909626       1.04586075      -0.40877999       0.19357441      -0.39668054       0.02420719       0.01403907      -8.77989288
Si      16.23781532      11.74231618       5.88316100      -0.51853505       0.12943443       0.28891071       0.83835173      -1.48293084      -0.29855383      -8.70571118
Si      18.24383478      12.69593407       8.87320966       0.07353784      -0.18385209      -0.38417657       0.17146856       0.06491617       0.70541728      -8.73493124
Si      14.53525409       3.84047224       2.69400945      -0.80726864      -1.02177249       0.79739509      -0.19661306       0.00482083       0.32068243      -8.64998256
Si      16.39343217       5.08088324       5.86559260      -1.13687207      -0.18576845      -0.22305143       0.75603452      -0.88056099       0.19947528      -8.73251469
Si      18.32744133       6.04384378       9.07884654       0.52549618       0.11637320       0.50014251      -0.67172685       0.39378892      -0.40074946      -8.70305630
Si      16.40642950       7.23031453       2.89452477       0.75281413       0.13105436      -0.12476928      -0.27349805       0.51032028      -0.21357787      -8.72796647
Si      18.37012118       8.32001238       5.94373348      -0.11854722       0.58805283       0.32457891       0.10722761       1.12882001       0.15383746      -8.68566634
Si      20.22408404       9.49229669       9.11203288       0.47784533       1.16072278       1.78136102       0.22347372      -0.40234986      -0.32872963      -8.78089640
Si      18.26160325      10.70390954       2.87216286       0.37862430       0.61281915      -0.97180337       0.19294994      -0.73273714       0.24194873      -8.68034469
Si      20.28282227      11.84495896       5.89033325       0.46031392       0.53426412       1.08218048      -0.05346061      -1.39755448       0.31720102      -8.74353832
Si      22.06786767      12.68815531       9.08226577      -1.82395198       0.06717437      -0.18874780      -0.06156638       0.66304041       0.10280475      -8.74347497
Si       0.77600737       0.54105590       0.56510280      -0.33877716      -0.04363097       1.22112523       0.99656888       0.33320119      -0.73418362      -8.71373891
Si       3.03256391       1.60570673       3.61177226      -1.01514179       1.13896497       0.90919504      -1.56002692       1.27248696      -0.73804749      -8.70054655
Si       4.84751453       2.82748999       6.74301568       0.00796441      -0.09953807      -0.25905275       0.46463773       0.68540420      -0.18590272      -8.70615192
Si       2.91221150       3.89419546       0.33939510      -0.46710478       0.34481540       0.35203055       0.39336495      -0.46025953       0.24715930      -8.75085698
Si       4.93122785       4.98533056       3.54024876       0.64175823      -1.65321946      -0.90457567      -0.55843785       0.00825749      -0.27239344      -8.75701958
Si       6.79412955       6.11492829       6.68487450       0.02209272       2.39706088       1.14298895      -0.09719201      -0.04816980       0.34545685      -8.76297919
Si       4.79440105       7.22371735       0.53050042       0.09443222       0.21751470       0.24972005      -0.19368813      -0.21555283       0.27828995      -8.75325678
Si       6.78274983       8.43528832       3.57157637       0.38333245      -0.16033947       0.86191845       0.09237069      -0.54043221       0.04149896      -8.70853321
Si       8.78878023       9.60820627       6.76676190       1.72564624       0.55282234      -0.26946209      -0.95532986      -0.65813281      -0.45804010      -8.63707218
Si       4.84833601       0.41983146       0.44122819       1.14159291      -1.57665052      -1.74316136      -0.58638935       0.71039626      -0.31831029      -8.72544444
Si       6.69900888       1.59454739       3.52084223      -0.08714410       1.10423960      -0.94560373       0.19510827       1.00525060       0.22314500      -8.61561761
Si       8.69616496       2.90747821       6.68856940      -0.34874285       1.29265103       0.17486563      -0.81221310       0.15727038       0.80223988      -8.74353885
Si       6.79316299       3.84690324       0.32604043      -1.50185228      -0.15687325      -1.11893984      -0.40228523       0.53615996       0.17044976      -8.73528776
Si       8.70139786       5.01990430       3.51617457      -0.11404265       0.17651203      -1.25132585       0.18070307       0.19519345      -0.13768195      -8.75852459
Si      10.69223099       6.18523233       6.66809902       0.84403407      -2.09712813      -1.15212556      -0.46302947      -1.31862352       0.39874428      -8.71380873
Si       8.54533941       7.26099579       0.32882795      -0.23938636      -0.73725867       0.81346968       0.82845061       0.38748591      -0.24091663      -8.73751911
Si      10.53526922       8.22783506       3.52253895       1.34159446      -1.65857046       0.71212738       0.24460554      -0.04574526       0.45341213      -8.71557671
Si      12.47054083       9.53229780       6.66417318      -0.60606574       0.10546311       0.80909603       0.10876232      -0.49432378       0.82301397      -8.71601259
Si       8.57595149       0.47956575       0.34290018      -0.44226264       0.45335974      -0.62648094       0.11184238       0.41737297      -0.34019951      -8.70114677
Si      10.43129109       1.62492234       3.51922166      -0.87818778      -0.51687529      -1.38319260       0.49075226       0.47837540       0.33911235      -8.74154306
Si      12.48198885       2.73403822       6.52148776       1.48216369       2.11581107       0.82537659      -0.30639005       0.89882946       0.31088837      -8.70600381
Si      10.54675051       3.86230700       0.27621476       0.20834747      -0.40282012      -1.30637691       0.48548303       0.19663966       0.34634014      -8.73971921
Si      12.43524712       4.86373936       3.35316163       0.33468226      -0.41417195       0.19392581       0.93715778      -0.04164546       0.57613425      -8.71446039
Si      14.46519391       6.09816062       6.51739766      -1.05461291      -1.09395334       1.45658970      -0.87066251      -0.26732965       0.81092860      -8.72846246
Si      12.54700506       7.21848272       0.43116291      -0.98077135      -1.29103565       0.27614474      -0.85141039      -0.01746091       0.34881301      -8.68676280
Si      14.44347986       8.36198630       3.67688804      -0.99318635      -0.00553592      -1.94034829      -0.09684394      -0.87435420      -0.21618005      -8.70963395
Si      16.34377197       9.41229228       6.69973014       0.47172821       0.10554481       0.81053788       0.57161192       0.77934583      -0.07559862      -8.69024134
54
Lattice="11.5478352 0.0 0.0 5.773917198490155 10.000722372470358 0.0 5.773916394327279 3.333571176804646 9.428767828939895" Properties=species:S:1:pos:R:3:momenta:R:3:forces:R:3:energies:R:1 spacegroup="_JSON {\"number\": 1, \"setting\": 1}" unit_cell=conventional occupancy="_JSON {\"0\": {\"Si\": 1.0}, \"1\": {\"Si\": 1.0}, \"2\": {\"Si\": 1.0}, \"3\": {\"Si\": 1.0}, \"4\": {\"Si\": 1.0}, \"5\": {\"Si\": 1.0}, \"6\": {\"Si\": 1.0}, \"7\": {\"Si\": 1.0}, \"8\": {\"Si\": 1.0}, \"9\": {\"Si\": 1.0}, \"10\": {\"Si\": 1.0}, \"11\": {\"Si\": 1.0}, \"12\": {\"Si\": 1.0}, \"13\": {\"Si\": 1.0}, \"14\": {\"Si\": 1.0}, \"15\": {\"Si\": 1.0}, \"16\": {\"Si\": 1.0}, \"17\": {\"Si\": 1.0}, \"18\": {\"Si\": 1.0}, \"19\": {\"Si\": 1.0}, \"20\": {\"Si\": 1.0}, \"21\": {\"Si\": 1.0}, \"22\": {\"Si\": 1.0}, \"23\": {\"Si\": 1.0}, \"24\": {\"Si\": 1.0}, \"25\": {\"Si\": 1.0}, \"26\": {\"Si\": 1.0}, \"27\": {\"Si\": 1.0}, \"28\": {\"Si\": 1.0}, \"29\": {\"Si\": 1.0}, \"30\": {\"Si\": 1.0}, \"31\": {\"Si\": 1.0}, \"32\": {\"Si\": 1.0}, \"33\": {\"Si\": 1.0}, \"34\": {\"Si\": 1.0}, \"35\": {\"Si\": 1.0}, \"36\": {\"Si\": 1.0}, \"37\": {\"Si\": 1.0}, \"38\": {\"Si\": 1.0}, \"39\": {\"Si\": 1.0}, \"40\": {\"Si\": 1.0}, \"41\": {\"Si\": 1.0}, \"42\": {\"Si\": 1.0}, \"43\": {\"Si\": 1.0}, \"44\": {\"Si\": 1.0}, \"45\": {\"Si\": 1.0}, \"46\": {\"Si\": 1.0}, \"47\": {\"Si\": 1.0}, \"48\": {\"Si\": 1.0}, \"49\": {\"Si\": 1.0}, \"50\": {\"Si\": 1.0}, \"51\": {\"Si\": 1.0}, \"52\": {\"Si\": 1.0}, \"53\": {\"Si\": 1.0}}" energy=-470.4430143742785 stress="-0.0028970453477192163 -0.0004427372384090291 -0.0007101850030880863 -0.0004427372384090291 0.0014903101987411896 -0.000677907800535134 -0.0007101850030880863 -0.000677907800535134 0.0010917017553777589" free_energy=-470.4430143742785 pbc="T T T"
Si       6.83821519       3.92851920       2.62432736      -0.61825671      -1.69599033      -1.07017062      -0.28373943      -1.02296021       0.32482598      -8.76180735
Si       8.83332283       5.13327635       5.84518986       1.30159374       0.83311454      -0.12060139      -1.97138188      -0.43636322      -0.33167702      -8.68000089
Si      10.63427357       6.01370327       9.00578568       0.01068289       0.13801949      -1.32357428      -0.58531661      -0.19015809      -0.00440080      -8.68875258
Si       8.60072975       7.22018475       2.70288146      -0.31465639       0.90832342       1.77215990       0.47926176       0.17628998       0.24274107      -8.72878609
Si      10.60731665       8.35772116       5.85856668       0.59475782       0.68406335      -0.98928615       0.16500326      -0.37583846       0.83602594      -8.68488498
Si      12.47604028       9.48256198       9.11241329       0.59859718      -0.82795138      -0.24018722      -0.75841020      -0.58177739      -0.74825247      -8.72501058
Si      10.52851779      10.39975566       2.73948502       0.74294716      -0.66326074      -1.11539580       0.74162772       0.54420386       0.15798931      -8.66075824
Si      12.49131693      11.71906284       6.01764597      -1.10509008      -0.14431866       0.32375923       0.75472575       0.39544486      -1.51969825      -8.67071095
Si      14.33354825      12.90522367       9.12228168       0.18149029      -0.89549074      -0.03709554      -0.03407041      -0.79074067      -0.43224917      -8.66911943
Si      10.52736855       3.80514306       2.61448067       0.55810126       0.16459507      -0.80553548      -0.14648689       0.14719401      -0.19926451      -8.73285671
Si      12.53982280       4.97790120       5.70311095       0.59633435      -0.27801550       0.27545602      -0.03312109       0.03419968       0.26392130      -8.73097223
Si      14.44473214       6.01820308       8.86679890      -0.49376569      -1.22152366      -0.24687914      -0.47192054       0.46054925       1.15159313      -8.71897288
Si      12.50636181       7.13477967       2.84111605      -0.19899021       0.12797929      -1.37667057       0.44122565      -0.17588649      -0.88963475      -8.73633463
Si      14.36610883       8.34678438       6.01558202      -0.54755953       0.33944669      -1.17681330       0.49426679       0.11287146      -0.72463857      -8.68138867
Si      16.28215975       9.48985249       9.06261867      -0.41972370      -0.02467092       0.39923306       0.32356973      -0.53323787      -0.08895584      -8.75178534
Si      14.39882614      10.45998532       2.70011434      -0.30864642      -0.07097381      -0.27145461      -1.11718548       0.39664877      -0.43156835      -8.75547100
Si      16.24600316      11.70519248       5.88711370       0.77022420      -1.18058712      -0.08081940       0.64447403      -0.07703578      -0.09608253      -8.66317958
Si      18.25864111      12.68207548       8.88211998       0.51892201      -0.43458192       0.71154184       0.27035123      -0.28398611       0.66906230      -8.71807896
Si      14.49324408       3.79679737       2.73829582      -0.64473211      -0.43609070       0.68856480       0.39541309       0.81148288      -0.46850970      -8.71586759
Si      16.37169256       5.04642375       5.86143801       0.34400375      -0.88845105       0.05129495       0.93516480       0.05261731       0.14727700      -8.70005450
Si      18.32920769       6.06263952       9.09027291      -0.38451268       0.54575272      -0.02700939      -0.39046486       0.18092199      -0.26257226      -8.74109332
Si      16.43094450       7.24777142       2.88390432       0.12981626       0.34749685      -0.19451414      -0.48009780      -0.21443854       0.12335514      -8.70804080
Si      18.37194670       8.39629371       5.96886799       0.23243034       2.23665626       0.66391313       0.28023821       0.80694938       0.27241160      -8.73795821
Si      20.25187063       9.52794308       9.17953475       0.42970044       0.06003289       0.62362319      -0.34921232      -0.94751593      -1.00444910      -8.73681527
Si      18.28153728      10.70464725       2.84486312       0.23530731      -0.61359479       0.08994697      -0.37523201      -0.85953496       0.84902982      -8.68882180
Si      20.30096822      11.82197206       5.95176349       0.15269167      -1.24303203       1.10780834      -0.35354167      -0.75112258      -0.28231147      -8.74280312
Si      21.98538252      12.71636238       9.07707922      -1.03145220       0.94480935      -0.00516955       1.07460977       0.43122727       0.12231292      -8.69174881
Si       0.79208286       0.54864206       0.58566933       0.83786128       0.27471555      -0.61365077       0.55956357       0.10966776      -1.41539602      -8.68161920
Si       2.93874353       1.69129305       3.62880287      -2.12771193       1.60558109      -0.21438473       0.10428309      -0.73130058      -0.55509948      -8.74716387
Si       4.86161134       2.85114468       6.73019593       0.39541939       0.95541977      -0.09564104      -0.04939168       0.50463171       0.33830125      -8.75273908
Si       2.90766366       3.89418920       0.36733012       0.32940031      -0.33042620       0.68874532       0.54060352      -0.41026133       0.14891850      -8.71407830
Si       4.93682771       4.91258945       3.49007616      -0.49150032      -0.90484694      -0.86148483      -0.80170848       0.85566184       0.29901543      -8.70543607
Si       6.79664962       6.21860216       6.74519196       0.15748532       1.30157155       0.91116869       0.23093554      -1.05996792      -0.62887608      -8.67671117
Si       4.80105047       7.23187410       0.55347134       0.32057478       0.20162780       0.55046354       0.41734274       0.19583690      -0.01397370      -8.75737123
Si       6.80198318       8.41583104       3.61486761       0.24793148      -0.38777267       0.75828341      -0.31039559       0.21346387      -0.07559234      -8.72447792
Si       8.83461429       9.61018088       6.74586481      -0.04951509      -0.49174201      -0.33648094      -1.23946417      -0.72551764       0.29517020      -8.64537073
Si       4.87741131       0.37627804       0.35054479      -0.12153296       0.06730094      -1.49255538      -0.93163803       1.30891401       0.54921953      -8.71297404
Si       6.70024871       1.67603315       3.48735804       0.09613030       1.65538664      -0.22870804       0.04288228      -0.35804409       0.64349698      -8.58307617
Si       8.64953944       2.96915646       6.72410747      -1.28625630       0.80723506       1.01052143      -0.28249015      -0.81069369       0.15337600      -8.72483890
Si       6.71794202       3.85666339       0.27481445      -1.03534059       0.42731384      -0.81718188       0.87829700       0.13251011       0.24126852      -8.71072691
Si       8.70392822       5.03293614       3.45440620       0.18046360       0.22166116      -0.96290474       0.07198265      -0.18651433       0.41612985      -8.72340537
Si      10.72417009       6.05889277       6.62523951       0.52134774      -2.05224825      -0.44904528       0.08602554       1.25846331       0.52655186      -8.70437405
Si       8.56778255       7.24825935       0.36619748       1.04431157       0.35934531       0.70958575       0.62505866       0.81014423       0.12835462      -8.73184756
Si      10.60001723       8.15536177       3.56656665       0.87539980      -0.82498150       0.74606265      -0.72446536       1.04903338      -0.40823124      -8.72817325
Si      12.44708402       9.51764558       6.73496588      -0.22210537      -0.61697839       1.73359766       0.37344655      -0.31675346       0.20578211      -8.76137710
Si       8.55410700       0.51446428       0.30807058      -0.44945270       0.75742344      -0.47275234      -0.11111871      -0.05703728       0.55219311      -8.72016360
Si      10.41694415       1.61977608       3.47133605       0.48018666       0.31664657      -0.30476093       1.06118783       0.46253952       0.89081741      -8.73026925
Si      12.53525019       2.85727265       6.56903538       0.42165752       2.09142634       0.88794520      -0.83364130      -1.03199886      -0.07804958      -8.67307769
Si      10.57109589       3.85020571       0.22647433       0.56116703      -0.05715952      -0.52862910      -0.12631155       0.20815479       0.60133004      -8.70580153
Si      12.48481602       4.84405344       3.38263036       1.40185879      -0.24124631       0.83646627       0.33972740       0.32523860       0.21263809      -8.70758678
Si      14.38788879       6.04204896       6.60452184      -1.58136808      -0.83509580       1.43556434       0.33354433       0.56512450      -0.84573621      -8.75280316
Si      12.46979093       7.16019506       0.45519950      -1.73886234      -0.78833617       0.52294173       0.01609010       0.55148664      -0.11277505      -8.68607391
Si      14.39549687       8.32609556       3.58284787      -0.70618261      -1.29321706      -1.41883119       0.41785799      -0.60667828       0.68278790      -8.72184125
Si      16.37821765       9.44546426       6.73329297       0.60841773       1.06963921       0.37954035      -0.33795435       0.43389189      -0.42790240      -8.73756176
54
Lattice="11.5478352 0.0 0.0 5.773917198490155 10.000722372470358 0.0 5.773916394327279 3.333571176804646 9.428767828939895" Properties=species:S:1:pos:R:3:momenta:R:3:forces:R:3:energies:R:1 spacegroup="_JSON {\"number\": 1, \"setting\": 1}" unit_cell=conventional occupancy="_JSON {\"0\": {\"Si\": 1.0}, \"1\": {\"Si\": 1.0}, \"2\": {\"Si\": 1.0}, \"3\": {\"Si\": 1.0}, \"4\": {\"Si\": 1.0}, \"5\": {\"Si\": 1.0}, \"6\": {\"Si\": 1.0}, \"7\": {\"Si\": 1.0}, \"8\": {\"Si\": 1.0}, \"9\": {\"Si\": 1.0}, \"10\": {\"Si\": 1.0}, \"11\": {\"Si\": 1.0}, \"12\": {\"Si\": 1.0}, \"13\": {\"Si\": 1.0}, \"14\": {\"Si\": 1.0}, \"15\": {\"Si\": 1.0}, \"16\": {\"Si\": 1.0}, \"17\": {\"Si\": 1.0}, \"18\": {\"Si\": 1.0}, \"19\": {\"Si\": 1.0}, \"20\": {\"Si\": 1.0}, \"21\": {\"Si\": 1.0}, \"22\": {\"Si\": 1.0}, \"23\": {\"Si\": 1.0}, \"24\": {\"Si\": 1.0}, \"25\": {\"Si\": 1.0}, \"26\": {\"Si\": 1.0}, \"27\": {\"Si\": 1.0}, \"28\": {\"Si\": 1.0}, \"29\": {\"Si\": 1.0}, \"30\": {\"Si\": 1.0}, \"31\": {\"Si\": 1.0}, \"32\": {\"Si\": 1.0}, \"33\": {\"Si\": 1.0}, \"34\": {\"Si\": 1.0}, \"35\": {\"Si\": 1.0}, \"36\": {\"Si\": 1.0}, \"37\": {\"Si\": 1.0}, \"38\": {\"Si\": 1.0}, \"39\": {\"Si\": 1.0}, \"40\": {\"Si\": 1.0}, \"41\": {\"Si\": 1.0}, \"42\": {\"Si\": 1.0}, \"43\": {\"Si\": 1.0}, \"44\": {\"Si\": 1.0}, \"45\": {\"Si\": 1.0}, \"46\": {\"Si\": 1.0}, \"47\": {\"Si\": 1.0}, \"48\": {\"Si\": 1.0}, \"49\": {\"Si\": 1.0}, \"50\": {\"Si\": 1.0}, \"51\": {\"Si\": 1.0}, \"52\": {\"Si\": 1.0}, \"53\": {\"Si\": 1.0}}" energy=-470.24820660056395 stress="0.0005950193023729925 -0.0003536401716561472 -0.0006652822710508417 -0.0003536401716561472 -0.0004896113274666177 0.0019907748287098623 -0.0006652822710508417 0.0019907748287098623 -0.002685149359119502" free_energy=-470.24820660056395 pbc="T T T"
Si       6.79982586       3.82355223       2.58374611      -0.78272432      -1.82745950      -0.43801430      -0.03118907       0.82583840       0.48975252      -8.75290904
Si       8.81712027       5.15279881       5.82556022      -1.83568130      -0.16062042      -0.55658691      -1.68143433      -0.73555154      -0.06959416      -8.68539728
Si      10.61272465       6.01320201       8.94238723      -0.74930171      -0.10802824      -0.97223242      -0.27571321      -0.00701404       0.46843282      -8.71185325
Si       8.60698257       7.26763983       2.79310997       0.56583102       0.77619020       1.46755073       0.52416752      -0.31224941      -0.54183921      -8.74211839
Si      10.64233313       8.37048913       5.85066629       0.67141031      -0.28980901       0.79874317      -0.10437811      -0.76098580       1.26850031      -8.63021466
Si      12.48420051       9.43329587       9.08714621      -0.10938328      -0.72317947      -0.38108482      -0.09194435       0.67874515       0.56385795      -8.72932956
Si      10.58414195      10.39560351       2.69321719       1.15237934       0.63246123      -0.55664882      -0.15441145       1.05429944       0.52991942      -8.56333195
Si      12.46649108      11.72390435       5.98197907       0.14298207       0.24996612      -1.48149792       0.70840183       0.09311775      -0.73799125      -8.67698524
Si      14.34097000      12.83673213       9.10467615       0.10513291      -1.50468281      -0.59943315      -0.01982940       0.03472435      -0.30222375      -8.75614425
Si      10.55541881       3.82152432       2.57275839       0.60485074       0.48669816      -0.59847882       0.20727817       0.24719656       0.53200241      -8.72871677
Si      12.56651002       4.96780652       5.72219111       0.35986836      -0.09159402       0.38172598      -0.26895933       0.08251757       0.00768660      -8.73036178
Si      14.40420912       5.98682332       8.90068385      -0.96239709       0.23882058       1.42178589      -0.12318671       1.28656673       0.71709344      -8.69808037
Si      12.50955931       7.12612328       2.74869484       0.20874175      -0.54373777      -1.81432907       0.02263674      -0.51505463       0.40112648      -8.75545747
Si      14.35937452       8.36290187       5.93593057       0.30297321       0.18368847      -1.64930511       0.55505677      -0.24611590       0.09787313      -8.63378362
Si      16.27072313       9.46726374       9.07542197      -0.07507723      -0.79317670       0.00905501       0.09812620      -0.36401371      -0.39946551      -8.75834889
Si      14.34937596      10.47294854       2.67689802      -1.30951830       0.55145129      -0.40723807      -0.09418180       0.34084679       0.36507976      -8.71761156
Si      16.30052030      11.66291306       5.88357354       1.10304256      -0.05585476       0.01495634      -0.16559808       1.39151080       0.17927622      -8.63695012
Si      18.28713025      12.65224097       8.93965298       0.35344016      -0.58372424       1.36068620      -0.55176030       0.17670891       0.19418914      -8.70193589
Si      14.47980628       3.80960901       2.75051174       0.18357381       0.87900252      -0.25190984       0.58959223       0.62578522      -0.58124815      -8.77042223
Si      16.41619951       5.01698651       5.86724648       1.14928247       0.01699023       0.11060312       0.14451600       1.02644392      -0.07903314      -8.66611294
Si      18.30457815       6.09506160       9.08124717      -0.35194241       0.63487267      -0.28575508       0.39162813      -0.03583826      -0.14538807      -8.76454312
Si      16.42189329       7.25167704       2.88178883      -0.39301514      -0.26909874       0.14949229      -0.16474986      -0.49506186       0.25560134      -8.72512736
Si      18.39010388       8.52478921       6.01165885       0.30182632       2.24452321       0.88173239      -0.34858875      -0.82577246      -0.06612644      -8.75927189
Si      20.25664594       9.49677340       9.17674547      -0.26184901      -1.14781530      -0.60823128      -0.41533296      -0.56472615      -0.54245642      -8.69031992
Si      18.27556596      10.64226546       2.86946108      -0.48804479      -1.66750463       0.52663233      -0.47495383      -0.47041881      -0.37642970      -8.75526713
Si      20.29438483      11.74616937       5.99207548      -0.39198892      -1.32146160       0.33079228      -0.31530360       0.50267835      -0.66898327      -8.70967405
Si      21.98034622      12.77684730       9.08144344       0.89602260       1.26575638       0.17826788       1.30476319       0.05349526       0.15150894      -8.67967486
Si       0.85061085       0.56534541       0.51116093       1.26319068       0.33021695      -1.90798004       0.04841261      -0.01782306      -0.19877709      -8.69795332
Si       2.84922740       1.72780565       3.60732795      -1.00909298      -0.42494945      -0.41914104       1.20886739      -1.56758625       0.14700600      -8.66252411
Si       4.87253719       2.90546241       6.73945418      -0.08538518       0.79573594       0.42474683      -0.46759377      -0.72242114       0.24277638      -8.77042031
Si       2.94009052       3.86402397       0.40376009       0.76841656      -0.74826531       0.57945924       0.00418610      -0.12828645      -0.32340394      -8.71108024
Si       4.88871865       4.89989970       3.46102816      -1.11595596       0.39495813      -0.18305894       0.07591647       0.77043916       0.55833690      -8.68466949
Si       6.81422561       6.25073697       6.75961437       0.49061308       0.08342827      -0.47358967       0.14229794      -0.45853437      -1.06852664      -8.65738062
Si       4.83207234       7.25157403       0.57202326       0.75701853       0.53846541      -0.02469751       0.02214333       0.16043962      -0.71341247      -8.73991596
Si       6.79782001       8.40866299       3.65481939      -0.47249584       0.13744284       0.83401643      -0.56231622       0.29740509       0.18225515      -8.73451400
Si       8.79392572       9.55851747       6.74479850      -1.22289320      -1.39305437       0.36653451      -0.14722696      -0.37918780       0.58129896      -8.73974626
Si       4.84228895       0.42479740       0.29793158      -1.03172114       1.59576854      -0.47506423      -0.22577301       0.58842493       0.72011433      -8.72918185
Si       6.70449636       1.72921112       3.50102702       0.02009484       0.05253833       0.73411177      -0.13623638      -1.59540379       0.57499071      -8.66470221
Si       8.58289996       2.97330307       6.76842673      -1.04671403      -0.70826940       0.40643038       0.54181411      -1.05625702      -0.91871442      -8.65395280
Si       6.70034370       3.87266526       0.24331826       0.30612539      -0.03956484      -0.34235078       0.66854702      -0.71613618       0.40741970      -8.71884395
Si       8.70947300       5.03207032       3.42107485      -0.09372852      -0.33106123      -0.32408184      -0.41222508      -0.48641414       0.36326730      -8.68546202
Si      10.75366525       6.01511181       6.61845121       0.44769154       0.49292393       0.04654723      -0.50303663       1.72896832      -0.02846311      -8.67026577
Si       8.63106146       7.28734414       0.41103806       1.07842650       0.84883353       1.03377963      -0.48919745      -0.27995883       0.26776047      -8.71354763
Si      10.61898084       8.15729073       3.58238882      -0.02631757       0.92349737      -0.21457294      -0.25361385       1.17128275      -0.68441256      -8.74023253
Si      12.45150075       9.48248900       6.81349834       0.41614309      -0.53951647       0.85229536       0.48245991       0.39877441      -1.37246482      -8.76226359
Si       8.52708060       0.54360938       0.31235783      -0.52305846       0.21319425       0.71699665       0.11800519      -0.59478936       0.86602786      -8.75148059
Si      10.47254219       1.64557598       3.48501822       1.37147394       0.50496566       0.68543495       0.03929874      -0.15249888       0.35286503      -8.74202526
Si      12.53004199       2.90418676       6.61414285      -0.49874561      -0.59895006       0.86980088      -0.36553494      -2.18108775       0.05001956      -8.63745631
Si      10.58532680       3.85271018       0.22112725      -0.17888059       0.09137246       0.29048783      -0.74926375      -0.03452173       0.47226251      -8.70451191
Si      12.55644187       4.84889731       3.42624049       1.05282096       0.49254602       0.66548738      -0.73415108       0.58243357      -0.41585727      -8.67584047
Si      14.33722310       6.02723233       6.63700480      -0.03084221       0.36608652      -0.22268621       1.58762799       0.94436960      -0.97488610      -8.68562529
Si      12.39620711       7.13991370       0.46773784      -0.78616636      -0.03797538      -0.25134284       1.11352934       0.34644444      -0.91807397      -8.69500342
Si      14.37669331       8.25080906       3.53449411      -0.01582498      -1.26049081      -0.49404583       0.40102630       0.62113755       0.42732646      -8.75001858
Si      16.39042641       9.50873727       6.73699404      -0.22462664       1.14744932      -0.20479520      -0.67261493      -0.32688533      -0.30785634      -8.73964450
54
Lattice="11.5478352 0.0 0.0 5.773917198490155 10.000722372470358 0.0 5.773916394327279 3.333571176804646 9.428767828939895" Properties=species:S:1:pos:R:3:momenta:R:3:forces:R:3:energies:R:1 spacegroup="_JSON {\"number\": 1, \"setting\": 1}" unit_cell=conventional occupancy="_JSON {\"0\": {\"Si\": 1.0}, \"1\": {\"Si\": 1.0}, \"2\": {\"Si\": 1.0}, \"3\": {\"Si\": 1.0}, \"4\": {\"Si\": 1.0}, \"5\": {\"Si\": 1.0}, \"6\": {\"Si\": 1.0}, \"7\": {\"Si\": 1.0}, \"8\": {\"Si\": 1.0}, \"9\": {\"Si\": 1.0}, \"10\": {\"Si\": 1.0}, \"11\": {\"Si\": 1.0}, \"12\": {\"Si\": 1.0}, \"13\": {\"Si\": 1.0}, \"14\": {\"Si\": 1.0}, \"15\": {\"Si\": 1.0}, \"16\": {\"Si\": 1.0}, \"17\": {\"Si\": 1.0}, \"18\": {\"Si\": 1.0}, \"19\": {\"Si\": 1.0}, \"20\": {\"Si\": 1.0}, \"21\": {\"Si\": 1.0}, \"22\": {\"Si\": 1.0}, \"23\": {\"Si\": 1.0}, \"24\": {\"Si\": 1.0}, \"25\": {\"Si\": 1.0}, \"26\": {\"Si\": 1.0}, \"27\": {\"Si\": 1.0}, \"28\": {\"Si\": 1.0}, \"29\": {\"Si\": 1.0}, \"30\": {\"Si\": 1.0}, \"31\": {\"Si\": 1.0}, \"32\": {\"Si\": 1.0}, \"33\": {\"Si\": 1.0}, \"34\": {\"Si\": 1.0}, \"35\": {\"Si\": 1.0}, \"36\": {\"Si\": 1.0}, \"37\": {\"Si\": 1.0}, \"38\": {\"Si\": 1.0}, \"39\": {\"Si\": 1.0}, \"40\": {\"Si\": 1.0}, \"41\": {\"Si\": 1.0}, \"42\": {\"Si\": 1.0}, \"43\": {\"Si\": 1.0}, \"44\": {\"Si\": 1.0}, \"45\": {\"Si\": 1.0}, \"46\": {\"Si\": 1.0}, \"47\": {\"Si\": 1.0}, \"48\": {\"Si\": 1.0}, \"49\": {\"Si\": 1.0}, \"50\": {\"Si\": 1.0}, \"51\": {\"Si\": 1.0}, \"52\": {\"Si\": 1.0}, \"53\": {\"Si\": 1.0}}" energy=-471.0813886048686 stress="0.0018037178776738117 -0.0004525224464725865 -0.0005111285087171591 -0.0004525224464725865 -0.0002674924918224426 0.0016813760201640031 -0.0005111285087171591 0.0016813760201640031 -0.0027141312447833254" free_energy=-471.0813886048686 pbc="T T T"
Si       6.75769094       3.77147707       2.58193690      -0.82471903      -0.09055298       0.42547514      -0.02875399       1.11828138       0.70789775      -8.69683689
Si       8.68352811       5.11837452       5.80127552      -2.70937620      -1.10577441      -0.27265381       0.45731411      -0.56113874       0.30275553      -8.71715667
Si      10.57267260       6.01418915       8.91207876      -0.59307429       0.27025409      -0.19359203       0.44647824       0.47459790       0.42982471      -8.73021554
Si       8.64703544       7.29321917       2.84676928       0.75208318       0.16829766       0.59783465      -0.27097216      -0.43901847      -0.47246211      -8.75455462
Si      10.66852154       8.33181123       5.92782596       0.24547718      -0.97471605       1.79275491      -0.41710625       0.08607753      -0.08551150      -8.71604528
Si      12.48378522       9.42786579       9.09541491       0.23437990       0.52656060       0.67641672       0.46628112       0.73602182       0.50250770      -8.72050316
Si      10.62865061      10.46599427       2.68568976       0.37517648       1.92223223       0.26084323      -0.82404555       0.55252454       0.49362577      -8.65343611
Si      12.49080461      11.73507551       5.89394648       0.55565751       0.06569949      -1.51921251      -0.18014778      -0.33974275       0.65395643      -8.71694537
Si      14.34812656      12.77046110       9.06427342       0.21912067      -0.86207199      -0.88933819       0.18015750       0.65192706      -0.09711358      -8.77732850
Si      10.59583759       3.85422526       2.57091109       0.90567024       0.69341813       0.65169366       0.08435489      -0.01233644       1.01197974      -8.72377887
Si      12.57469524       4.96076092       5.74791238      -0.02124903      -0.26439101       0.73082237      -0.16849528      -0.23888096       0.49801514      -8.76558088
Si      14.35707397       6.04058691       8.98308410      -0.64880513       1.51146087       1.35189425       0.60983740       0.13665834      -0.72038689      -8.72784108
Si      12.51574913       7.08623412       2.68311440      -0.05193673      -0.74504948      -0.54039965      -0.29366730       0.39436867       0.96780539      -8.74634889
Si      14.39317685       8.36351496       5.86235958       0.90694448      -0.11673742      -1.02793578       0.24722958      -0.07888161       0.59863300      -8.68565733
Si      16.26718856       9.42100185       9.06035417      -0.10844063      -0.78255350      -0.55374641      -0.09139484       0.35921515      -0.28697095      -8.74970489
Si      14.29307737      10.50842275       2.68139411      -0.55761212       0.65919298       0.75870568       1.01172691      -0.20652372       1.06412322      -8.67219378
Si      16.34276088      11.71380357       5.89211484       0.33802616       1.83297726       0.30313978      -0.84002721       0.76413012       0.14053065      -8.71639403
Si      18.27669306      12.63724265       9.01158310      -0.82812181       0.16752125       1.26102487      -0.85463460       0.78448821      -0.27818931      -8.71794277
Si      14.50540770       3.86201955       2.72472734       0.61905305       0.78216697      -0.51636963      -0.07093495      -0.67014471       0.24422148      -8.77918322
Si      16.47304202       5.05579710       5.86893582       0.87092396       1.31195169      -0.03654888      -0.43923689       0.45291910      -0.04610632      -8.70814705
Si      18.30441210       6.12570932       9.05890074       0.33313153       0.52148476      -0.61005482       0.34959672      -0.08909246      -0.31089734      -8.74132079
Si      16.40074293       7.22274566       2.89451920      -0.31451541      -0.70159902       0.19796741       0.21871272       0.02254918      -0.27995320      -8.75520899
Si      18.37915522       8.59360541       6.04775183      -0.91344769       0.15915210       0.37809910      -1.06898455      -1.68710024      -0.50419577      -8.69678506
Si      20.23344260       9.42493185       9.13395999      -0.47965975      -1.39083554      -0.82898275       0.14423027       0.22190032       0.22238359      -8.68078163
Si      18.23784111      10.54856244       2.86891419      -0.80017148      -1.65834565      -0.73229520       0.10718160       0.48513024      -1.10844053      -8.75283573
Si      20.26520137      11.69910593       5.98526756      -0.64216423      -0.52333498      -0.51657386      -0.00497613       0.32760336      -0.39065981      -8.71574852
Si      22.06696745      12.84150758       9.09763020       2.13103755       1.12216369       0.44350695       0.23153783      -0.26045752       0.15879135      -8.73178146
Si       0.91495822       0.58147499       0.41992730       1.15990139       0.29179397      -1.30990630      -0.06939892       0.01246380       0.83285774      -8.71127168
Si       2.84538077       1.65759328       3.59012024       0.81571464      -1.94129278      -0.29905125       1.02856455      -0.37811563      -0.07397834      -8.66691002
Si       4.85230155       2.91262122       6.76278647      -0.60980880      -0.52938596       0.28414347      -0.17778097      -0.76814572      -0.45025141      -8.74818328
Si       2.97301129       3.82510357       0.41639366       0.36309272      -0.63392393      -0.15939256      -0.48399789       0.27194877      -0.55998145      -8.73747130
Si       4.84626759       4.94335203       3.47345934      -0.30290737       1.10111225       0.64533591       0.85189382       0.13637040       0.51235798      -8.70840971
Si       6.83916855       6.24785939       6.70027027       0.31298555      -0.00354608      -1.58367773      -0.43259453       0.28613281      -0.27473326      -8.70781540
Si       4.86328456       7.28146694       0.54207638       0.27263246       0.51179451      -1.06331746      -0.60677464      -0.18831820      -0.51618681      -8.70766610
Si       6.75558746       8.41714177       3.70526319      -1.02098766      -0.04520308       1.04016933      -0.11786960      -0.58479285      -0.01581733      -8.73362548
Si       8.74420931       9.48244015       6.78443364      -0.35828974      -1.28852418       1.04429516       1.04693388       0.45698070       0.17180169      -8.74628070
Si       4.78810236       0.51509167       0.29929651      -0.90955585       1.54658598       0.48256793       0.26914183      -0.58150144       0.54640097      -8.71976763
Si       6.69927563       1.67547678       3.55290043      -0.22430409      -1.82931104       1.01658685      -0.15605698      -0.55864123      -0.30436875      -8.78139256
Si       8.55587249       2.90247986       6.74761500       0.11588757      -1.80525235      -1.23859309       0.93609249      -0.32838625      -1.07051777      -8.67438519
Si       6.72736980       3.84358711       0.24343614       0.39575991      -0.92351955       0.38766279      -0.61555752      -0.15677900       0.57229641      -8.74511152
Si       8.68672100       4.99765584       3.41479707      -0.76711488      -0.91151849       0.02486072      -0.38814800      -0.21804657       0.13601472      -8.68898808
Si      10.74403230       6.09132856       6.60991815      -0.99066264       1.98129545      -0.49441052      -1.19314869       0.02274383      -0.49740487      -8.72493548
Si       8.66349691       7.30646193       0.47392785       0.12544430      -0.32111944       1.30377950      -0.63775970      -1.05910550       0.02445130      -8.69626236
Si      10.62032473       8.24500862       3.55341658       0.27952480       2.26160748      -0.67940935       0.52264049       0.54026856       0.11988190      -8.73922989
Si      12.49246771       9.47467921       6.79840717       1.14007240       0.28728557      -1.37473481       0.45381855       0.57857566      -1.18589024      -8.73384793
Si       8.51167854       0.53401619       0.37459125       0.07259230      -0.46549062       1.42585152       0.64775904      -0.16974417      -0.01311425      -8.76974910
Si      10.53319609       1.66461494       3.52524811       0.75394380       0.23573472       0.68600937      -0.70003465      -0.10996317      -0.28280145      -8.70371583
Si      12.49804366       2.80290972       6.66041714      -0.54524647      -2.83125198       0.86967967       0.33279926      -0.52737361      -0.02974382      -8.71821685
Si      10.54948313       3.85225522       0.25151197      -1.06204700      -0.17000120       0.81229401      -0.26333711      -0.26532526       0.26128449      -8.74340376
Si      12.57843511       4.89300693       3.44137397      -0.21526212       1.05058122      -0.09343765      -0.74912476       0.04207939      -0.42651408      -8.72580863
Si      14.39706748       6.07892352       6.60186202       2.17546911       1.46425057      -0.84093525       1.06400309       0.40066312       0.09966920      -8.70897901
Si      12.40017005       7.14286623       0.41626880       0.89320384      -0.03117179      -1.65629362       0.95684216      -0.35686138      -0.70374471      -8.72791151
Si      14.38582783       8.21788550       3.51758548       0.25078467       0.10177061      -0.28981023      -0.03144594       1.01281272      -0.11151745      -8.73579504
Si      16.35404251       9.55037901       6.71678163      -1.11421121       0.39812836      -0.53274162      -0.48872063      -0.49501507      -0.17661455      -8.72599745
54
Lattice="11.5478352 0.0 0.0 5.773917198490155 10.000722372470358 0.0 5.773916394327279 3.333571176804646 9.428767828939895" Properties=species:S:1:pos:R:3:momenta:R:3:forces:R:3:energies:R:1 spacegroup="_JSON {\"number\": 1, \"setting\": 1}" unit_cell=conventional occupancy="_JSON {\"0\": {\"Si\": 1.0}, \"1\": {\"Si\": 1.0}, \"2\": {\"Si\": 1.0}, \"3\": {\"Si\": 1.0}, \"4\": {\"Si\": 1.0}, \"5\": {\"Si\": 1.0}, \"6\": {\"Si\": 1.0}, \"7\": {\"Si\": 1.0}, \"8\": {\"Si\": 1.0}, \"9\": {\"Si\": 1.0}, \"10\": {\"Si\": 1.0}, \"11\": {\"Si\": 1.0}, \"12\": {\"Si\": 1.0}, \"13\": {\"Si\": 1.0}, \"14\": {\"Si\": 1.0}, \"15\": {\"Si\": 1.0}, \"16\": {\"Si\": 1.0}, \"17\": {\"Si\": 1.0}, \"18\": {\"Si\": 1.0}, \"19\": {\"Si\": 1.0}, \"20\": {\"Si\": 1.0}, \"21\": {\"Si\": 1.0}, \"22\": {\"Si\": 1.0}, \"23\": {\"Si\": 1.0}, \"24\": {\"Si\": 1.0}, \"25\": {\"Si\": 1.0}, \"26\": {\"Si\": 1.0}, \"27\": {\"Si\": 1.0}, \"28\": {\"Si\": 1.0}, \"29\": {\"Si\": 1.0}, \"30\": {\"Si\": 1.0}, \"31\": {\"Si\": 1.0}, \"32\": {\"Si\": 1.0}, \"33\": {\"Si\": 1.0}, \"34\": {\"Si\": 1.0}, \"35\": {\"Si\": 1.0}, \"36\": {\"Si\": 1.0}, \"37\": {\"Si\": 1.0}, \"38\": {\"Si\": 1.0}, \"39\": {\"Si\": 1.0}, \"40\": {\"Si\": 1.0}, \"41\": {\"Si\": 1.0}, \"42\": {\"Si\": 1.0}, \"43\": {\"Si\": 1.0}, \"44\": {\"Si\": 1.0}, \"45\": {\"Si\": 1.0}, \"46\": {\"Si\": 1.0}, \"47\": {\"Si\": 1.0}, \"48\": {\"Si\": 1.0}, \"49\": {\"Si\": 1.0}, \"50\": {\"Si\": 1.0}, \"51\": {\"Si\": 1.0}, \"52\": {\"Si\": 1.0}, \"53\": {\"Si\": 1.0}}" energy=-471.04012626646943 stress="-0.0023679320342034973 0.000692845165960672 -0.00013528735376441261 0.000692845165960672 -0.00019198757844636212 -0.0008047071702395592 -0.00013528735376441261 -0.0008047071702395592 0.00041277035619002026" free_energy=-471.04012626646943 pbc="T T T"
Si       6.71466863       3.79702188       2.63191851      -0.78307187       0.78714399       1.43660652       0.09806701       0.04683322       0.54069859      -8.69652467
Si       8.57858063       5.04213420       5.79548408      -1.04350354      -1.70023952      -0.02456158       1.43598591      -0.15349426       0.02306610      -8.68087581
Si      10.56305643       6.04678249       8.91153560       0.24213662       0.91355996       0.03797901       0.50369169       0.24867683      -0.08637854      -8.74444252
Si       8.67142106       7.28711715       2.86761074       0.15496242      -0.34469407       0.35983601      -0.37570118      -0.22571421       0.15435701      -8.71946132
Si      10.66702107       8.30715278       5.99857505      -0.21585794       0.43011812       0.58804610      -0.08300622       1.55545165      -1.32329472      -8.70536187
Si      12.51392520       9.47246868       9.13519932       0.84166076       0.93058223       0.55106664       0.17510654      -0.20762640      -0.62058860      -8.71079186
Si      10.61494766      10.57391408       2.71212889      -0.83976308       1.89754944       0.58700982      -0.58513892      -0.60346828      -0.13231954      -8.75986458
Si      12.50365824      11.72255341       5.85041152      -0.19141098      -0.55158060      -0.04173554      -0.67383109      -0.37065278       1.04441900      -8.74170126
Si      14.36825859      12.74666126       9.01695681       0.56823041      -0.17610235      -0.85733441       0.26002259       0.16257190       0.12765621      -8.73464775
Si      10.63770864       3.88479921       2.63876171       0.48986942       0.37312221       1.76111945      -0.69670171      -0.39891696       0.34944483      -8.73750971
Si      12.57109434       4.94049994       5.80649011      -0.04359081      -0.42411578       1.45926583       0.11182852       0.07413717       0.34515157      -8.66516409
Si      14.35364420       6.10383510       9.01673975       0.53965846       0.58459007      -0.14891168       0.67936840      -1.08666138      -1.03879697      -8.70124235
Si      12.50236900       7.07804325       2.68131486      -0.41702524       0.67633599       0.21837671      -0.13632673       1.32704808       0.00948198      -8.72111602
Si      14.44482489       8.35942124       5.82916961       0.94648711       0.04878113      -0.34220393      -0.21182488       0.25573175       0.19874561      -8.75795992
Si      16.25897682       9.39788903       9.02535790      -0.16740141      -0.08373389      -0.67437064       0.05133945       0.42845847       0.12590988      -8.73775297
Si      14.30898272      10.53054149       2.75773101       1.19768594       0.15004758       1.96263603       1.14715322      -0.33643326       0.33914077      -8.71987330
Si      16.32550906      11.81417625       5.90713664      -0.91328664       1.50722973       0.11701359      -0.47430086      -1.12834174      -0.44751375      -8.74209359
Si      18.20890109      12.67651086       9.06467753      -1.51732101       1.24559119       0.75929006       0.07924022       0.45818119      -0.30034623      -8.74524614
Si      14.52800275       3.87089231       2.71430668       0.15532842      -0.48044708       0.20470908      -0.42208326      -0.83593012       0.58883261      -8.70560297
Si      16.49910008       5.12434607       5.86800028       0.11164604       0.96499757       0.04836893      -0.48900601      -0.86417024       0.13968337      -8.73594587
Si      18.32635168       6.14923697       9.01451721       0.31362395       0.36740023      -1.06207348      -0.38418926      -0.11972225      -0.23114273      -8.68641523
Si      16.39297416       7.19717360       2.88559063      -0.01653204      -0.10473654      -0.67524515       0.08630428       0.66746605      -0.81885081      -8.73793017
Si      18.30062820       8.54584838       6.05152154      -1.78872761      -1.69045521      -0.12705990       0.01992776      -0.57433692      -0.11542115      -8.70664891
Si      20.22119913       9.36865123       9.10625693       0.14301755      -0.63735410      -0.13721905       0.66065673       0.68795388       0.56754756      -8.71148418
Si      18.20811922      10.48787796       2.79337431      -0.20392645      -0.59038845      -1.93776305       0.61505986       0.75413394      -0.29404927      -8.71611312
Si      20.23645307      11.67396896       5.94925455      -0.35883633      -0.62722957      -0.74909046       0.36574934      -0.41592512       0.02845514      -8.74655045
Si      22.16929484      12.88470300       9.12226748       1.45286112       0.42614686       0.37649784      -1.00311600      -0.64173005      -0.30053961      -8.74878621
Si       0.97627092       0.59958511       0.38586944       1.24037508       0.43955431      -0.02999457       0.15936145       0.16288764       0.67155702      -8.75117746
Si       2.91158599       1.55860669       3.56894363       1.31440920      -1.51447873      -0.51673472      -0.52159326       0.88505366      -0.10103316      -8.67235533
Si       4.81908563       2.86699291       6.75618423      -0.55898928      -0.97156801      -0.54234292       0.20160877       0.15347369      -0.48587142      -8.68857137
Si       2.97189511       3.80597673       0.39150365      -0.39474148      -0.05313485      -0.64703051      -0.44623980       0.43665767      -0.01324082      -8.76288323
Si       4.86033230       4.99614818       3.52246155       0.69391516       0.73824043       1.10863661       0.29718710      -0.53137447       0.06634509      -8.74406901
Si       6.83316240       6.26149489       6.62189387      -0.58081146       0.48546478      -1.14182764      -0.57625797       0.12127024       0.75078501      -8.73303900
Si       4.85234754       7.29789715       0.47593077      -0.66301258       0.07284262      -1.27999333      -0.50360478      -0.35549148       0.17420905      -8.68425733
Si       6.70441615       8.38707778       3.74922476      -0.81155293      -1.09958116       0.41449893       0.35300860      -0.59119813      -0.87597993      -8.73620090
Si       8.75881141       9.43598242       6.83091980       0.65806668      -0.46855844       0.43817785       0.08843002       0.53648311      -0.93476097      -8.71872132
Si       4.75104381       0.56717754       0.34102090      -0.53293775       0.41194377       1.00095955       0.15990707      -0.69792503       0.12644520      -8.72224368
Si       6.68417355       1.58380317       3.58369690      -0.27707161      -1.21486655       0.03722312       0.13650954       1.20085754      -0.77543605      -8.73639917
Si       8.59421116       2.80902409       6.65434284       1.16623922      -1.49592679      -1.99677854       0.21265192       0.69943216       0.17316756      -8.74829065
Si       6.71290513       3.80679915       0.28598819      -1.01343661      -0.19151754       1.20338724      -0.85382896       0.95503206       0.44543165      -8.74267768
Si       8.63840176       4.94861134       3.42125500      -0.91587048      -0.81902749       0.23845452       0.23040695       0.32655054       0.19881058      -8.70771451
Si      10.65201145       6.16345169       6.57134529      -2.34186702       0.21523039      -0.81910099      -0.52015704      -2.07710066       0.08324610      -8.68876110
Si       8.65074296       7.25572933       0.53534845      -0.47320620      -1.38740863       0.88746434      -0.09257453      -0.19984855      -0.55155133      -8.75323982
Si      10.65266564       8.36968724       3.53108972       0.82581459       2.20281829      -0.05408804       0.04189023      -0.58043586       0.59158674      -8.67449005
Si      12.56450007       9.50549988       6.70215824       1.47583618       0.71171449      -1.86189644      -0.05062099      -0.10513872       0.49665527      -8.70338065
Si       8.54190683       0.51188166       0.43783151       1.05681893      -0.23710426       0.83919613       0.56575401       0.38600837      -0.59166807      -8.71764864
Si      10.54668825       1.67568299       3.54741682      -0.15127986       0.23196299       0.14594173      -0.36091231       0.06645643      -0.34486193      -8.70385828
Si      12.49010561       2.66335924       6.70605644       0.32234797      -1.99768616       0.89728322       0.62678972       1.39821208       0.05849235      -8.71937921
Si      10.49782752       3.83582175       0.30340657      -0.63058878      -0.36217958       1.16250865       0.81303513       0.09372885       0.23883380      -8.74878688
Si      12.54904412       4.93868625       3.43093525      -0.66352145       0.52273569      -0.05259174       0.18788636      -0.59422457       0.54273965      -8.78082474
Si      14.52969540       6.15852294       6.57169217       2.42073154       1.33956132      -0.14455241      -0.73169616      -0.49843138       0.75671752      -8.70126442
Si      12.47167858       7.12347725       0.31846374       1.55146759      -0.68892723      -1.75241164      -0.14707464      -0.27633725       0.53534655      -8.74105663
Si      14.39552723       8.25593898       3.49633813       0.11309167       1.16699523      -0.50868838      -0.06030678       0.30738921      -0.07318694      -8.72245587
Si      16.28234950       9.55878868       6.68312430      -1.48713959       0.07078199      -0.71595280       0.03616493       0.07449266      -0.03612685      -8.71927246
54
Lattice="11.5478352 0.0 0.0 5.773917198490155 10.000722372470358 0.0 5.773916394327279 3.333571176804646 9.428767828939895" Properties=species:S:1:pos:R:3:momenta:R:3:forces:R:3:energies:R:1 spacegroup="_JSON {\"number\": 1, \"setting\": 1}" unit_cell=conventional occupancy="_JSON {\"0\": {\"Si\": 1.0}, \"1\": {\"Si\": 1.0}, \"2\": {\"Si\": 1.0}, \"3\": {\"Si\": 1.0}, \"4\": {\"Si\": 1.0}, \"5\": {\"Si\": 1.0}, \"6\": {\"Si\": 1.0}, \"7\": {\"Si\": 1.0}, \"8\": {\"Si\": 1.0}, \"9\": {\"Si\": 1.0}, \"10\": {\"Si\": 1.0}, \"11\": {\"Si\": 1.0}, \"12\": {\"Si\": 1.0}, \"13\": {\"Si\": 1.0}, \"14\": {\"Si\": 1.0}, \"15\": {\"Si\": 1.0}, \"16\": {\"Si\": 1.0}, \"17\": {\"Si\": 1.0}, \"18\": {\"Si\": 1.0}, \"19\": {\"Si\": 1.0}, \"20\": {\"Si\": 1.0}, \"21\": {\"Si\": 1.0}, \"22\": {\"Si\": 1.0}, \"23\": {\"Si\": 1.0}, \"24\": {\"Si\": 1.0}, \"25\": {\"Si\": 1.0}, \"26\": {\"Si\": 1.0}, \"27\": {\"Si\": 1.0}, \"28\": {\"Si\": 1.0}, \"29\": {\"Si\": 1.0}, \"30\": {\"Si\": 1.0}, \"31\": {\"Si\": 1.0}, \"32\": {\"Si\": 1.0}, \"33\": {\"Si\": 1.0}, \"34\": {\"Si\": 1.0}, \"35\": {\"Si\": 1.0}, \"36\": {\"Si\": 1.0}, \"37\": {\"Si\": 1.0}, \"38\": {\"Si\": 1.0}, \"39\": {\"Si\": 1.0}, \"40\": {\"Si\": 1.0}, \"41\": {\"Si\": 1.0}, \"42\": {\"Si\": 1.0}, \"43\": {\"Si\": 1.0}, \"44\": {\"Si\": 1.0}, \"45\": {\"Si\": 1.0}, \"46\": {\"Si\": 1.0}, \"47\": {\"Si\": 1.0}, \"48\": {\"Si\": 1.0}, \"49\": {\"Si\": 1.0}, \"50\": {\"Si\": 1.0}, \"51\": {\"Si\": 1.0}, \"52\": {\"Si\": 1.0}, \"53\": {\"Si\": 1.0}}" energy=-470.38870284099386 stress="-0.005067921425462337 0.001439467469245086 0.00040327446515014194 0.001439467469245086 0.0007429029957743078 -0.0021568808093332535 0.00040327446515014194 -0.0021568808093332535 0.002658866268728055" free_energy=-470.38870284099386 pbc="T T T"
Si       6.68053847       3.82923550       2.71900559      -0.45092211       0.29487486       1.69565284       0.36554936      -0.52208391      -0.19267894      -8.73569021
Si       8.57178190       4.95868185       5.79382369       0.53771371      -1.26355145      -0.04526954       0.49514269       0.68830041      -0.01140887      -8.71560936
Si      10.58532528       6.09473561       8.90786729       0.38060616       0.73636507      -0.18689509      -0.36173374      -0.43939652      -0.12587223      -8.74467442
Si       8.66985497       7.26343081       2.89571481      -0.10743899      -0.50979892       0.71383100       0.04361409      -0.03349637       0.16569547      -8.67934870
Si      10.66017210       8.37688696       5.97802139       0.07219603       1.78745454      -1.27723315       0.36704441      -0.07963581      -0.97551942      -8.73252274
Si      12.55197490       9.50329271       9.13229717       0.36649825       0.10522868      -0.74383776      -0.74922880      -0.75610670      -0.94951030      -8.67813257
Si      10.56490723      10.63690923       2.72874786      -0.74619403       0.33055654      -0.06763433       0.61752068      -1.27376445      -0.55879384      -8.73617614
Si      12.47151496      11.68640064       5.87773798      -0.90543905      -0.67043821       0.82448694      -0.18430364       0.22574301       0.05465858      -8.75686582
Si      14.40640469      12.73669758       8.97964292       0.83880647      -0.30440570      -0.51961879       0.07598983      -0.23427429       0.31155644      -8.66218956
Si      10.62947609       3.88760687       2.73204283      -0.84377093      -0.23724059       1.59140135      -0.84364225      -0.28246012      -0.45026636      -8.75529531
Si      12.57402070       4.92518109       5.88851673       0.14894679      -0.10087573       1.52585473       0.08965560       0.31476321      -0.21038997      -8.56755586
Si      14.39432092       6.09616259       8.98031805       0.76339424      -0.70558396      -0.94125502      -0.26040562      -0.43996691       0.12373230      -8.72599713
Si      12.47997637       7.15789609       2.68518502      -0.34719255       2.11502933      -0.15985870       0.21243836       0.36963875      -0.35277470      -8.70759074
Si      14.47958788       8.37024975       5.81102420       0.27510241       0.28213835      -0.47070532      -0.61234703      -0.05609169      -0.26417297      -8.75260184
Si      16.25524578       9.40458927       8.99929637       0.07896402       0.22585070      -0.25428199       0.26282105      -0.00770473       0.38658592      -8.71903958
Si      14.40360615      10.53205849       2.85546049       2.10241461       0.06659871       1.42844378      -0.04406574       0.26830379      -0.97541054      -8.75154014
Si      16.28616942      11.83565006       5.89037200      -0.08181893      -0.82316042      -0.79500380       1.40624726      -1.65006355      -0.58511308      -8.69246975
Si      18.15022574      12.74558786       9.09567227      -0.41117910       1.13217645       0.48063806       1.28129056      -0.52802206      -0.07396458      -8.70438252
Si      14.52119053       3.82091282       2.74447883      -0.37615798      -1.23971875       0.84846291      -0.28104671      -0.10677567       0.21549379      -8.67072779
Si      16.48917644       5.13166105       5.87695157      -0.43769168      -0.79017808       0.30933650      -0.30150119      -1.28056831       0.20866432      -8.72212902
Si      18.32222790       6.16363111       8.95647461      -0.52080661       0.18413767      -0.99399318      -0.58345136      -0.11075681       0.38868085      -8.68002589
Si      16.39012919       7.21461105       2.81908272      -0.19041391       0.63442184      -1.79603865      -0.29325005       0.15787374      -0.57195279      -8.72564884
Si      18.22013816       8.45788590       6.04223815      -1.11372263      -1.25933639      -0.25428509       0.69496231       0.98644304      -0.21580759      -8.65367851
Si      20.25603558       9.36176738       9.11507953       1.14988184       0.33771235       0.30090852       0.50521011       0.55220925      -0.09271123      -8.76373654
Si      18.22154809      10.48164514       2.70077991       0.67621858       0.25517859      -1.22011239       0.46695580       0.38215883       1.15044431      -8.65956644
Si      20.23317676      11.62359684       5.91421087       0.21373005      -1.23856394      -0.53681016       0.28543466      -0.19782119       0.23396026      -8.76341741
Si      22.20326051      12.88186832       9.12493283      -0.11512622      -0.49706441      -0.34651333      -0.86022144      -0.50618421      -0.58872261      -8.74017840
Si       1.04428355       0.62663388       0.39628338       1.24772506       0.51394023       0.11991875      -0.24385944      -0.13804631      -0.51102513      -8.77059930
Si       2.93682134       1.52430361       3.54431905      -0.69609675       0.32654399      -0.29964814      -1.82444879       1.34448695       0.35515940      -8.66458528
Si       4.79877968       2.82952939       6.71662479      -0.22777117      -0.37217014      -0.80989433       0.15600324       0.48990194       0.11689992      -8.66357338
Si       2.93927084       3.81715892       0.36548252      -0.73749810       0.39712680      -0.21466133      -0.01688842       0.12399144       0.50028776      -8.75706039
Si       4.89358806       5.01439523       3.57514275       0.29672032       0.02463092       0.75502335      -0.78819930      -0.29082842      -0.50393862      -8.73866735
Si       6.78992356       6.27533304       6.59558675      -0.86691610      -0.28963271       0.15738709       0.18661516      -1.13874751       0.83442155      -8.71394889
Si       4.80839339       7.28903194       0.42030997      -0.78160305      -0.36536896      -0.79341501       0.39969010      -0.17680799       0.36635303      -8.71564699
Si       6.67933976       8.31817164       3.72985646      -0.09534571      -1.28892101      -1.20408725       0.54650110       0.33643355      -1.08360910      -8.73561038
Si       8.78084653       9.42963351       6.81498961      -0.06666571       0.15587249      -0.98913233      -0.88992796       0.24797340      -0.74237347      -8.68439843
Si       4.72618064       0.57127897       0.39128579      -0.45661640      -0.05731770       0.77897897       0.01055731       0.05865150      -0.41837448      -8.73391444
Si       6.68004622       1.57361587       3.56242209       0.19849043       0.83233619      -0.68183334       0.44158997       1.24391317      -0.14097404      -8.69676033
Si       8.64053541       2.76552657       6.57476800       0.20188585      -0.10656093      -0.75332539      -1.27040267       0.90090048       1.27736002      -8.70599544
Si       6.64739287       3.83431966       0.35875088      -1.05909250       1.17962136       1.41331606       0.76514222       0.73113803      -0.16946676      -8.72773643
Si       8.60694197       4.92321293       3.44288682      -0.18269653      -0.08649561       0.60241949       0.62242759       0.57854650       0.26103248      -8.71659953
Si      10.52505215       6.10330409       6.53568915      -2.15819573      -2.10594857      -0.49071729       0.83109344      -0.59128061       0.30626329      -8.70830091
Si       8.63238638       7.19106255       0.55854193      -0.05479818      -0.81610759       0.01282890       0.56680692       0.82510738      -0.50841010      -8.74977969
Si      10.68615663       8.45366895       3.54976749       0.25276911       0.89857603       0.69575795      -0.73601703      -0.99606662       0.31477648      -8.67345404
Si      12.63155181       9.52755404       6.63948694       0.93462815      -0.05272978      -0.30889062      -0.63196808      -0.81356413       1.36801209      -8.67474550
Si       8.61153142       0.51568920       0.46051707       1.43230549       0.37236230       0.09119354      -0.07860170       0.35551038      -0.34902967      -8.66779783
Si      10.53647023       1.68955492       3.54472856       0.00634549       0.26150169      -0.18881161       0.59874419      -0.07140023      -0.11849858      -8.71716160
Si      12.52197140       2.62082204       6.75216403       0.69636215       0.41823039       0.77183161      -0.10408997       1.59441079      -0.28285939      -8.71633889
Si      10.50224731       3.82600147       0.37079559       0.81126033       0.05477012       1.31884678       0.86981009       0.35674111      -0.10911403      -8.72534575
Si      12.53115961       4.94770679       3.45779786       0.09344964      -0.02501579       1.16638150       0.62379803      -0.02492215       0.90455132      -8.76542633
Si      14.60985730       6.20378194       6.59508349       0.38054378       0.32979183       1.00126257      -1.74379037      -0.73845520       0.61737090      -8.67895554
Si      12.53163729       7.09023713       0.25789572       0.49523683      -0.31202121      -0.41884682      -1.07371205       0.74654810       1.09235640      -8.67223912
Si      14.40222030       8.31537069       3.47180108       0.20034869       0.85615525      -0.34037714       0.16219509      -0.63672703       0.25504848      -8.72182769
Si      16.21648507       9.57019428       6.64877792      -0.82137384       0.40902330      -0.50117629       0.82625214       0.24233075       0.32337803      -8.69544216
54
Lattice="11.5478352 0.0 0.0 5.773917198490155 10.000722372470358 0.0 5.773916394327279 3.333571176804646 9.428767828939895" Properties=species:S:1:pos:R:3:momenta:R:3:forces:R:3:energies:R:1 spacegroup="_JSON {\"number\": 1, \"setting\": 1}" unit_cell=conventional occupancy="_JSON {\"0\": {\"Si\": 1.0}, \"1\": {\"Si\": 1.0}, \"2\": {\"Si\": 1.0}, \"3\": {\"Si\": 1.0}, \"4\": {\"Si\": 1.0}, \"5\": {\"Si\": 1.0}, \"6\": {\"Si\": 1.0}, \"7\": {\"Si\": 1.0}, \"8\": {\"Si\": 1.0}, \"9\": {\"Si\": 1.0}, \"10\": {\"Si\": 1.0}, \"11\": {\"Si\": 1.0}, \"12\": {\"Si\": 1.0}, \"13\": {\"Si\": 1.0}, \"14\": {\"Si\": 1.0}, \"15\": {\"Si\": 1.0}, \"16\": {\"Si\": 1.0}, \"17\": {\"Si\": 1.0}, \"18\": {\"Si\": 1.0}, \"19\": {\"Si\": 1.0}, \"20\": {\"Si\": 1.0}, \"21\": {\"Si\": 1.0}, \"22\": {\"Si\": 1.0}, \"23\": {\"Si\": 1.0}, \"24\": {\"Si\": 1.0}, \"25\": {\"Si\": 1.0}, \"26\": {\"Si\": 1.0}, \"27\": {\"Si\": 1.0}, \"28\": {\"Si\": 1.0}, \"29\": {\"Si\": 1.0}, \"30\": {\"Si\": 1.0}, \"31\": {\"Si\": 1.0}, \"32\": {\"Si\": 1.0}, \"33\": {\"Si\": 1.0}, \"34\": {\"Si\": 1.0}, \"35\": {\"Si\": 1.0}, \"36\": {\"Si\": 1.0}, \"37\": {\"Si\": 1.0}, \"38\": {\"Si\": 1.0}, \"39\": {\"Si\": 1.0}, \"40\": {\"Si\": 1.0}, \"41\": {\"Si\": 1.0}, \"42\": {\"Si\": 1.0}, \"43\": {\"Si\": 1.0}, \"44\": {\"Si\": 1.0}, \"45\": {\"Si\": 1.0}, \"46\": {\"Si\": 1.0}, \"47\": {\"Si\": 1.0}, \"48\": {\"Si\": 1.0}, \"49\": {\"Si\": 1.0}, \"50\": {\"Si\": 1.0}, \"51\": {\"Si\": 1.0}, \"52\": {\"Si\": 1.0}, \"53\": {\"Si\": 1.0}}" energy=-470.7054295869199 stress="0.0008749205511028292 -0.0005647703574133501 -0.0002951130661842168 -0.0005647703574133501 -0.0009591787815787757 0.000549593798202539 -0.0002951130661842168 0.000549593798202539 -0.00023579642673393205" free_energy=-470.7054295869199 pbc="T T T"
Si       6.67397347       3.83095636       2.79167908       0.22455792      -0.00471781       0.93378554       0.45398554       0.34767936      -0.75833886      -8.77096714
Si       8.60168447       4.92313905       5.79217180       0.31212455      -0.08336762       0.02435882      -0.62201435       0.73797454       0.16958973      -8.73878745
Si      10.58461484       6.11365966       8.89788774      -0.45631698      -0.00270822      -0.07847429      -0.56303936      -0.40143125       0.32207494      -8.72629760
Si       8.67136125       7.23680080       2.93136594       0.25347205      -0.47878975       0.46513314       0.38600549       0.07745473      -0.53883941      -8.69088600
Si      10.67520844       8.44453911       5.88993207       0.38838301       0.46386544      -1.70416795      -0.06264343      -1.39826419       0.50492772      -8.66578885
Si      12.54175449       9.48308898       9.06503658      -0.65818232      -0.74082574      -1.57628520      -0.38801255      -0.24229482       0.00613517      -8.73858250
Si      10.54863102      10.61378861       2.71212807      -0.00947121      -0.94601756      -0.35166200       0.14726305      -0.26383882       0.24089558      -8.74933187
Si      12.42637321      11.66386044       5.91226788      -0.65077507      -0.17734331       0.34611778       0.46466194       0.27940347      -0.52600147      -8.73357937
Si      14.44931888      12.71302446       8.96601762       0.72622324      -0.53826526       0.01786109      -0.20270985      -0.00242011       0.38285521      -8.68890025
Si      10.56709696       3.87287619       2.79467158      -1.19779309      -0.15367843       0.77415310       0.45640411       0.37157950      -0.55387273      -8.76114077
Si      12.58211504       4.93340214       5.95561657       0.09031089       0.43751163       0.96715866      -0.18126767       0.40981276      -0.47649219      -8.65920929
Si      14.42175208       6.05786191       8.95485481       0.28147163      -0.45972781       0.29311986      -0.28731848       0.71932455       1.37978301      -8.68638428
Si      12.47206084       7.26379629       2.66724496       0.05599704       1.59684439      -0.40042498       0.25720354      -0.91403053       0.13394157      -8.68612289
Si      14.47253230       8.37625878       5.77997298      -0.44867336      -0.15050602      -0.57165260      -0.25399304      -0.43727742       0.28252238      -8.73642291
Si      16.27033247       9.41267009       9.00130144       0.49668325       0.04421598       0.32011720       0.26876119      -0.15874423       0.34908744      -8.72639499
Si      14.49507840      10.55020309       2.88355646       1.12914559       0.64612619      -0.44651784      -1.04600395       0.36091549      -1.33794431      -8.70380349
Si      16.33181733      11.74767977       5.83802615       1.56944485      -2.04389286      -0.92965709       0.50958180       0.21300567       0.44694162      -8.73154502
Si      18.18035681      12.78057336       9.11986365       1.49031102       0.20647401       0.46335311       1.03031363      -0.52383914       0.00380361      -8.69387779
Si      14.49224786       3.76609560       2.78968141      -0.70497072      -0.56579491       0.72964103      -0.19300551       1.01095945      -0.35739132      -8.69906329
Si      16.45294047       5.05037032       5.90093833      -0.99512627      -2.03954049       0.57774909      -0.49205731      -0.23099155       0.09265948      -8.75625142
Si      18.27940876       6.16932897       8.92962611      -0.93351200       0.03269098       0.13895010       0.10970772      -0.11689028       1.04241513      -8.73644338
Si      16.36845087       7.24288298       2.71418682      -0.59789111       0.25991743      -1.95389087      -0.14619301      -0.56212767       0.40740545      -8.72711890
Si      18.18936933       8.43151035       6.01466212      -0.07817623       0.11251707      -0.89405803       0.63008785       0.46695467      -0.59561749      -8.65748018
Si      20.31971005       9.39513099       9.11740431       0.91391563       0.80959185      -0.36230435      -0.89530530       0.06833296      -0.68207350      -8.75051984
Si      18.26760145      10.50526915       2.68527390       0.92023318       0.55432217       0.54210210      -0.15747798       0.01256806       0.82399678      -8.68634460
Si      20.24811469      11.56605142       5.89670329       0.20281374      -0.63756344      -0.11866070      -0.30745587       1.02935908       0.28279381      -8.74151019
Si      22.17557326      12.84242319       9.08555534      -0.71020472      -0.87896304      -1.09897406       0.03380144      -0.00378144      -0.37221572      -8.71792987
Si       1.09194935       0.64183362       0.37476135       0.42584670      -0.04887340      -0.97320731      -0.81367300      -0.58922346      -0.64879941      -8.72218418
Si       2.84524110       1.58071884       3.54255070      -2.32229335       1.49082403       0.21650138      -0.03329106       0.07711378       0.32571093      -8.76425285
Si       4.78863055       2.82365640       6.68416258      -0.24503217      -0.01263670      -0.35464384      -0.17356500      -0.13826995       0.41057928      -8.71278105
Si       2.90393758       3.83864499       0.37384231      -0.55941563       0.37115199       0.50047954       0.18510001      -0.07431460       0.38054697      -8.73036837
Si       4.87195179       5.01005485       3.59143477      -1.16557445      -0.11545574      -0.16579612      -0.96759663      -0.00046183      -0.63344858      -8.70767394
Si       6.75666044       6.21471625       6.62742159      -0.36828845      -1.89345170       0.84426311       0.32506394      -0.67092844       0.01928323      -8.71186821
Si       4.79429918       7.26843825       0.38959097       0.41394459      -0.31763926      -0.48027128       1.05853207       0.21265299      -0.03581623      -8.75361693
Si       6.69261482       8.27321175       3.63507690       0.50592607      -0.28597870      -2.17613803       0.17842802       0.89051615      -0.18289451      -8.73358608
Si       8.74357107       9.43869202       6.74617576      -1.25421444       0.00014190      -1.41704646      -0.51474598      -0.47920586       0.10237373      -8.70412867
Si       4.70723892       0.57509677       0.40940511      -0.13801974       0.23389404      -0.18740768       0.50385807       0.18959076      -0.80019150      -8.74569433
Si       6.70598642       1.64856597       3.52965391       0.72703661       1.62926605      -0.42627604       0.20055808      -0.29742302       0.41916306      -8.70663105
Si       8.61081243       2.77969976       6.58205836      -1.01422158       0.30482648       0.88152378      -0.09594959      -0.39001792       0.72339458      -8.72370602
Si       6.63062045       3.91175153       0.41832296       0.47438075       1.48202158       0.72812320       1.01290368      -0.40831975      -0.67956588      -8.66942777
Si       8.61705066       4.93912182       3.48241602       0.43037706       0.62521767       0.84923974       0.09786064       0.31782737       0.04597230      -8.72993730
Si      10.46274897       5.99916560       6.52478033       0.06740347      -1.38088325       0.12876459       1.92993376       1.31592084       0.50843095      -8.60329565
Si       8.64993861       7.18204996       0.54324158       0.61986310       0.41947285      -0.53702462       0.18027109       0.63223940      -0.27620548      -8.72460549
Si      10.66830580       8.46427218       3.58775030      -0.91728526      -0.43395269       0.50852157      -0.67927494      -0.77141459      -0.64167035      -8.74570634
Si      12.65129397       9.49445289       6.67178637      -0.24569174      -1.11340873       1.33585842      -0.88724405      -0.45495641       0.56483858      -8.72726040
Si       8.67549283       0.54445982       0.45669042       0.88584282       0.62350985      -0.14634836      -0.55264077      -0.04039845       0.00581647      -8.69195793
Si      10.56900562       1.69670746       3.53139779       1.33501661      -0.06276873      -0.31344697       0.98626158      -0.35906369      -0.09012443      -8.73781686
Si      12.55135946       2.69263635       6.77659225       0.41563284       2.02470988       0.09361921      -0.15988834       0.44407579      -0.53772899      -8.72017573
Si      10.56573681       3.84025496       0.42770279       1.33383135       0.43201108       0.72338703      -0.19977251       0.14735661      -0.59927104      -8.71310128
Si      12.55343077       4.95284879       3.54642374       0.58055704       0.32968463       2.01532204      -0.04433995       0.41464061       0.13600494      -8.68389730
Si      14.56694934       6.19442706       6.65921883      -1.83065993      -0.63131761       1.18578391      -1.04022480      -0.52424188      -0.37026099      -8.71402386
Si      12.52010464       7.10766993       0.27563711      -0.75628917       0.99188340       0.99022176      -0.40173109       0.82254972       0.69036902      -8.68963688
Si      14.41914396       8.33306213       3.46298271       0.42465578      -0.13388917      -0.05701651       0.08546444      -0.46136422       0.02292898      -8.75279013
Si      16.20950284       9.59247384       6.63802682       0.56267663       0.20926538       0.12614326       0.87042269      -0.65427277       0.46752272      -8.72462087
54
Lattice="11.5478352 0.0 0.0 5.773917198490155 10.000722372470358 0.0 5.773916394327279 3.333571176804646 9.428767828939895" Properties=species:S:1:pos:R:3:momenta:R:3:forces:R:3:energies:R:1 spacegroup="_JSON {\"number\": 1, \"setting\": 1}" unit_cell=conventional occupancy="_JSON {\"0\": {\"Si\": 1.0}, \"1\": {\"Si\": 1.0}, \"2\": {\"Si\": 1.0}, \"3\": {\"Si\": 1.0}, \"4\": {\"Si\": 1.0}, \"5\": {\"Si\": 1.0}, \"6\": {\"Si\": 1.0}, \"7\": {\"Si\": 1.0}, \"8\": {\"Si\": 1.0}, \"9\": {\"Si\": 1.0}, \"10\": {\"Si\": 1.0}, \"11\": {\"Si\": 1.0}, \"12\": {\"Si\": 1.0}, \"13\": {\"Si\": 1.0}, \"14\": {\"Si\": 1.0}, \"15\": {\"Si\": 1.0}, \"16\": {\"Si\": 1.0}, \"17\": {\"Si\": 1.0}, \"18\": {\"Si\": 1.0}, \"19\": {\"Si\": 1.0}, \"20\": {\"Si\": 1.0}, \"21\": {\"Si\": 1.0}, \"22\": {\"Si\": 1.0}, \"23\": {\"Si\": 1.0}, \"24\": {\"Si\": 1.0}, \"25\": {\"Si\": 1.0}, \"26\": {\"Si\": 1.0}, \"27\": {\"Si\": 1.0}, \"28\": {\"Si\": 1.0}, \"29\": {\"Si\": 1.0}, \"30\": {\"Si\": 1.0}, \"31\": {\"Si\": 1.0}, \"32\": {\"Si\": 1.0}, \"33\": {\"Si\": 1.0}, \"34\": {\"Si\": 1.0}, \"35\": {\"Si\": 1.0}, \"36\": {\"Si\": 1.0}, \"37\": {\"Si\": 1.0}, \"38\": {\"Si\": 1.0}, \"39\": {\"Si\": 1.0}, \"40\": {\"Si\": 1.0}, \"41\": {\"Si\": 1.0}, \"42\": {\"Si\": 1.0}, \"43\": {\"Si\": 1.0}, \"44\": {\"Si\": 1.0}, \"45\": {\"Si\": 1.0}, \"46\": {\"Si\": 1.0}, \"47\": {\"Si\": 1.0}, \"48\": {\"Si\": 1.0}, \"49\": {\"Si\": 1.0}, \"50\": {\"Si\": 1.0}, \"51\": {\"Si\": 1.0}, \"52\": {\"Si\": 1.0}, \"53\": {\"Si\": 1.0}}" energy=-470.98046847219877 stress="0.0034659081457697524 -0.0010455236897509205 -0.00033589481767275843 -0.0010455236897509205 -0.002449444039235513 0.0021380129872391783 -0.00033589481767275843 0.0021380129872391783 -0.003475721695335007" free_energy=-470.98046847219877 pbc="T T T"
Si       6.69810858       3.85867156       2.80891097       0.56698813       1.23092585      -0.27295689      -0.04356817       0.98439837      -0.74457829      -8.76190034
Si       8.59650759       4.94107712       5.80711558      -0.33634986       0.62919304       0.69339097       0.02612751       0.19741451       0.73153574      -8.77445069
Si      10.54648928       6.10531598       8.91165413      -0.82020397      -0.16015877       0.67427775       0.12529784       0.20169451       0.60120009      -8.71949032
Si       8.69725126       7.21686802       2.92647236       0.62121748      -0.24436707      -0.78635467      -0.05789026       0.21505146      -1.07675324      -8.71668970
Si      10.68460152       8.41326395       5.83806020      -0.17603986      -1.61599244      -0.05611531      -0.64039210      -1.25473063       1.33912172      -8.63757041
Si      12.50550325       9.44532900       9.00164489      -0.47141724      -0.53327644      -0.51443547       0.60813047       0.39682635       1.25896982      -8.74407251
Si      10.54564851      10.56967938       2.70839114      -0.21043904      -0.48905901       0.23843322      -0.27585286       0.70742600       0.37552117      -8.67987378
Si      12.41372735      11.65946332       5.91199524       0.19526484      -0.11374807      -0.27669087       0.57861479      -0.19964727      -0.22560825      -8.71435126
Si      14.47770639      12.69132190       8.98039535       0.33833625      -0.15774321       0.48954904      -0.27693145       0.51191574       0.22613932      -8.76118635
Si      10.53680535       3.88202126       2.81619800       0.24895780       0.50434093       0.11044744       1.27060643       0.39380797      -0.30521595      -8.70735917
Si      12.57676081       4.97149935       5.98701171      -0.34270648       0.96618342       0.22474365      -0.37386187       0.20528408      -0.50519720      -8.79160531
Si      14.42785999       6.06999218       9.02262163       0.00160525       1.00481827       2.12816321      -0.08843467       1.03916343       0.76420361      -8.70493406
Si      12.48199339       7.30557415       2.66202485       0.26061458      -0.05907445       0.39759816       0.02062279      -1.14857773       0.89508356      -8.67693097
Si      14.44620004       8.35233023       5.77162119      -0.44441568      -0.72088576       0.41104795       0.18248604      -0.28537238       0.89044002      -8.71309971
Si      16.30500748       9.41145402       9.02876514       0.78913746      -0.01603000       0.66352710       0.12980308       0.13114017       0.10139243      -8.74714818
Si      14.51583758      10.59246466       2.81724337      -0.20723527       0.84785032      -1.83625225      -0.55986289      -0.09709820      -0.38133723      -8.71705372
Si      16.41821456      11.67114775       5.81553823       1.47643801      -0.59059197       0.18148809      -0.48785709       1.32616699       0.89548997      -8.66694772
Si      18.28341067      12.77971159       9.14077326       2.13369752      -0.05460894       0.23557527      -0.16062920       0.19055309      -0.37928697      -8.72134875
Si      14.44780123       3.78328651       2.80935263      -1.00605432       1.25489145      -0.02907420      -0.26270012       1.14088097      -0.55262252      -8.74373965
Si      16.38107830       4.95442338       5.92901795      -1.73059609      -1.27685791       0.37365369      -0.43956613       1.09163823      -0.36398834      -8.73870821
Si      18.24561249       6.16478852       8.97490530      -0.17629638      -0.24735655       1.45365125       0.80419755      -0.27841788       0.53455299      -8.77268861
Si      16.33826346       7.23290504       2.63981995      -0.42394340      -0.62541091      -0.71400616       0.35388956      -0.51136510       1.05652243      -8.73039901
Si      18.20485037       8.43603513       5.94455497       0.55515537      -0.29241560      -1.75942231       0.19034669      -0.91128314      -0.52405124      -8.67916941
Si      20.32166624       9.43550523       9.07374406      -0.92857128       0.67885759      -1.20961019      -1.26325352      -0.13772368      -0.33120337      -8.69793769
Si      18.30290742      10.52842756       2.72407461       0.35042649       0.20951994       0.51547322      -0.43706113      -0.44325122      -0.80823478      -8.72371908
Si      20.24138152      11.57943231       5.90037365      -0.53829200       1.13906876       0.24624422      -0.62557038       1.00141054       0.23891851      -8.72183439
Si      22.14709900      12.80254299       9.02038068      -0.27967307      -0.53805845      -1.23560303       0.41682479       0.40141051       0.21934987      -8.71369121
Si       1.07999843       0.61446539       0.31157767      -0.89014823      -0.99603137      -1.17061797      -0.85036591      -0.59758201       0.37435115      -8.66607058
Si       2.75030821       1.64764802       3.56729966      -0.85493640       0.89858375       0.72386237       1.70756041      -0.57145852       0.28468108      -8.71832471
Si       4.76810468       2.80612881       6.68008570      -0.51428234      -0.83574983       0.13236374      -0.07994874      -0.82276525       0.14477509      -8.76137559
Si       2.88110241       3.85721597       0.40937813      -0.33943164       0.39631786       0.74117112       0.07924415       0.15516409      -0.06365735      -8.72539878
Si       4.78409494       5.00289446       3.56308176      -1.92706151      -0.18029933      -0.78923305       0.03220036      -0.07548047      -0.14518471      -8.70947134
Si       6.74409425       6.10820645       6.66367284      -0.25421625      -1.82557759       0.44082935      -0.23345826       0.66844541      -0.36622210      -8.70784733
Si       4.85103345       7.26017291       0.35566948       1.52119671      -0.04063269      -0.92127316       0.17398076       0.05675961      -0.43838754      -8.77623429
Si       6.71904565       8.29089943       3.52581803       0.39134796       0.85631938      -1.79873103      -0.25186097       0.48401580       0.57102693      -8.72422961
Si       8.67065286       9.41694366       6.68142040      -1.28483432      -0.79585789      -0.99614507       0.42505394      -0.35707794       0.33262168      -8.74019220
Si       4.72633742       0.58960816       0.37271552       0.96002128       0.20240877      -1.06128784       0.87252984      -0.26329561      -0.22259908      -8.75337743
Si       6.74590746       1.70405702       3.52548557       0.68090592       0.26627034       0.24956096      -0.25005881      -1.14721516       0.34746981      -8.71887500
Si       8.57051175       2.77253072       6.64232185      -0.27284911      -0.62958053       1.15316821       0.90661681      -0.61785515      -0.30773011      -8.67878739
Si       6.68535206       3.95848214       0.42989656       1.39953276       0.07696525      -0.23748109       0.17857918      -1.27440643      -0.49330740      -8.66597236
Si       8.63539319       4.97795219       3.52501000       0.16132661       0.73626288       0.71804755      -0.31804790      -0.14601940      -0.17158911      -8.75141121
Si      10.53194952       5.98514581       6.54965065       2.22064672       0.87980278       0.76466672       0.58472180       1.48120862       0.31745056      -8.63627963
Si       8.68056146       7.21666725       0.50647816       0.40927010       0.65446202      -0.82091622      -0.36215823      -0.32460673      -0.10465233      -8.67596613
Si      10.60402191       8.41670981       3.57985986      -1.30290002      -1.26017628      -0.88296518       0.22443393      -0.29486880      -0.91242647      -8.79173920
Si      12.60675559       9.42897226       6.73903180      -1.36021339      -1.19264972       0.74782286      -0.53318221       0.29135389      -1.28185300      -8.73460383
Si       8.70129720       0.57038905       0.45112352       0.16202634       0.29352147      -0.06497249      -0.30812533      -0.31171254       0.00375969      -8.76554125
Si      10.66583599       1.67907354       3.51152453       2.04441681      -0.56886933      -0.42518834      -0.22606878      -0.19404040      -0.00685786      -8.77851234
Si      12.56872651       2.79658306       6.76423633       0.26960832       1.60249704      -0.45834066      -0.07357400      -0.86608163      -0.13132218      -8.69311464
Si      10.61579658       3.86704715       0.44400921       0.39770906       0.57335286      -0.01482245      -0.89267415       0.07850244      -0.27223654      -8.72816026
Si      12.57323017       4.98734441       3.64254454       0.03277087       0.99097915       1.37290244      -0.60687053       0.44166340      -0.95093057      -8.60869374
Si      14.44879009       6.14702422       6.70212632      -2.30737947      -1.03455398       0.47247696       0.40895272       0.03735119      -0.29306238      -8.72631485
Si      12.47914426       7.18227593       0.34330774      -0.56500950       1.63762804       1.37423429       0.54055333      -0.01399142      -0.14704153      -8.73812489
Si      14.44118990       8.32008271       3.45565797       0.34911835      -0.12923517      -0.28950931      -0.17158407       0.43608745      -0.22852473      -8.77378827
Si      16.26552784       9.56687323       6.66108652       1.42775913      -1.30617191       0.69363442       0.31003494      -1.12081009       0.23108510      -8.75416141
54
Lattice="11.5478352 0.0 0.0 5.773917198490155 10.000722372470358 0.0 5.773916394327279 3.333571176804646 9.428767828939895" Properties=species:S:1:pos:R:3:momenta:R:3:forces:R:3:energies:R:1 spacegroup="_JSON {\"number\": 1, \"setting\": 1}" unit_cell=conventional occupancy="_JSON {\"0\": {\"Si\": 1.0}, \"1\": {\"Si\": 1.0}, \"2\": {\"Si\": 1.0}, \"3\": {\"Si\": 1.0}, \"4\": {\"Si\": 1.0}, \"5\": {\"Si\": 1.0}, \"6\": {\"Si\": 1.0}, \"7\": {\"Si\": 1.0}, \"8\": {\"Si\": 1.0}, \"9\": {\"Si\": 1.0}, \"10\": {\"Si\": 1.0}, \"11\": {\"Si\": 1.0}, \"12\": {\"Si\": 1.0}, \"13\": {\"Si\": 1.0}, \"14\": {\"Si\": 1.0}, \"15\": {\"Si\": 1.0}, \"16\": {\"Si\": 1.0}, \"17\": {\"Si\": 1.0}, \"18\": {\"Si\": 1.0}, \"19\": {\"Si\": 1.0}, \"20\": {\"Si\": 1.0}, \"21\": {\"Si\": 1.0}, \"22\": {\"Si\": 1.0}, \"23\": {\"Si\": 1.0}, \"24\": {\"Si\": 1.0}, \"25\": {\"Si\": 1.0}, \"26\": {\"Si\": 1.0}, \"27\": {\"Si\": 1.0}, \"28\": {\"Si\": 1.0}, \"29\": {\"Si\": 1.0}, \"30\": {\"Si\": 1.0}, \"31\": {\"Si\": 1.0}, \"32\": {\"Si\": 1.0}, \"33\": {\"Si\": 1.0}, \"34\": {\"Si\": 1.0}, \"35\": {\"Si\": 1.0}, \"36\": {\"Si\": 1.0}, \"37\": {\"Si\": 1.0}, \"38\": {\"Si\": 1.0}, \"39\": {\"Si\": 1.0}, \"40\": {\"Si\": 1.0}, \"41\": {\"Si\": 1.0}, \"42\": {\"Si\": 1.0}, \"43\": {\"Si\": 1.0}, \"44\": {\"Si\": 1.0}, \"45\": {\"Si\": 1.0}, \"46\": {\"Si\": 1.0}, \"47\": {\"Si\": 1.0}, \"48\": {\"Si\": 1.0}, \"49\": {\"Si\": 1.0}, \"50\": {\"Si\": 1.0}, \"51\": {\"Si\": 1.0}, \"52\": {\"Si\": 1.0}, \"53\": {\"Si\": 1.0}}" energy=-471.50515636934534 stress="-0.0016639315385929155 -5.142904201328503e-05 -0.0002407171363470183 -5.142904201328503e-05 -0.0013002029967164822 -0.00046831202196585337 -0.0002407171363470183 -0.00046831202196585337 -0.0007817597795378318" free_energy=-471.50515636934534 pbc="T T T"
Si       6.71903665       3.94681004       2.77324961       0.11795608       1.77398864      -0.91751250      -0.48415327      -0.36898744      -0.08836501      -8.73912496
Si       8.59431607       4.97421119       5.87208011       0.46518476       0.51210010       1.72013231       0.84694368      -0.27573938       0.50172679      -8.73261910
Si      10.51792562       6.11021160       8.96735919      -0.11041836       0.41074054       1.36940280       0.74726510       0.45318277       0.30330933      -8.70814898
Si       8.71495487       7.21108852       2.84360971      -0.16628404      -0.02517207      -2.31005177      -0.89676161       0.03282700      -0.82672908      -8.73766026
Si      10.64791047       8.29388709       5.87354532      -1.23720342      -2.56178071       1.05043543      -0.70222986       0.23912382      -0.03469861      -8.73149118
Si      12.51325222       9.43129728       9.01981917       0.87755147      -0.09175336       0.96994865       1.02638042       0.06226351       0.36843095      -8.74915040
Si      10.52690926      10.57236289       2.73048591      -0.39590254       0.53252221       0.50492755       0.15055157       0.48847948      -0.00977575      -8.67284637
Si      12.44291548      11.64159108       5.89485927       0.83769205      -0.61937530      -0.27843907       0.27471110      -0.40305211       0.15295529      -8.74069277
Si      14.48562273      12.70612888       9.01140569      -0.01106541       0.73124864       0.62597745      -0.17818683       0.54559917      -0.03752473      -8.78336277
Si      10.59387877       3.91896859       2.81448789       1.72699178       0.80555861      -0.09982846       0.49547768       0.00570941      -0.01228992      -8.69762967
Si      12.54479919       5.02048324       5.97954354      -0.83857216       0.71185575      -0.49252812      -0.22701495      -0.50843750      -0.43058800      -8.77160544
Si      14.42803962       6.15056818       9.14188161       0.09293939       1.73349570       2.00225613       0.26140140      -0.25020713      -0.85917471      -8.72897304
Si      12.49492458       7.26479012       2.71820702       0.22524112      -1.29771301       1.65664454      -0.00608320      -0.35881790       0.55434989      -8.73830552
Si      14.43141804       8.30807347       5.82314566      -0.11170153      -0.86456302       1.39926764       0.21848183       0.11969817       0.30776607      -8.71345851
Si      16.34962452       9.42034667       9.06352857       0.88436534       0.42491943       0.58824865       0.02244429       0.40125982      -0.18983129      -8.75987149
Si      14.49492977      10.62756162       2.72511220      -0.39428223       0.40406819      -1.33345118       0.19977055      -0.43357163       0.95147984      -8.72885008
Si      16.46981586      11.68155547       5.85693761       0.39522584       0.68977136       1.29502524      -0.86797159       0.18947646       0.50051589      -8.67875278
Si      18.37590483      12.78996491       9.13256429       1.19567647       0.49520528      -0.63151943      -0.93513372       0.38636813      -0.70043422      -8.73042769
Si      14.38314244       3.87758833       2.79056591      -1.47362820       2.00030888      -0.58133269      -0.30354898      -0.16227531      -0.14661957      -8.76990828
Si      16.27939414       4.93083795       5.93220266      -1.99999930       0.27253368      -0.25494694       0.13756566       0.71138512      -0.38518138      -8.71788771
Si      18.26567789       6.13989484       9.05796046       0.81135479      -0.70366698       1.46291928       0.30560573      -0.28686898      -0.44407899      -8.76228639
Si      16.33234685       7.18799177       2.63783529       0.20694063      -0.90610078       0.46570552       0.39064277       0.19650960       0.40687341      -8.73618883
Si      18.23566967       8.37850864       5.83813106       0.54166385      -1.94351546      -2.14395268      -0.11287706      -1.09257701       0.08573832      -8.72038598
Si      20.23581736       9.46656037       9.00681720      -2.07485082       0.51721011      -1.17979022      -0.22235240      -0.09759260       0.29857379      -8.68676976
Si      18.31242216      10.52284663       2.70989188       0.20414260      -0.33981579      -1.12241891       0.27453731      -0.12671711      -1.07730656      -8.73484277
Si      20.19022638      11.65893443       5.92223022      -1.33858906       1.48571618       0.55812021      -0.32967114      -0.57409033       0.11369233      -8.74150042
Si      22.14621362      12.79009772       8.97200155       0.15769208       0.02268218      -0.49715021       0.07322812       0.24287803       0.64760581      -8.73634438
Si       1.00845172       0.54567941       0.27364775      -1.62760254      -1.46417718      -0.15767786      -0.02629505       0.03705981       0.84765151      -8.68789340
Si       2.77190984       1.67735401       3.60704330       1.52976964       0.35073698       0.57029507       1.15250161      -0.12688864      -0.56112976      -8.72144693
Si       4.74516943       2.73693998       6.68427166      -0.21325617      -1.57956846      -0.13174890       0.48541382       0.01981940      -0.46366853      -8.77117797
Si       2.86478838       3.88749259       0.44014263      -0.30254243       0.81296287       0.33772758       0.00228254       0.37004105      -0.43550740      -8.75116122
Si       4.69956423       4.99226596       3.52429623      -1.04581167      -0.17675468      -0.54703010       1.00489386       0.10341406       0.41200731      -8.72420593
Si       6.71490621       6.04790270       6.67649944      -0.94495570      -0.37535376       0.13631229      -0.56421386       1.05624261      -0.03731157      -8.70351474
Si       4.91622980       7.25604240       0.29713237       0.58436327      -0.18428690      -1.11836975      -1.29963495      -0.21702379       0.28715236      -8.74204933
Si       6.72927309       8.34062132       3.45648375       0.01141762       0.75655192      -0.84769648      -0.21170598      -0.61340560       0.56259345      -8.72544070
Si       8.62576836       9.37222954       6.64007935      -0.39091271      -0.71849014      -0.63433485       0.56543726       0.37563232       0.12270267      -8.72999943
Si       4.80616820       0.58581016       0.32119112       1.93898798      -0.37879908      -0.67775265       0.30716242      -0.37987275       0.66148939      -8.74279257
Si       6.76733585       1.68547250       3.54360215       0.06865427      -0.67601077       0.26726700      -0.51647457      -0.01681599      -0.32138957      -8.73204800
Si       8.59416479       2.72349081       6.68285319       1.17387508      -1.06787479       0.30485252       0.91225598       0.04989186      -0.65299748      -8.69416909
Si       6.75103426       3.91903728       0.40674013       0.80790632      -1.34993763      -0.47049104      -0.99082710      -0.38899239       0.18850989      -8.71842082
Si       8.63536769       5.00760022       3.55675810      -0.04457274       0.36519176       0.53123944       0.12918539      -0.26332622      -0.02719443      -8.78048067
Si      10.64052535       6.07680666       6.60204490       1.38851967       2.28695798       1.28814781      -1.47457152       0.16305222       0.53706584      -8.70735911
Si       8.68748182       7.23015017       0.46125617      -0.11495852      -0.22285382      -0.89334800      -0.24657966      -0.64537718      -0.07493602      -8.70013854
Si      10.55677170       8.34915599       3.51393796      -0.32009073      -1.12886105      -1.28820788       0.90539208       0.42406061       0.38913900      -8.76731265
Si      12.52375323       9.38321658       6.72329639      -1.62730610      -0.48997808      -1.25170237       0.16138654       0.53486168      -0.94843959      -8.74553151
Si       8.70554592       0.57756231       0.44224692       0.15096102       0.09976004      -0.39418007       0.27854143       0.14430404      -0.45382680      -8.75404419
Si      10.74399773       1.65076902       3.49394287       0.62558832      -0.33367100      -0.14035831      -1.42355702       0.48068595       0.39392566      -8.73864626
Si      12.57794628       2.84304532       6.74197683       0.01440146       0.20735846      -0.27691486      -0.34504716      -0.73249540       0.31374115      -8.71514509
Si      10.60636121       3.89952749       0.44041710      -0.57389854       0.65064040       0.01493364      -0.18301664       0.02659455       0.26619332      -8.76966613
Si      12.55029192       5.05320082       3.67035602      -0.88607010       1.42796953      -0.36073338      -0.52793971       0.07121510      -1.13754780      -8.68161548
Si      14.36072749       6.10397414       6.72761742      -0.80727613      -0.44604493       0.71895845       1.34427805       0.65365878       0.54709972      -8.70138973
Si      12.47410984       7.25602087       0.40342322       0.38736152       0.99872371       0.86417151       0.61040866      -0.69700533      -0.36341868      -8.74786256
Si      14.45199169       8.33520596       3.43653297       0.07514735       0.72740477      -0.30528752      -0.12467815       0.52401671       0.28845665      -8.74737455
Si      16.34633229       9.46619011       6.69948283       1.55417935      -2.26206512       0.63583945      -0.08362089      -0.08917354      -0.29078019      -8.75518424
54
Lattice="11.5478352 0.0 0.0 5.773917198490155 10.000722372470358 0.0 5.773916394327279 3.333571176804646 9.428767828939895" Properties=species:S:1:pos:R:3:momenta:R:3:forces:R:3:energies:R:1 spacegroup="_JSON {\"number\": 1, \"setting\": 1}" unit_cell=conventional occupancy="_JSON {\"0\": {\"Si\": 1.0}, \"1\": {\"Si\": 1.0}, \"2\": {\"Si\": 1.0}, \"3\": {\"Si\": 1.0}, \"4\": {\"Si\": 1.0}, \"5\": {\"Si\": 1.0}, \"6\": {\"Si\": 1.0}, \"7\": {\"Si\": 1.0}, \"8\": {\"Si\": 1.0}, \"9\": {\"Si\": 1.0}, \"10\": {\"Si\": 1.0}, \"11\": {\"Si\": 1.0}, \"12\": {\"Si\": 1.0}, \"13\": {\"Si\": 1.0}, \"14\": {\"Si\": 1.0}, \"15\": {\"Si\": 1.0}, \"16\": {\"Si\": 1.0}, \"17\": {\"Si\": 1.0}, \"18\": {\"Si\": 1.0}, \"19\": {\"Si\": 1.0}, \"20\": {\"Si\": 1.0}, \"21\": {\"Si\": 1.0}, \"22\": {\"Si\": 1.0}, \"23\": {\"Si\": 1.0}, \"24\": {\"Si\": 1.0}, \"25\": {\"Si\": 1.0}, \"26\": {\"Si\": 1.0}, \"27\": {\"Si\": 1.0}, \"28\": {\"Si\": 1.0}, \"29\": {\"Si\": 1.0}, \"30\": {\"Si\": 1.0}, \"31\": {\"Si\": 1.0}, \"32\": {\"Si\": 1.0}, \"33\": {\"Si\": 1.0}, \"34\": {\"Si\": 1.0}, \"35\": {\"Si\": 1.0}, \"36\": {\"Si\": 1.0}, \"37\": {\"Si\": 1.0}, \"38\": {\"Si\": 1.0}, \"39\": {\"Si\": 1.0}, \"40\": {\"Si\": 1.0}, \"41\": {\"Si\": 1.0}, \"42\": {\"Si\": 1.0}, \"43\": {\"Si\": 1.0}, \"44\": {\"Si\": 1.0}, \"45\": {\"Si\": 1.0}, \"46\": {\"Si\": 1.0}, \"47\": {\"Si\": 1.0}, \"48\": {\"Si\": 1.0}, \"49\": {\"Si\": 1.0}, \"50\": {\"Si\": 1.0}, \"51\": {\"Si\": 1.0}, \"52\": {\"Si\": 1.0}, \"53\": {\"Si\": 1.0}}" energy=-470.98170165281715 stress="-0.004008808261725074 0.0006353986125865312 0.00031165558944275316 0.0006353986125865312 -0.0009697299121773567 -0.0005673059197491472 0.00031165558944275316 -0.0005673059197491472 0.0015820038789748955" free_energy=-470.98170165281715 pbc="T T T"
Si       6.70752810       4.00966938       2.73127247      -0.48346572       0.40134760      -0.50721099      -0.20462224      -1.25305145       0.61083489      -8.69140101
Si       8.64606126       4.98979489       5.97180153       1.31489113       0.09967146       1.89265250       0.11429075      -0.22424921      -0.23921712      -8.68437459
Si      10.54091952       6.14481755       9.04653331       0.90185543       0.78431075       1.59013133       0.40813525      -0.02804347       0.07255981      -8.72390084
Si       8.67417281       7.20873390       2.70637138      -1.23494709      -0.09450995      -2.56578769      -0.32234726      -0.09378424       0.55315656      -8.75434418
Si      10.56187262       8.20171268       5.90658962      -1.89505111      -0.40719603      -0.11423087      -0.12082977       2.27551671      -1.28133186      -8.69323404
Si      12.58634971       9.42219808       9.06347891       1.53672108      -0.35729999       0.33659477      -0.41116983      -0.34397603      -1.04186978      -8.71434224
Si      10.52302720      10.60797147       2.75209259       0.45415524       0.59549042       0.24068490       0.94578092      -0.40394388      -0.31741967      -8.71283563
Si      12.49370772      11.59747788       5.88557774       1.04640528      -0.94271447      -0.12448761       0.06909090       0.06429608      -0.03069429      -8.77207807
Si      14.48054074      12.75729699       9.03909613      -0.12663029       1.03738812       0.36256703       0.04378225      -0.15303353      -0.30241914      -8.72819905
Si      10.68224523       3.95520315       2.80961835       1.21789524       0.45177899      -0.08783201      -1.16399904      -0.48478058      -0.01044488      -8.70201236
Si      12.49787421       5.03787352       5.94281215      -0.84190891       0.03168012      -0.75961183       0.18969423      -0.21930733       0.14696647      -8.71771304
Si      14.44687665       6.21293924       9.20166234       0.63549764       0.39816012       0.16467558       0.28930940      -1.20332582      -1.30929194      -8.69586971
Si      12.50932626       7.20462274       2.80889908       0.39060342      -0.53617858       1.44948071       0.25164164       1.42260714      -0.80084965      -8.73591645
Si      14.43260735       8.27446113       5.89676634       0.12587054      -0.28993150       1.20998072       0.09998520       0.61464368      -0.46635723      -8.69018063
Si      16.39604688       9.45587440       9.08390324       0.88050992       0.84961642       0.13913189       0.00470770       0.09546250      -0.38813812      -8.75796737
Si      14.48372632      10.63264263       2.69723319      -0.05253298      -0.15967878       0.24838665       0.13608116      -0.24158282       0.88712598      -8.76443807
Si      16.45983205      11.70544559       5.93293642      -0.65065857      -0.12086828       1.37527633      -0.37862772      -1.15995920      -0.38868166      -8.69443724
Si      18.40379067      12.82418976       9.07678376      -0.02078684       0.65898543      -1.34776871      -0.51643319      -0.18613887      -0.12717755      -8.75183908
Si      14.30241843       3.96341992       2.76055961      -1.38959236       1.10478588      -0.46352356       0.52703364      -0.83644945       0.23992897      -8.72135803
Si      16.19157059       4.95843689       5.90787673      -1.13322729       0.52349874      -0.58826914       0.97745087      -0.28506774      -0.05514562      -8.69967834
Si      18.30554097       6.09574458       9.10998057       0.45759814      -0.88409655       0.42462237      -0.66524753       0.08954981      -0.83155551      -8.70242502
Si      16.35270713       7.15830775       2.66752263       0.43525127      -0.07087710       0.49506044      -0.13245521       0.79829792      -0.26831514      -8.72026086
Si      18.26075609       8.24661248       5.74197147       0.45248924      -2.78714124      -1.29418605       0.02441688       0.06619567       0.96680181      -8.76076945
Si      20.13356681       9.48818472       8.95932252      -1.56113877       0.26451920      -0.62607076       0.81364674      -0.26276247       0.32631433      -8.70953631
Si      18.33575048      10.50995420       2.62597944       0.64621214       0.01059008      -1.65650828       0.14783304       0.50014140       0.56157962      -8.73218459
Si      20.11996303      11.69829349       5.94877233      -1.07896178      -0.20175225       0.29868868       0.67160251      -1.42639639      -0.48409896      -8.72622588
Si      22.14936350      12.79330960       8.96680321      -0.16975629      -0.05310747       0.16016883      -0.42681599      -0.34995003       0.12508926      -8.74717910
Si       0.93772478       0.48132894       0.29507827      -0.80383558      -0.80786131       0.84485523       0.99703932       0.74087325       0.33609667      -8.74661752
Si       2.87361727       1.69657599       3.60769607       1.88958829       0.48362937      -0.61138420      -0.62751126       0.26950220      -0.83584328      -8.69773031
Si       4.75566879       2.66996254       6.65844847       0.61006854      -0.74282900      -0.81347895       0.48054950       0.92906646      -0.32677269      -8.72241827
Si       2.85003005       3.94252767       0.43943047      -0.23941536       1.21094126      -0.36849158       0.07770088       0.07701634      -0.45525680      -8.76217822
Si       4.68363133       4.98845852       3.51364621       0.33935557       0.04464683       0.13482970       0.64136398       0.16527533       0.39583641      -8.74700546
Si       6.64997595       6.05956675       6.68434206      -1.35825622       0.55085255       0.19168622       0.09222560       0.01173492       0.08927570      -8.70462495
Si       4.89340620       7.23526124       0.25883117      -1.37718716      -0.66134401      -0.22559228      -1.03044741      -0.42100568       0.75497068      -8.68291214
Si       6.72373950       8.34880613       3.42650371      -0.17927131      -0.49432504      -0.46440110      -0.04053169      -0.81709406      -0.08532910      -8.74163991
Si       8.61795724       9.35181987       6.60886940      -0.12168368      -0.04629172      -0.59653928      -0.26537252       0.44728625      -0.03457033      -8.69090396
Si       4.90396572       0.55898263       0.31672864       1.47815807      -0.46146925       0.56939324      -0.90497143       0.31885752       0.91948346      -8.71296779
Si       6.75219714       1.66225205       3.54073777      -0.58210817      -0.02374521      -0.40738773      -0.26596965       0.72491730      -0.44967610      -8.69490318
Si       8.68108468       2.67814600       6.67961111       1.88441471      -0.51227654      -0.26333444      -0.09153525       0.64163439      -0.02020268      -8.74779653
Si       6.74654686       3.85280571       0.39588841      -0.98051149      -0.85044377       0.13577244      -0.96884695       0.87913150       0.50393404      -8.74507150
Si       8.64411131       5.01890874       3.58537359       0.45377496       0.11933267       0.57521473       0.42590467      -0.06081884       0.03341939      -8.72351801
Si      10.65100008       6.17044015       6.69621990      -0.92674193       0.71182567       2.36661287      -1.28082925      -1.96779093       0.75028192      -8.69325353
Si       8.67876291       7.20240897       0.40794987      -0.06113794      -0.60937046      -1.22302474       0.36239371       0.21893232      -0.39707254      -8.76077205
Si      10.56775865       8.31008999       3.47150451       0.50114000      -0.33949610      -0.23286834       0.00560880       0.52904136       0.78861964      -8.69078315
Si      12.45284402       9.37384349       6.64186551      -0.95053594       0.00424823      -1.47466961       0.65845399       0.04413466       0.52343746      -8.71883287
Si       8.72727652       0.59422655       0.40380719       0.68025506       0.59863394      -1.00559285       0.29186853       0.38794870      -0.20425601      -8.72312957
Si      10.72663551       1.65417549       3.50383007      -1.07327509       0.44846775       0.51979820      -0.62758188       0.43922727       0.41630605      -8.70049336
Si      12.55912659       2.83822280       6.74013029      -0.83072879      -0.15640783       0.16014682      -0.71473870       0.16057783       0.12300772      -8.74660411
Si      10.58615980       3.93420963       0.45435613       0.09189943       0.66885212       0.53433146       0.93052360       0.00861008       0.33536441      -8.74973498
Si      12.49124404       5.11889860       3.62119740      -1.18842294       0.82008957      -1.17546656       0.15790806      -0.91604007       0.15796657      -8.73852099
Si      14.36286974       6.10447314       6.78653472       0.63881050       0.37514311       1.44471476       0.41088452       0.32280363       0.23399240      -8.72740242
Si      12.51204913       7.28276467       0.43892230       0.91826022       0.11843633       0.58127973       0.06484858      -0.32808099      -0.01618494      -8.73127099
Si      14.45485927       8.38353771       3.43956968       0.11187970       0.88770841       0.55080258       0.17873542      -0.35075764       0.80505119      -8.69215083
Si      16.42067202       9.35804325       6.71744138       1.21820879      -1.64341870       0.00017846      -0.32960846       0.77410849      -0.48922884      -8.68376386
54
Lattice="11.5478352 0.0 0.0 5.773917198490155 10.000722372470358 0.0 5.773916394327279 3.333571176804646 9.428767828939895" Properties=species:S:1:pos:R:3:momenta:R:3:forces:R:3:energies:R:1 spacegroup="_JSON {\"number\": 1, \"setting\": 1}" unit_cell=conventional occupancy="_JSON {\"0\": {\"Si\": 1.0}, \"1\": {\"Si\": 1.0}, \"2\": {\"Si\": 1.0}, \"3\": {\"Si\": 1.0}, \"4\": {\"Si\": 1.0}, \"5\": {\"Si\": 1.0}, \"6\": {\"Si\": 1.0}, \"7\": {\"Si\": 1.0}, \"8\": {\"Si\": 1.0}, \"9\": {\"Si\": 1.0}, \"10\": {\"Si\": 1.0}, \"11\": {\"Si\": 1.0}, \"12\": {\"Si\": 1.0}, \"13\": {\"Si\": 1.0}, \"14\": {\"Si\": 1.0}, \"15\": {\"Si\": 1.0}, \"16\": {\"Si\": 1.0}, \"17\": {\"Si\": 1.0}, \"18\": {\"Si\": 1.0}, \"19\": {\"Si\": 1.0}, \"20\": {\"Si\": 1.0}, \"21\": {\"Si\": 1.0}, \"22\": {\"Si\": 1.0}, \"23\": {\"Si\": 1.0}, \"24\": {\"Si\": 1.0}, \"25\": {\"Si\": 1.0}, \"26\": {\"Si\": 1.0}, \"27\": {\"Si\": 1.0}, \"28\": {\"Si\": 1.0}, \"29\": {\"Si\": 1.0}, \"30\": {\"Si\": 1.0}, \"31\": {\"Si\": 1.0}, \"32\": {\"Si\": 1.0}, \"33\": {\"Si\": 1.0}, \"34\": {\"Si\": 1.0}, \"35\": {\"Si\": 1.0}, \"36\": {\"Si\": 1.0}, \"37\": {\"Si\": 1.0}, \"38\": {\"Si\": 1.0}, \"39\": {\"Si\": 1.0}, \"40\": {\"Si\": 1.0}, \"41\": {\"Si\": 1.0}, \"42\": {\"Si\": 1.0}, \"43\": {\"Si\": 1.0}, \"44\": {\"Si\": 1.0}, \"45\": {\"Si\": 1.0}, \"46\": {\"Si\": 1.0}, \"47\": {\"Si\": 1.0}, \"48\": {\"Si\": 1.0}, \"49\": {\"Si\": 1.0}, \"50\": {\"Si\": 1.0}, \"51\": {\"Si\": 1.0}, \"52\": {\"Si\": 1.0}, \"53\": {\"Si\": 1.0}}" energy=-470.73509714819545 stress="-0.0014510839184140524 -0.0004554037006137691 0.00016598461439428308 -0.0004554037006137691 0.0005103334842801442 -0.00027958209153950634 0.00016598461439428308 -0.00027958209153950634 -0.0001979844768720713" free_energy=-470.73509714819545 pbc="T T T"
Si       6.68279844       3.98436623       2.73451408      -0.30054419      -1.23724175       0.70834606       0.41565140      -0.75037433       0.91642926      -8.71425540
Si       8.70354904       4.98713093       6.05294263       0.58863782      -0.20252861       1.05248318      -1.02124167      -0.22536969      -0.83678848      -8.67318068
Si      10.58727554       6.17574109       9.13162542       0.52393559       0.23787872       1.64459834      -0.89712422      -0.63447774       0.02954405      -8.71487466
Si       8.61188922       7.19907284       2.60864342      -0.87061617      -0.29990075      -0.98719006       0.73945414      -0.19488600       1.23778139      -8.71473383
Si      10.47047001       8.25269174       5.85828653      -1.35690482       1.83526743      -1.43989250       0.78169272       0.39345929      -0.20221542      -8.74730022
Si      12.62818327       9.39078367       9.03573397      -0.25483178      -0.77361631      -1.39080045      -1.63410527      -0.07058967      -1.03746204      -8.65616688
Si      10.58246352      10.61613796       2.75211247       1.66937821      -0.35816272      -0.19529395       0.39461738      -0.69993643      -0.13774533      -8.75575753
Si      12.54998244      11.56062758       5.87380869       1.07373762      -0.28626641      -0.38084910      -0.04051475       0.75034736      -0.24668444      -8.74482845
Si      14.47911951      12.79886799       9.04474874       0.13190147       0.46633639      -0.15265659       0.27587533      -0.47814763      -0.32505290      -8.68219922
Si      10.68759198       3.95609065       2.80518724      -1.13747690      -0.44032397      -0.04090010      -1.65079418      -0.56746403       0.15102637      -8.73526480
Si      12.46323755       5.03918148       5.91831686      -0.47283541       0.14905291      -0.01271125       0.22064594       0.29418354       0.78147148      -8.67191875
Si      14.48299856       6.19702766       9.17147032       0.60170400      -0.71324956      -1.01029051      -0.24055334      -0.09539139      -0.13698323      -8.73933754
Si      12.54074389       7.24021339       2.84617224       0.78718544       1.82211401      -0.04427248       0.16525210       1.17272235      -0.88663510      -8.73672671
Si      14.44201235       8.28413399       5.93841831       0.22156584       0.62246633       0.36424423       0.05643106       0.47857553      -0.52839739      -8.68321395
Si      16.44293333       9.49707890       9.07554806       0.92555130       0.59667276      -0.45362984       0.07399930      -0.39371303      -0.37544965      -8.74955788
Si      14.48152077      10.62054192       2.73178417      -0.11085211      -0.20171203       0.82028047      -0.16561426       0.14299300      -0.07156798      -8.76126818
Si      16.42411287      11.64849743       5.98049303      -0.49649577      -2.04743670       0.30932020       0.43241451      -1.14427002      -0.89770471      -8.71203888
Si      18.39286553      12.84715800       9.01516975      -0.24359578       0.18940403      -0.74737540       0.06763875      -0.29973028       0.85666254      -8.73689394
Si      14.26219187       3.98994946       2.74593853       0.02833695      -0.02149710      -0.12011906       1.20589322      -0.56427935       0.14597394      -8.70274147
Si      16.17424511       4.96965397       5.88022158       0.47441056      -0.13355733      -0.36377470       0.99781868      -0.44739476       0.34681615      -8.71042911
Si      18.30168539       6.06022557       9.10195252      -0.56882183      -0.34032771      -0.65330140      -0.54402869       0.59462959      -0.53613864      -8.68347822
Si      16.36242014       7.18265784       2.68014020      -0.20126438       0.87492512      -0.03271841      -0.66687238       0.32751680      -0.34945618      -8.73635912
Si      18.28615208       8.12272602       5.71315850       0.50864758      -1.60734643       0.13278249      -0.00846217       1.35022099       0.74630699      -8.71871800
Si      20.08951105       9.49025687       8.93526778      -0.07999018      -0.19145196      -0.36643376       0.97174878      -0.28498860       0.04186928      -8.74558191
Si      18.36826287      10.53019585       2.58574246       0.46365125       0.72785731       0.48583496      -0.37022937       0.38327209       1.96336584      -8.66768436
Si      20.09492098      11.64165317       5.94071837       0.13454633      -1.64881978      -0.66406248       0.73901889      -0.23014207      -0.73259117      -8.72575921
Si      22.12746070      12.77273242       8.97241445      -0.52822006      -0.76887996      -0.05151198       0.08960894      -0.50413491      -0.29164979      -8.75372289
Si       0.93403371       0.46796263       0.33763056       0.55775842       0.23847587       0.52064087       0.61593122       0.52851672      -0.63307187      -8.77047850
Si       2.93455371       1.73156446       3.54935225       0.30852986       0.77085356      -1.47619932      -1.13201336      -0.04465200      -0.30490750      -8.69066036
Si       4.79917054       2.66696848       6.60998278       0.90495683       0.54603229      -0.90828883      -0.07496836       0.61685652       0.16688968      -8.70059952
Si       2.84036009       3.99921231       0.40628333      -0.14485592       0.74969357      -0.80302875       0.01784384      -0.70884483      -0.09560749      -8.73843904
Si       4.71434579       4.99787428       3.53052626       0.62465438       0.33514306       0.38941581      -0.16079973       0.24361408      -0.06694956      -8.74708357
Si       6.59233166       6.07058878       6.69918990      -0.67939293      -0.43498292       0.39576778       0.73477721      -1.16890450       0.16091563      -8.66498433
Si       4.79798838       7.18589960       0.27376882      -1.93584774      -1.14979823       0.70638410       0.24070635      -0.14805280       0.41371839      -8.66761374
Si       6.71557591       8.30216130       3.39474462      -0.07751339      -1.03833625      -0.75279690       0.17246069       0.13116689      -0.11199666      -8.75421731
Si       8.59212044       9.36445891       6.57793212      -0.98523503       0.46380226      -0.53296638      -0.73750801       0.18541064       0.15791221      -8.71337671
Si       4.93771620       0.55340399       0.37814360      -0.24883011       0.29917371       1.63777950      -1.14482454       0.51942994       0.38660791      -8.70401197
Si       6.72055496       1.68841639       3.50801325      -0.42788935       0.94450221      -0.69592106       0.50094081       0.42380936       0.11233058      -8.72574012
Si       8.75823344       2.67923340       6.67371045       0.77619513       0.55422283       0.15509543      -1.16885450       0.63390924       0.43099146      -8.73478692
Si       6.68455853       3.84690763       0.42020783      -0.82137712       0.64745020       0.73313003       1.16905301       0.97826946       0.28319087      -8.73996456
Si       8.68011634       5.02434903       3.61449054       0.79451133       0.10426037       0.49115945      -0.06030260       0.00405610      -0.13136882      -8.64590489
Si      10.56964068       6.14352452       6.83242849      -1.83234419      -1.28252748       2.42402942       0.06338911      -0.31213266      -0.77353688      -8.76065314
Si       8.69457056       7.18890853       0.32808173       0.67595300       0.20586251      -1.78536355       0.39985520       0.65153475      -0.25378508      -8.77067647
Si      10.58032265       8.31104528       3.48314599      -0.22060068       0.33796278       0.49712603      -0.77385986       0.37751410       0.09008143      -8.68664682
Si      12.42937039       9.36909954       6.59398719       0.02596967      -0.26852642      -0.26575730       0.55042443      -0.27688274       0.86987217      -8.70297563
Si       8.76663778       0.63392333       0.35376282       0.66253575       0.73679292      -0.70393763      -0.31594883      -0.30423687       0.57097413      -8.73147726
Si      10.66217348       1.68829787       3.54383703      -1.12172927       0.71336374       0.93582515       0.40350542      -0.11074206       0.14354085      -8.67095276
Si      12.49392257       2.83728299       6.74228241      -1.46790061       0.05732239      -0.30006282      -0.00001998      -0.06716375      -0.72009310      -8.76623289
Si      10.62640093       3.96736706       0.48885587       1.32215865       0.53463958       0.61649246       0.48410600      -0.22650405      -0.30231856      -8.73184180
Si      12.44353414       5.12330114       3.57949246      -0.51717680      -0.55268780      -0.26776250       0.60299760      -0.55654193       0.74708627      -8.74148139
Si      14.39865555       6.12880292       6.85616616       0.53084797       0.41807754       0.88212555      -0.36312775      -0.20482942      -1.05273664      -8.72777753
Si      12.55525357       7.28621161       0.46951683       0.62423838       0.19081621       0.55825861      -0.34211096       0.36154260      -0.12498256      -8.70369319
Si      14.47044471       8.40841833       3.50034121       0.52110241      -0.01168048       1.73455182       0.33142585      -0.63676676       0.68293779      -8.70672530
Si      16.46987268       9.30534685       6.70032659       0.64054075      -0.35956397      -0.59580287      -0.40129911       0.80799336      -0.27041950      -8.66210960
54
Lattice="11.5478352 0.0 0.0 5.773917198490155 10.000722372470358 0.0 5.773916394327279 3.333571176804646 9.428767828939895" Properties=species:S:1:pos:R:3:momenta:R:3:forces:R:3:energies:R:1 spacegroup="_JSON {\"number\": 1, \"setting\": 1}" unit_cell=conventional occupancy="_JSON {\"0\": {\"Si\": 1.0}, \"1\": {\"Si\": 1.0}, \"2\": {\"Si\": 1.0}, \"3\": {\"Si\": 1.0}, \"4\": {\"Si\": 1.0}, \"5\": {\"Si\": 1.0}, \"6\": {\"Si\": 1.0}, \"7\": {\"Si\": 1.0}, \"8\": {\"Si\": 1.0}, \"9\": {\"Si\": 1.0}, \"10\": {\"Si\": 1.0}, \"11\": {\"Si\": 1.0}, \"12\": {\"Si\": 1.0}, \"13\": {\"Si\": 1.0}, \"14\": {\"Si\": 1.0}, \"15\": {\"Si\": 1.0}, \"16\": {\"Si\": 1.0}, \"17\": {\"Si\": 1.0}, \"18\": {\"Si\": 1.0}, \"19\": {\"Si\": 1.0}, \"20\": {\"Si\": 1.0}, \"21\": {\"Si\": 1.0}, \"22\": {\"Si\": 1.0}, \"23\": {\"Si\": 1.0}, \"24\": {\"Si\": 1.0}, \"25\": {\"Si\": 1.0}, \"26\": {\"Si\": 1.0}, \"27\": {\"Si\": 1.0}, \"28\": {\"Si\": 1.0}, \"29\": {\"Si\": 1.0}, \"30\": {\"Si\": 1.0}, \"31\": {\"Si\": 1.0}, \"32\": {\"Si\": 1.0}, \"33\": {\"Si\": 1.0}, \"34\": {\"Si\": 1.0}, \"35\": {\"Si\": 1.0}, \"36\": {\"Si\": 1.0}, \"37\": {\"Si\": 1.0}, \"38\": {\"Si\": 1.0}, \"39\": {\"Si\": 1.0}, \"40\": {\"Si\": 1.0}, \"41\": {\"Si\": 1.0}, \"42\": {\"Si\": 1.0}, \"43\": {\"Si\": 1.0}, \"44\": {\"Si\": 1.0}, \"45\": {\"Si\": 1.0}, \"46\": {\"Si\": 1.0}, \"47\": {\"Si\": 1.0}, \"48\": {\"Si\": 1.0}, \"49\": {\"Si\": 1.0}, \"50\": {\"Si\": 1.0}, \"51\": {\"Si\": 1.0}, \"52\": {\"Si\": 1.0}, \"53\": {\"Si\": 1.0}}" energy=-470.97652265331203 stress="0.0033251332168687054 -0.0008485623744455613 -0.0008086774351135221 -0.0008485623744455613 -0.0008549112589563688 0.0012793608733039006 -0.0008086774351135221 0.0012793608733039006 -0.0017917736563579513" free_energy=-470.97652265331203 pbc="T T T"
Si       6.68685995       3.91050033       2.80123726       0.48467456      -1.13139034       1.65645848       0.53763665       0.99383045       0.22355618      -8.72235611
Si       8.68916822       4.96823332       6.07143760      -1.13342531      -0.48004677      -0.38553919      -1.00369326      -0.07571856      -0.99085446      -8.71784978
Si      10.57674351       6.16498076       9.21714813      -0.82448289      -0.53714576       1.56478685      -0.53193556      -0.21656540      -0.18896564      -8.74164790
Si       8.60223482       7.17583564       2.59578583       0.57201121      -0.56011800       0.25784275       1.01427104      -0.08886425       0.33072973      -8.71303604
Si      10.43346977       8.34110015       5.79668713      -0.05941237       1.21613614      -0.54436509       0.77999645      -0.90278818       1.22016283      -8.64553249
Si      12.55955719       9.35944883       8.93846687      -2.11044176      -0.18742934      -1.94385482      -0.68950801       0.82721969       0.42409848      -8.68863596
Si      10.66562615      10.57724865       2.74566133       1.15295015      -0.94360236       0.13093077      -0.95640875       0.00091762       0.55684202      -8.73592542
Si      12.60070435      11.57603732       5.84740257       0.77405696       0.83458001      -0.53013618      -0.37899541       0.60735123       0.12474161      -8.70406143
Si      14.49658413      12.80801105       9.02823904       0.50539961      -0.01985567      -0.37707154       0.16502382      -0.10505191       0.06212340      -8.73170194
Si      10.58153705       3.91917638       2.81286155      -2.46573652      -0.79192639       0.37430877       0.04662581       0.09772323       0.29820409      -8.79264531
Si      12.44423644       5.05897688       5.94817355      -0.31276547       0.57731173       1.08507072      -0.01672426       0.18442984       0.52843265      -8.71235921
Si      14.50505493       6.17239468       9.12810295       0.26612785       0.00691073      -0.45670091      -0.14974495       0.81088175       0.58819667      -8.71371374
Si      12.58005879       7.35464651       2.82209374       0.54246661       2.06005020      -0.61577582      -0.48522264      -0.69385646       0.10897302      -8.73365546
Si      14.45622703       8.32650551       5.94389081       0.32829458       0.81154934       0.01474913       0.08317738      -0.22706573       0.13479618      -8.71305928
Si      16.49386200       9.51056595       9.04016090       0.99026896      -0.09242969      -0.82644901      -0.03202373      -0.43832947      -0.10567865      -8.74511085
Si      14.47059335      10.61605608       2.76523644      -0.24150974       0.00219009       0.37856582       0.08172876       0.03460214      -0.38623069      -8.70205364
Si      16.41188071      11.51833213       5.96481368      -0.09391605      -2.40722752      -0.80700689      -0.01701501       0.82652751      -0.52258348      -8.74379958
Si      18.38091099      12.85056292       9.01110751      -0.28595346       0.05179964       0.52027916      -0.20591662       0.12966853       0.59282637      -8.72510261
Si      14.30608264       3.97593454       2.74176234       1.48347626      -0.33192671      -0.10181568       0.58946951       0.13311000      -0.09665083      -8.74584904
Si      16.22775077       4.95037427       5.87683683       1.34007566      -0.48475309       0.23055010       0.12270700       0.00303678       0.32991061      -8.75240970
Si      18.26009823       6.06589372       9.05546362      -0.82325356       0.50204682      -0.94352523       0.21207565       0.38545085       0.14991451      -8.72230662
Si      16.32647804       7.23031464       2.66895250      -1.08571803       0.75851923      -0.29062439      -0.34054783      -0.38790334       0.05180966      -8.76307484
Si      18.30746206       8.09165837       5.73915455       0.18406523       0.29764540       0.67541170      -0.47530009       0.88568826       0.02827755      -8.68322284
Si      20.11306266       9.47254976       8.91735523       0.74361155      -0.41893449      -0.29894676       0.07258237      -0.04265215       0.10679087      -8.74390130
Si      18.37236303      10.57716041       2.67560049      -0.41074883       0.92767752       2.55343328      -0.77847012      -0.14992972       0.50522676      -8.69118279
Si      20.12312684      11.57218614       5.87845984       0.79580886      -0.55739078      -1.67325684       0.17717330       1.48103451      -0.58353502      -8.66366326
Si      22.11226203      12.71786069       8.95978361       0.07877969      -1.19966911      -0.37335554       0.60279154      -0.02370433      -0.07511832      -8.73673400
Si       0.97514387       0.49382715       0.34365327       0.79257782       0.62142958      -0.12484761      -0.23622791       0.03512570      -0.02538766      -8.75985296
Si       2.91948513       1.75928181       3.46964720      -0.57756331       0.09603365      -1.37728939       0.04019203      -0.77201297       0.42138252      -8.71460448
Si       4.83818217       2.70619318       6.57316272       0.50158038       0.67667951      -0.43557490      -0.40092448      -0.44376965       0.40844136      -8.70693939
Si       2.83137172       4.00418118       0.36663809      -0.24407980      -0.62415204      -0.60059111      -0.16470086      -0.95942600       0.32993105      -8.71303725
Si       4.73812823       5.02450706       3.54368358       0.28740566       0.65047667       0.05697684      -0.15125580       0.12750718      -0.28302024      -8.72940497
Si       6.58900989       6.00516877       6.72214342       0.59437893      -1.86949271       0.36156784       0.90066919      -0.44853750      -0.29039006      -8.70636995
Si       4.71901697       7.12778031       0.31761945      -0.87438157      -0.91883098       0.77713214       1.03873887       0.42893456      -0.32427344      -8.68899514
Si       6.71932680       8.26362395       3.35963802       0.22117762      -0.28007939      -0.41728205       0.17840561       0.72676177       0.53544098      -8.74441296
Si       8.51946360       9.38890878       6.55950555      -1.55729041       0.35011185      -0.11816154       0.14331192      -0.24793230       0.35970901      -8.75908111
Si       4.89118542       0.58154511       0.46362362      -1.28380000       0.59545295       1.32517908      -0.21598969      -0.16763575      -0.75666178      -8.71977853
Si       6.72457179       1.73981427       3.48424079       0.65161583       0.68313623      -0.07310217       0.78096685      -0.86819952       0.65012387      -8.75562372
Si       8.75833660       2.72107296       6.69386042      -0.58231929       0.77130576       0.47593164      -0.46928955      -0.39801493      -0.08907025      -8.72961363
Si       6.69619911       3.90818369       0.46520042       1.24284728       1.41627090       0.89682446       1.13374799      -0.06826771      -0.04694196      -8.72406783
Si       8.70872113       5.02908258       3.63506721       0.08884711       0.05835228       0.31495652      -0.87285058      -0.06142316      -0.05195385      -8.65493272
Si      10.49084572       6.08745405       6.91566676      -0.96937283      -0.52514366       0.60464150       0.85676147       1.01128443      -1.37468824      -8.65454332
Si       8.73352771       7.21657678       0.23344821       0.57098869       0.63243811      -1.64742233      -0.51072404      -0.18082506       0.42924899      -8.74668658
Si      10.54243451       8.33905594       3.50076185      -1.08343485       0.62290891      -0.01557719      -0.24131653      -0.04412601      -0.63552191      -8.72596738
Si      12.44540138       9.34926463       6.60441038       0.44437388      -0.35053794       0.40386511       0.00657761       0.24986010      -0.13748393      -8.74647131
Si       8.78455128       0.65023784       0.34407617      -0.02035309      -0.26300163       0.37618499      -0.48472090      -0.87650771       0.73991402      -8.73535377
Si      10.62259300       1.71307779       3.59386531      -0.38302703       0.08876819       0.87942231       0.43557710      -0.66544038      -0.22572949      -8.69834014
Si      12.42983212       2.82939593       6.69814233      -0.76357216      -0.49197628      -1.29018584       0.84111845      -0.58416320      -0.38115972      -8.72573671
Si      10.69891572       3.98349358       0.50175702       1.14404519       0.04819332      -0.20535208      -0.69027162      -0.35204368      -0.61475332      -8.71268454
Si      12.43684518       5.08807036       3.58743313       0.16692399      -0.55216673       0.41124339       0.24962443       0.37884969       0.14716642      -8.73733076
Si      14.41210576       6.13996873       6.84947679       0.01888572      -0.01914078      -1.23835735      -0.22943044      -0.31816617      -1.44112514      -8.71676807
Si      12.57672998       7.31205976       0.48698569       0.26882886       0.77529317      -0.02559919      -0.06697143       0.29434830      -0.63651273      -8.71901289
Si      14.50797897       8.39203706       3.60696975       0.81780613      -0.39945881       2.07574048      -0.03463507       0.18053659      -0.32028460      -8.75425355
Si      16.48915795       9.30951698       6.66417835       0.13220750       0.30455902      -0.66428718      -0.26013565      -0.02575952       0.19760401      -8.71206784
54
Lattice="11.5478352 0.0 0.0 5.773917198490155 10.000722372470358 0.0 5.773916394327279 3.333571176804646 9.428767828939895" Properties=species:S:1:pos:R:3:momenta:R:3:forces:R:3:energies:R:1 spacegroup="_JSON {\"number\": 1, \"setting\": 1}" unit_cell=conventional occupancy="_JSON {\"0\": {\"Si\": 1.0}, \"1\": {\"Si\": 1.0}, \"2\": {\"Si\": 1.0}, \"3\": {\"Si\": 1.0}, \"4\": {\"Si\": 1.0}, \"5\": {\"Si\": 1.0}, \"6\": {\"Si\": 1.0}, \"7\": {\"Si\": 1.0}, \"8\": {\"Si\": 1.0}, \"9\": {\"Si\": 1.0}, \"10\": {\"Si\": 1.0}, \"11\": {\"Si\": 1.0}, \"12\": {\"Si\": 1.0}, \"13\": {\"Si\": 1.0}, \"14\": {\"Si\": 1.0}, \"15\": {\"Si\": 1.0}, \"16\": {\"Si\": 1.0}, \"17\": {\"Si\": 1.0}, \"18\": {\"Si\": 1.0}, \"19\": {\"Si\": 1.0}, \"20\": {\"Si\": 1.0}, \"21\": {\"Si\": 1.0}, \"22\": {\"Si\": 1.0}, \"23\": {\"Si\": 1.0}, \"24\": {\"Si\": 1.0}, \"25\": {\"Si\": 1.0}, \"26\": {\"Si\": 1.0}, \"27\": {\"Si\": 1.0}, \"28\": {\"Si\": 1.0}, \"29\": {\"Si\": 1.0}, \"30\": {\"Si\": 1.0}, \"31\": {\"Si\": 1.0}, \"32\": {\"Si\": 1.0}, \"33\": {\"Si\": 1.0}, \"34\": {\"Si\": 1.0}, \"35\": {\"Si\": 1.0}, \"36\": {\"Si\": 1.0}, \"37\": {\"Si\": 1.0}, \"38\": {\"Si\": 1.0}, \"39\": {\"Si\": 1.0}, \"40\": {\"Si\": 1.0}, \"41\": {\"Si\": 1.0}, \"42\": {\"Si\": 1.0}, \"43\": {\"Si\": 1.0}, \"44\": {\"Si\": 1.0}, \"45\": {\"Si\": 1.0}, \"46\": {\"Si\": 1.0}, \"47\": {\"Si\": 1.0}, \"48\": {\"Si\": 1.0}, \"49\": {\"Si\": 1.0}, \"50\": {\"Si\": 1.0}, \"51\": {\"Si\": 1.0}, \"52\": {\"Si\": 1.0}, \"53\": {\"Si\": 1.0}}" energy=-470.5534578715898 stress="0.0022877685997566067 0.00010794527326707256 -0.0004011310172275128 0.00010794527326707256 -0.0007093260154279763 0.0008697103358150537 -0.0004011310172275128 0.0008697103358150537 -0.0004433003481678262" free_energy=-470.5534578715898 pbc="T T T"
Si       6.72816211       3.90474349       2.88317276       0.96090314       0.99291596       1.24146577       0.02613982       1.30137398      -0.67036527      -8.72064459
Si       8.60984344       4.94424619       6.01854424      -1.45049178      -0.38774127      -1.48607309       0.70934602       0.09772454      -0.42868667      -8.76263494
Si      10.53139814       6.13936075       9.28308999      -0.56776784      -0.26136727       0.76322434       0.78117601       0.47979319      -0.91219355      -8.70828459
Si       8.66188408       7.14837044       2.61014232       1.45004970      -0.38337881       0.10096884       0.03741843       0.30921408      -0.41495805      -8.71751576
Si      10.45274006       8.36668754       5.81655024       0.62741699      -0.24740161       1.18858640       0.13207695      -0.94105817       0.80372385      -8.63688923
Si      12.44020736       9.38432804       8.87333591      -2.10212951       1.08933971      -0.25530835       0.66210355       0.65316155       1.51521991      -8.68682055
Si      10.68346915      10.53921439       2.77512487      -0.48926338      -0.31748356       0.92538129      -1.04039260       0.73738945       0.30705539      -8.70062176
Si      12.62210226      11.63346183       5.83161273      -0.03089632       1.14472975       0.04779891      -0.66933755      -0.21344744       0.59071823      -8.69656697
Si      14.52414713      12.80824056       9.01612760       0.42528853       0.09375954      -0.00889397      -0.31072154       0.14130998       0.35826924      -8.76528125
Si      10.47842202       3.88664030       2.83885713      -1.09155140      -0.38433346       0.50799226       1.51918742       0.37093504      -0.11244120      -8.72403496
Si      12.42493935       5.08903425       6.01322262      -0.45047843       0.40546508       1.14246491      -0.12067469      -0.45182495      -0.45633607      -8.76727491
Si      14.51553901       6.19841854       9.11993315       0.17164182       0.78240427      -0.04401355      -0.00429906       0.03723556      -0.12745416      -8.72895920
Si      12.58568193       7.42382138       2.80199444      -0.35655484       0.43540727      -0.06539872      -0.60864326      -1.28313721       0.44969506      -8.66598774
Si      14.47534087       8.35320868       5.95832510       0.35930527       0.10831748       0.63844818      -0.08025211      -0.61926270       0.52206440      -8.72013085
Si      16.53970901       9.49319976       8.99766043       0.65801977      -0.46971443      -0.69975568      -0.42368610      -0.05313426       0.26958764      -8.73108171
Si      14.46736746      10.61191337       2.77203384       0.22865702      -0.27472213      -0.06364273       0.50892499      -0.41037072      -0.17630922      -8.69377746
Si      16.40028458      11.44754061       5.91116345      -0.42525992      -0.00731740      -1.04507816      -0.32348066       1.93847480       0.24911580      -8.69230482
Si      18.35408847      12.86226006       9.04778229      -0.78285073       0.44312597       0.61893254      -0.38365872       0.32077284      -0.41706651      -8.70832581
Si      14.39180536       3.96764490       2.73227248       1.50746176       0.02831132      -0.24532679      -0.49901648       0.19141881      -0.04027627      -8.75012604
Si      16.29133056       4.93029023       5.89506682       0.90885014      -0.21353417       0.32918450      -0.56468334       0.26590009      -0.18818243      -8.75425635
Si      18.23307457       6.09695883       9.01865483      -0.10618033       0.47894852      -0.37451635       0.60201812      -0.40339359       0.49096674      -8.73661942
Si      16.26984279       7.25274207       2.66140189      -0.81095175       0.10117231       0.08298008       0.67981635      -0.38041275       0.36341443      -8.74769925
Si      18.29422696       8.12359751       5.76890150      -0.71203538       0.59656053       0.35582517      -0.55282269      -0.36309092      -0.37465514      -8.65810224
Si      20.14468535       9.44975795       8.90901771       0.32591458      -0.44790964       0.04452705      -0.46593643      -0.02391120       0.35598141      -8.71928935
Si      18.32127966      10.61197523       2.80309968      -1.44966123       0.26930476       1.88255291      -0.42392754      -0.66129085      -1.17862570      -8.69022435
Si      20.16611647      11.60082752       5.77702452       0.75221972       1.50234730      -1.97548530      -0.18493336       0.94552187       0.27601532      -8.68547632
Si      22.13828173      12.66244540       8.94279935       0.84322998      -0.76319826      -0.16976673       0.33578245       0.57062101       0.33371490      -8.70794320
Si       1.00113259       0.52400918       0.34643341       0.11640183       0.47330994       0.37810612      -0.56592793      -0.19273138       0.56100771      -8.66959244
Si       2.90417229       1.73563875       3.41941145       0.16335720      -0.89300556      -0.49849197       0.69704101      -0.37965920       0.58029751      -8.72304268
Si       4.84794612       2.71586748       6.56592909      -0.13156122      -0.38808817       0.13575760      -0.41575794      -0.75936908       0.32128034      -8.73212843
Si       2.81050785       3.94353714       0.35087296      -0.56325075      -1.45445339       0.03579998      -0.20205686      -0.05866711       0.48022402      -8.72281787
Si       4.75265976       5.05925621       3.53875681       0.36981327       0.59367445      -0.16296076       0.24426677      -0.18851184       0.02821091      -8.71874379
Si       6.64875019       5.91151378       6.72463354       1.48656594      -1.29740200      -0.30542805       0.12565270       1.13600263      -0.44084667      -8.72106479
Si       4.71338375       7.10075461       0.33875031       0.57367289      -0.05570520      -0.04738832       0.70434631       0.66070831      -0.61483867      -8.74108319
Si       6.73561817       8.27436497       3.36154275       0.35706930       0.57970930       0.49724647       0.01152647       0.30815500       0.57554237      -8.71882334
Si       8.46014917       9.40227617       6.56625039      -0.42750820       0.30540772       0.32469397       1.21978988       0.28629587       0.16181276      -8.75484093
Si       4.82708281       0.59837556       0.49847210      -0.96556893      -0.05932428       0.00924452       0.55941303      -0.57877621      -0.75631290      -8.72919560
Si       6.78184703       1.73165319       3.50488581       1.35148276      -1.01773080       0.77983924       0.08013350      -0.95638271       0.34482799      -8.75827535
Si       8.72217426       2.73745327       6.70808307      -0.58830422      -0.21788849      -0.03209685       0.35520346      -0.68524275      -0.47343952      -8.69044766
Si       6.78654809       3.96717732       0.50759838       1.83605515       0.68645262       0.68157164      -0.29889547      -0.65202713      -0.20641729      -8.68961279
Si       8.67564183       5.03012582       3.65107545      -1.32470992       0.00284385       0.29662982      -0.75812463       0.02574199      -0.05981062      -8.72791518
Si      10.46917578       6.09982769       6.90047162       0.00046141       0.93937787      -1.00829757       0.32521886       0.80271808      -0.69896679      -8.64389610
Si       8.73876604       7.23135007       0.17068827      -0.40329153      -0.23428477      -0.64694102      -0.65432785      -0.82545125       0.82715813      -8.64424524
Si      10.48842082       8.36264547       3.48032001      -0.75120671       0.14943291      -0.56600547       0.64581542      -0.53891498       0.11517924      -8.75090795
Si      12.46418702       9.34833133       6.60534248       0.21846538       0.43581648      -0.55273611      -0.20945970       0.72715513      -0.83132494      -8.73021325
Si       8.76858632       0.60797947       0.38556310      -0.49312627      -1.17659716       1.02984018      -0.11804965      -0.22555074       0.05598720      -8.74813712
Si      10.61316388       1.69249220       3.62520812      -0.11870948      -0.79118259       0.19998568      -0.11900771      -0.34754528      -0.68082338      -8.74354071
Si      12.42630509       2.78339830       6.62824646       0.65295546      -1.14749031      -1.15499191       0.94203259      -0.14166966       0.48138069      -8.65837085
Si      10.72156967       3.97525907       0.47421816      -0.41350016      -0.29209130      -0.67966696      -1.21169099      -0.08707756       0.01194784      -8.70915154
Si      12.45025950       5.07626811       3.60938147       0.27045278       0.10776670       0.35643470      -0.04408584       0.41359243      -0.13451545      -8.63297932
Si      14.40954117       6.12843787       6.74646997      -0.01539552      -0.37461117      -2.27930187       0.15950306      -0.14405800       0.13221521      -8.73208698
Si      12.59184206       7.35658456       0.46057261       0.34973648       0.76430046      -0.92566509       0.09729009      -0.32095121      -0.42553202      -8.72816897
Si      14.53972849       8.38688306       3.68746057       0.21101274       0.31516447       0.74523196      -0.74117960       0.62243940      -1.28250090      -8.72033664
Si      16.48792778       9.31353540       6.64318113      -0.15425527      -0.26740933      -0.04748365      -0.16619295      -0.45673477       0.54026511      -8.73696549
54
Lattice="11.5478352 0.0 0.0 5.773917198490155 10.000722372470358 0.0 5.773916394327279 3.333571176804646 9.428767828939895" Properties=species:S:1:pos:R:3:momenta:R:3:forces:R:3:energies:R:1 spacegroup="_JSON {\"number\": 1, \"setting\": 1}" unit_cell=conventional occupancy="_JSON {\"0\": {\"Si\": 1.0}, \"1\": {\"Si\": 1.0}, \"2\": {\"Si\": 1.0}, \"3\": {\"Si\": 1.0}, \"4\": {\"Si\": 1.0}, \"5\": {\"Si\": 1.0}, \"6\": {\"Si\": 1.0}, \"7\": {\"Si\": 1.0}, \"8\": {\"Si\": 1.0}, \"9\": {\"Si\": 1.0}, \"10\": {\"Si\": 1.0}, \"11\": {\"Si\": 1.0}, \"12\": {\"Si\": 1.0}, \"13\": {\"Si\": 1.0}, \"14\": {\"Si\": 1.0}, \"15\": {\"Si\": 1.0}, \"16\": {\"Si\": 1.0}, \"17\": {\"Si\": 1.0}, \"18\": {\"Si\": 1.0}, \"19\": {\"Si\": 1.0}, \"20\": {\"Si\": 1.0}, \"21\": {\"Si\": 1.0}, \"22\": {\"Si\": 1.0}, \"23\": {\"Si\": 1.0}, \"24\": {\"Si\": 1.0}, \"25\": {\"Si\": 1.0}, \"26\": {\"Si\": 1.0}, \"27\": {\"Si\": 1.0}, \"28\": {\"Si\": 1.0}, \"29\": {\"Si\": 1.0}, \"30\": {\"Si\": 1.0}, \"31\": {\"Si\": 1.0}, \"32\": {\"Si\": 1.0}, \"33\": {\"Si\": 1.0}, \"34\": {\"Si\": 1.0}, \"35\": {\"Si\": 1.0}, \"36\": {\"Si\": 1.0}, \"37\": {\"Si\": 1.0}, \"38\": {\"Si\": 1.0}, \"39\": {\"Si\": 1.0}, \"40\": {\"Si\": 1.0}, \"41\": {\"Si\": 1.0}, \"42\": {\"Si\": 1.0}, \"43\": {\"Si\": 1.0}, \"44\": {\"Si\": 1.0}, \"45\": {\"Si\": 1.0}, \"46\": {\"Si\": 1.0}, \"47\": {\"Si\": 1.0}, \"48\": {\"Si\": 1.0}, \"49\": {\"Si\": 1.0}, \"50\": {\"Si\": 1.0}, \"51\": {\"Si\": 1.0}, \"52\": {\"Si\": 1.0}, \"53\": {\"Si\": 1.0}}" energy=-470.46207056358867 stress="-0.003733184210659865 0.000876021936231652 0.0004954028292892447 0.000876021936231652 0.0019078241135438608 -0.0014859215326704367 0.0004954028292892447 -0.0014859215326704367 0.0021564390822362417" free_energy=-470.46207056358867 pbc="T T T"
Si       6.76802352       3.98146632       2.91607931       0.33003404       1.38173041      -0.08295811      -0.85462923      -0.81748658      -1.05359608      -8.70622091
Si       8.58099645       4.92522114       5.93550110       0.59119151      -0.36923080      -1.43733804       1.64034390       0.00171315       0.53552413      -8.71223959
Si      10.53859792       6.14544148       9.28191986       0.87760831       0.47071340      -0.86139447       0.92938941       0.40323113      -1.12968804      -8.63858111
Si       8.72369186       7.14215559       2.59834249       0.65050518       0.15894590      -0.50927424      -0.96499244       0.37482763      -0.25258811      -8.69120154
Si      10.48378344       8.32599024       5.89212139       0.46149554      -1.06026597       1.34643044      -0.23753271       0.02815157      -0.55240430      -8.71294584
Si      12.37241872       9.45221682       8.90809710      -0.19682226       1.19550578       1.26485175       1.76740901      -0.52234205       0.33045642      -8.68852837
Si      10.62910083      10.55000510       2.82430659      -1.28630941       0.60795513       0.74115737       0.13084390       0.26834471      -0.50935543      -8.72022286
Si      12.59460337      11.67602597       5.85633080      -0.97652515       0.35345114       0.82463764      -0.50270161      -0.69953300       0.32007356      -8.74169274
Si      14.52743220      12.81399755       9.02811398      -0.41418072       0.00504808       0.41341760      -0.75230530      -0.31668103       0.16299850      -8.74398266
Si      10.47987935       3.88234911       2.85817231       1.03058544       0.24520232       0.18530295       1.08974731       0.46405208      -0.29734160      -8.66856272
Si      12.39944093       5.08652383       6.04596661      -0.44509011      -0.56722332      -0.02061389       0.17537382      -0.70849914      -0.96200947      -8.74205655
Si      14.52311512       6.22562213       9.10409539       0.05955772      -0.00751369      -0.68022444      -0.23400807      -0.99085211      -0.59986218      -8.69279777
Si      12.54821533       7.39981313       2.81068482      -0.95016685      -1.24369616       0.25694523      -0.12983832      -0.86815390      -0.09098192      -8.68195523
Si      14.48691456       8.33665679       6.00321950      -0.00158188      -0.65691967       0.84038086      -0.40770836      -0.29586991      -0.37041899      -8.73589100
Si      16.55346609       9.47079290       8.97598533      -0.19935973      -0.32371706      -0.04759315      -0.68810807       0.18895300       0.58337248      -8.72047891
Si      14.49834451      10.57947804       2.76462604       0.86939489      -0.94856078      -0.18611297       0.17570425      -0.35052347      -0.05410571      -8.75569970
Si      16.36864141      11.50843813       5.87652361      -0.67139004       1.96212699      -0.13644579       0.11325502       0.53862742       0.77755260      -8.71699295
Si      18.30288569      12.89409925       9.05665304      -1.03007443       0.65152476      -0.36771270       0.16573169      -0.14873259      -0.76847840      -8.71222178
Si      14.44306279       3.97125716       2.72153427       0.34874374       0.01470057      -0.08240012      -0.89424223      -0.16889249       0.28132048      -8.70890420
Si      16.31736879       4.92695887       5.90194789       0.14678783       0.01589986      -0.08716461      -0.33198689       0.00099787      -0.27547981      -8.73727761
Si      18.24474598       6.10087207       9.01628765       0.37091795      -0.37943626       0.23287899      -0.08592660      -0.60310225       0.29920298      -8.74576635
Si      16.26045364       7.24888111       2.67788646       0.50976969      -0.12148272       0.48455357       0.91117033       0.11337569       0.13653207      -8.71498790
Si      18.24695174       8.13689155       5.77433644      -0.82728581      -0.06412758      -0.07544474       0.45479571      -0.27441221      -0.09371616      -8.68620100
Si      20.14633485       9.42610818       8.92653203      -0.16973131      -0.42942427       0.62161450      -0.11204688       0.07154885       0.34628419      -8.72725877
Si      18.24533473      10.59994896       2.84802878      -1.11740622      -0.69576247      -0.23322761       0.83631621      -0.53998932      -1.44188087      -8.69160949
Si      20.19674185      11.69621769       5.69836529       0.41060565       1.75195115      -0.79357062      -0.20965605      -0.55801336       1.17273994      -8.72533247
Si      22.18740515      12.64917352       8.94935292       0.86240575       0.31910022       0.43709003      -0.32472815       0.82062831       0.40499544      -8.70405246
Si       0.98748637       0.54002365       0.38712072      -0.55989066       0.12005129       1.11523897      -0.26927918      -0.26402915       0.33545876      -8.66848142
Si       2.93025409       1.68634377       3.40925727       0.54943046      -0.74626859      -0.02318556      -0.38981556       0.56621877       0.07619841      -8.73557105
Si       4.82703640       2.67603960       6.58330928      -0.61111477      -0.88057496       0.49778663      -0.19932084       0.20814025       0.21263139      -8.74459705
Si       2.77890346       3.87797079       0.37038651      -0.48842084      -0.84495200       0.66939791       0.39455693       0.73053872       0.32451776      -8.74364295
Si       4.78215158       5.08020813       3.53507708       0.71961830       0.16146072       0.07128555       0.10539423      -0.36479042       0.21920237      -8.73865615
Si       6.71547027       5.89794794       6.69796334       0.81335711       0.86147685      -0.58666843      -0.80327506       1.45336276       0.02911902      -8.70924577
Si       4.75512989       7.12289623       0.32071123       0.69295641       0.87392025      -0.42161392      -0.54464935       0.55397639       0.22101262      -8.76444595
Si       6.75310207       8.30671626       3.40415070       0.28500905       0.46648595       0.99569239      -0.08441754      -0.42587264       0.06053316      -8.69862369
Si       8.48457230       9.43272590       6.58364997       1.25194046       0.85024760       0.23206103       0.82556049       0.27768325      -0.24657490      -8.69461770
Si       4.80234855       0.57763329       0.47972390       0.04298937      -0.57793077      -0.52965473       0.63729189       0.01155470      -0.00608616      -8.76296832
Si       6.84420828       1.66172238       3.54974396       0.82633656      -1.25497964       0.76814616      -0.70629159       0.55825630      -0.29129458      -8.69654169
Si       8.70874707       2.70864917       6.69159420       0.08435623      -0.66558526      -0.47924390       0.38157394       0.14458512      -0.02020899      -8.71931366
Si       6.85689293       3.98261821       0.53368703       0.63264035       0.01775849       0.27265816      -1.14316284      -0.22375940      -0.37687243      -8.66173550
Si       8.59700262       5.03523330       3.65827700      -1.21153411       0.28528325      -0.15842909       1.02267472       0.38196083      -0.58613015      -8.73506623
Si      10.47380222       6.16793416       6.83343131       0.06569857       1.36131217      -1.30165141      -0.10336302      -0.37381759       0.27161144      -8.68405546
Si       8.69761517       7.19094161       0.16880694      -1.03527711      -1.16051979       0.54448359      -0.13960774      -0.26501712       0.71332664      -8.63915828
Si      10.48059100       8.34941518       3.46900322       0.51292309      -0.60253001       0.34278310       0.87694757      -0.34594369       0.92915448      -8.74356550
Si      12.46909329       9.39796296       6.55739658       0.00729185       1.36285398      -0.93892606      -0.06334984       0.34999264       0.44908135      -8.71596924
Si       8.74321030       0.54887960       0.43009689      -0.39665252      -0.88917536       0.46062031       0.18717575       0.51637588      -0.76080311      -8.69255741
Si      10.59624350       1.64948820       3.60764473      -0.59363996      -0.61621689      -0.83423595      -0.36458542       0.55645383      -0.53598355      -8.76276107
Si      12.48913303       2.73020374       6.59215794       1.52980969      -0.64698964      -0.14529280       0.10468729       0.77118592       0.79166951      -8.64820782
Si      10.66142793       3.95926010       0.44546694      -1.62264990      -0.28352103      -0.32695552      -0.21978173       0.05206780       0.37411619      -8.73682133
Si      12.46234235       5.09350836       3.62266831       0.20082826       0.43855545       0.15740995      -0.00494925      -0.02589415      -0.11055900      -8.63108385
Si      14.41559499       6.10512538       6.65047411       0.21350449      -0.49768346      -1.10691618       0.03508813      -0.07995237       1.22453033      -8.71356688
Si      12.61080062       7.37840225       0.40523465       0.28391371       0.00005520      -0.99483447      -0.25242541      -0.58942689       0.31369197      -8.71529763
Si      14.51935396       8.42165896       3.67975327      -0.97727132       0.81366159      -0.88562030      -0.70621705      -0.15734004      -0.70559089      -8.72455625
Si      16.47259233       9.29381406       6.65893332      -0.44983206      -0.21269036       0.55787917      -0.23612919       0.57212228       0.19510265      -8.75730024
54
Lattice="11.5478352 0.0 0.0 5.773917198490155 10.000722372470358 0.0 5.773916394327279 3.333571176804646 9.428767828939895" Properties=species:S:1:pos:R:3:momenta:R:3:forces:R:3:energies:R:1 spacegroup="_JSON {\"number\": 1, \"setting\": 1}" unit_cell=conventional occupancy="_JSON {\"0\": {\"Si\": 1.0}, \"1\": {\"Si\": 1.0}, \"2\": {\"Si\": 1.0}, \"3\": {\"Si\": 1.0}, \"4\": {\"Si\": 1.0}, \"5\": {\"Si\": 1.0}, \"6\": {\"Si\": 1.0}, \"7\": {\"Si\": 1.0}, \"8\": {\"Si\": 1.0}, \"9\": {\"Si\": 1.0}, \"10\": {\"Si\": 1.0}, \"11\": {\"Si\": 1.0}, \"12\": {\"Si\": 1.0}, \"13\": {\"Si\": 1.0}, \"14\": {\"Si\": 1.0}, \"15\": {\"Si\": 1.0}, \"16\": {\"Si\": 1.0}, \"17\": {\"Si\": 1.0}, \"18\": {\"Si\": 1.0}, \"19\": {\"Si\": 1.0}, \"20\": {\"Si\": 1.0}, \"21\": {\"Si\": 1.0}, \"22\": {\"Si\": 1.0}, \"23\": {\"Si\": 1.0}, \"24\": {\"Si\": 1.0}, \"25\": {\"Si\": 1.0}, \"26\": {\"Si\": 1.0}, \"27\": {\"Si\": 1.0}, \"28\": {\"Si\": 1.0}, \"29\": {\"Si\": 1.0}, \"30\": {\"Si\": 1.0}, \"31\": {\"Si\": 1.0}, \"32\": {\"Si\": 1.0}, \"33\": {\"Si\": 1.0}, \"34\": {\"Si\": 1.0}, \"35\": {\"Si\": 1.0}, \"36\": {\"Si\": 1.0}, \"37\": {\"Si\": 1.0}, \"38\": {\"Si\": 1.0}, \"39\": {\"Si\": 1.0}, \"40\": {\"Si\": 1.0}, \"41\": {\"Si\": 1.0}, \"42\": {\"Si\": 1.0}, \"43\": {\"Si\": 1.0}, \"44\": {\"Si\": 1.0}, \"45\": {\"Si\": 1.0}, \"46\": {\"Si\": 1.0}, \"47\": {\"Si\": 1.0}, \"48\": {\"Si\": 1.0}, \"49\": {\"Si\": 1.0}, \"50\": {\"Si\": 1.0}, \"51\": {\"Si\": 1.0}, \"52\": {\"Si\": 1.0}, \"53\": {\"Si\": 1.0}}" energy=-470.8059113775631 stress="-0.0025234999967407743 0.0003658298781587585 0.00020364330735635203 0.0003658298781587585 0.0005518216818699564 -0.00022621588637627624 0.00020364330735635203 -0.00022621588637627624 0.0019441422045686013" free_energy=-470.8059113775631 pbc="T T T"
Si       6.75197474       4.00539695       2.87365706      -0.80335065      -0.64094046      -1.40064168      -0.32881655      -1.50901989      -0.53222737      -8.70324627
Si       8.66182999       4.91172312       5.89138027       2.12356142      -0.00990986      -0.13410747       0.22763082       0.51222247       0.95492806      -8.72117705
Si      10.60949726       6.18013410       9.19966372       1.56311258       0.72973184      -2.09929216      -0.09617578      -0.08100201      -0.43988303      -8.66323158
Si       8.71961825       7.16539647       2.57232426      -0.73533730       0.74575652      -0.25080792      -0.70096464       0.44224125       0.65237890      -8.70095424
Si      10.50114842       8.29053330       5.93033366       0.27876414       0.01072978      -0.01002353       0.05813508       1.16632630      -1.01536821      -8.74097543
Si      12.42540868       9.48579770       8.97193478       1.92433328       0.00581114       0.95621488       0.63643554      -0.84875431      -0.52529657      -8.69690000
Si      10.58544465      10.57783531       2.83822437      -0.10660423       0.21847245      -0.25294586       1.16185423      -0.62536105      -0.67537984      -8.71531844
Si      12.53285791      11.67209570       5.90244200      -1.18620298      -0.34910041       0.74863386       0.23855223      -0.10916907      -0.39937696      -8.76461970
Si      14.47869535      12.79784907       9.05295211      -1.33955494      -0.65432309       0.48671901      -0.34691207      -0.44900855      -0.02518813      -8.69661604
Si      10.56049701       3.91155545       2.85409616       1.73489340       0.80898630      -0.38532717      -0.11822682       0.22963743      -0.46943519      -8.68015533
Si      12.38722356       5.03596201       6.01048087       0.04460358      -1.18671726      -1.22513991       0.43353014      -0.03320831      -0.54424962      -8.71392678
Si      14.51156029       6.18436289       9.04915253      -0.58355981      -1.52082524      -1.26565823      -0.54842968      -0.81561073      -0.01213967      -8.69955384
Si      12.50198711       7.31250412       2.81227684      -0.66080935      -1.85070459      -0.33682965       0.45743341       0.04950590      -0.63944657      -8.72275738
Si      14.46891437       8.30019086       6.02147924      -0.69384719      -0.55747706      -0.30639433      -0.44162488       0.38182950      -1.00947479      -8.72140270
Si      16.51636727       9.46096588       8.99696839      -1.19212409      -0.07021551       0.82974467      -0.59729482       0.11640297       0.50846201      -8.72682395
Si      14.53727495      10.52595762       2.75017470       0.34822058      -0.87930547      -0.42741914      -0.85276310       0.46702897      -0.28143697      -8.77750750
Si      16.34894311      11.61149205       5.89248361       0.12260136       1.62217312       0.55707535       0.88228731      -0.81634946       0.07077071      -8.70748592
Si      18.26635359      12.91274679       9.01188338      -0.18016089      -0.10748889      -1.20213267       0.86449619      -0.79367823      -0.22088531      -8.73657363
Si      14.43092716       3.96541717       2.73191724      -0.68967462      -0.20533911       0.53036118      -0.42358562      -0.04912744       0.47899381      -8.69812844
Si      16.31943567       4.92518701       5.89016789       0.06397528      -0.10265688      -0.28038481       0.18098738      -0.07113142       0.04312226      -8.72781961
Si      18.25194643       6.06415632       9.03712507      -0.19814273      -0.84716920       0.50951401      -0.48122993       0.07410083       0.09072576      -8.73848664
Si      16.31462009       7.25199248       2.70544052       1.35707514       0.29349553       0.52068895       0.13544117       0.31473072      -0.04478744      -8.70991494
Si      18.22997761       8.13607702       5.77428248       0.27499224       0.32894881       0.21040228       0.84078155       0.88001879       0.43820614      -8.70717099
Si      20.13973048       9.40858934       8.96740885       0.02862640      -0.19358394       0.82091834       0.31966493       0.25130229      -0.10257412      -8.74140837
Si      18.22440265      10.54989516       2.79142886       0.30461405      -1.05160979      -1.61120434       0.80102017       0.08644926      -0.20970684      -8.72768842
Si      20.21180761      11.75309629       5.70174130       0.18322151       0.23019644       0.83857275      -0.14394918      -1.29381600       0.86730776      -8.73347256
Si      22.21214619      12.69572351       8.98432980      -0.04655590       1.37928499       0.81135924      -0.82546601       0.51630051       0.07440981      -8.72122761
Si       0.95462498       0.53626430       0.44937176      -0.56184319      -0.25336814       1.04210938       0.24393496      -0.22398441      -0.52213796      -8.74956986
Si       2.92773982       1.67679823       3.40952746      -0.84651214       0.44512469       0.04494223      -1.14761895       0.79619808       0.10623386      -8.71798650
Si       4.79231255       2.65155838       6.61865611      -0.60663095       0.16443934       0.87438072       0.21818811       1.06000382       0.29765621      -8.71241912
Si       2.77658784       3.86200547       0.41207522       0.50210447       0.17219104       0.78334387       0.79146334       0.49004472      -0.21013553      -8.76213791
Si       4.81602804       5.07447624       3.54547029       0.41225493      -0.36268978       0.26686391      -0.50907384      -0.29827095      -0.00724542      -8.75838415
Si       6.73174248       5.98336739       6.67073635      -0.03350266       2.00175058      -0.41257335      -0.21451212      -0.06925134       0.20180761      -8.74636927
Si       4.76494536       7.18361815       0.31623183      -0.27831203       1.27519195       0.35100024      -0.40639949      -0.08875590       0.62359282      -8.75330044
Si       6.76521264       8.31004516       3.45135630       0.19628176      -0.37176300       0.68425119      -0.01122934      -0.54910998      -0.40523796      -8.72602377
Si       8.56883167       9.48095374       6.58609854       1.70306346       0.84628129      -0.09727288      -0.18756019      -0.27880231      -0.08877433      -8.63306807
Si       4.82065504       0.55789000       0.45619182       0.46020643      -0.02102848      -0.33564243      -0.10461221       0.60949121       0.12213941      -8.75922874
Si       6.85666450       1.62662490       3.57499678      -0.36873409       0.00637052       0.14699211      -0.78220346       0.92817167      -0.48707923      -8.62868626
Si       8.71808362       2.68929063       6.67477235       0.04865595       0.07293334      -0.00515049      -0.46626702       0.71248292       0.58805465      -8.74787579
Si       6.84739450       3.97764663       0.52857046      -0.88358113      -0.19265102      -0.57314384      -0.71702595      -0.16021625      -0.78464450      -8.70626825
Si       8.58720348       5.06490317       3.62297394       0.92700671       0.75850600      -1.21993577       1.38821837       0.03674116      -0.70453906      -8.71342142
Si      10.47613405       6.20575585       6.78409713       0.12393725      -0.20621228      -0.48504462       0.28713941      -1.45251770       0.63057418      -8.71106634
Si       8.64814483       7.13300192       0.21988290      -0.63934060      -0.79610697       1.29596501       0.69345434       0.72929104       0.29654567      -8.70302484
Si      10.53203566       8.31184849       3.52020119       1.21267877      -0.68983374       1.47276928      -0.02783273       0.20314310       0.39584046      -8.74201819
Si      12.46879985       9.46772391       6.54049485       0.01366545       0.97660975       0.51130541       0.06608274      -0.88914791       1.30993676      -8.67832650
Si       8.72958249       0.52570148       0.42074889      -0.15156704       0.03126098      -0.83204006       0.07618586       0.62325211      -0.82037498      -8.67380384
Si      10.56014270       1.64475115       3.55418414      -0.54844423       0.48635804      -0.98740697       0.52616431       0.75734136       0.29654749      -8.75513664
Si      12.55780462       2.73121984       6.61372510       0.82303833       0.70864853       0.89449594      -0.92191983       0.85878260       0.49375950      -8.69591152
Si      10.58492119       3.94572679       0.44267450      -1.03143333      -0.26742416       0.18423745       0.80447473      -0.08959641       0.22776363      -8.73976140
Si      12.47508324       5.10726669       3.62740916       0.33689219      -0.06899351       0.03040446       0.19663377      -0.62883917      -0.08919982      -8.72214261
Si      14.42244511       6.07459028       6.64041278      -0.05070366      -0.68703126       0.64557146      -0.34114071      -0.14850068       0.92079019      -8.74111063
Si      12.60954347       7.35870690       0.37135011      -0.44005565      -0.67213041      -0.22136091      -0.67122952      -0.29211306       0.61403911      -8.69908087
Si      14.44941308       8.43975560       3.62018766      -1.49908374      -0.45452317      -1.13318213       0.03992635      -1.42331206       0.27567039      -8.69432142
Si      16.44039020       9.31180086       6.68858380      -0.75671156       0.95186968       0.44222516      -0.15605203       0.79461363      -0.31403175      -8.74092368
54
Lattice="11.5478352 0.0 0.0 5.773917198490155 10.000722372470358 0.0 5.773916394327279 3.333571176804646 9.428767828939895" Properties=species:S:1:pos:R:3:momenta:R:3:forces:R:3:energies:R:1 spacegroup="_JSON {\"number\": 1, \"setting\": 1}" unit_cell=conventional occupancy="_JSON {\"0\": {\"Si\": 1.0}, \"1\": {\"Si\": 1.0}, \"2\": {\"Si\": 1.0}, \"3\": {\"Si\": 1.0}, \"4\": {\"Si\": 1.0}, \"5\": {\"Si\": 1.0}, \"6\": {\"Si\": 1.0}, \"7\": {\"Si\": 1.0}, \"8\": {\"Si\": 1.0}, \"9\": {\"Si\": 1.0}, \"10\": {\"Si\": 1.0}, \"11\": {\"Si\": 1.0}, \"12\": {\"Si\": 1.0}, \"13\": {\"Si\": 1.0}, \"14\": {\"Si\": 1.0}, \"15\": {\"Si\": 1.0}, \"16\": {\"Si\": 1.0}, \"17\": {\"Si\": 1.0}, \"18\": {\"Si\": 1.0}, \"19\": {\"Si\": 1.0}, \"20\": {\"Si\": 1.0}, \"21\": {\"Si\": 1.0}, \"22\": {\"Si\": 1.0}, \"23\": {\"Si\": 1.0}, \"24\": {\"Si\": 1.0}, \"25\": {\"Si\": 1.0}, \"26\": {\"Si\": 1.0}, \"27\": {\"Si\": 1.0}, \"28\": {\"Si\": 1.0}, \"29\": {\"Si\": 1.0}, \"30\": {\"Si\": 1.0}, \"31\": {\"Si\": 1.0}, \"32\": {\"Si\": 1.0}, \"33\": {\"Si\": 1.0}, \"34\": {\"Si\": 1.0}, \"35\": {\"Si\": 1.0}, \"36\": {\"Si\": 1.0}, \"37\": {\"Si\": 1.0}, \"38\": {\"Si\": 1.0}, \"39\": {\"Si\": 1.0}, \"40\": {\"Si\": 1.0}, \"41\": {\"Si\": 1.0}, \"42\": {\"Si\": 1.0}, \"43\": {\"Si\": 1.0}, \"44\": {\"Si\": 1.0}, \"45\": {\"Si\": 1.0}, \"46\": {\"Si\": 1.0}, \"47\": {\"Si\": 1.0}, \"48\": {\"Si\": 1.0}, \"49\": {\"Si\": 1.0}, \"50\": {\"Si\": 1.0}, \"51\": {\"Si\": 1.0}, \"52\": {\"Si\": 1.0}, \"53\": {\"Si\": 1.0}}" energy=-471.55347078754755 stress="0.0025542166862286835 -0.0010694774970771974 -0.0008991366181696422 -0.0010694774970771974 -0.00046511812169432664 0.0012207963461742656 -0.0008991366181696422 0.0012207963461742656 -0.003045921444610216" free_energy=-471.55347078754755 pbc="T T T"
Si       6.71334264       3.92546839       2.79249704      -0.41914542      -2.08642834      -1.48369003       0.64552410      -0.25640790       0.27578906      -8.74622219
Si       8.75954135       4.93327895       5.91060359       1.20175696       0.81068099       0.60753360      -1.34425477       0.43499874      -0.03843247      -8.71723498
Si      10.67291622       6.20804601       9.08620893       0.59720306       0.20022944      -1.95890329      -1.10822861      -0.60758415       0.60647969      -8.71106926
Si       8.66633777       7.22078127       2.59356981      -1.03105559       1.30717932       1.16903117       0.34357718       0.19971740       1.07081655      -8.71567491
Si      10.52262927       8.32764749       5.90229615       0.61207588       1.11550635      -0.74276244       0.34082744       0.08728771       0.19836360      -8.77045383
Si      12.52302676       9.45984376       9.00154627       1.35116019      -0.82654989       0.23160271      -1.08557365      -0.18056834      -0.28244126      -8.70750082
Si      10.61560922      10.56748209       2.80540276       0.97593620      -0.49904859      -0.84918197       0.09996525      -0.20485509      -0.10708144      -8.72794151
Si      12.48646961      11.65884925       5.92187486      -0.50330943      -0.03466047      -0.03121608       0.55527135       0.36080731      -0.49055561      -8.75802855
Si      14.40643796      12.75168857       9.07627570      -1.19021464      -0.96419487       0.37403627       0.53673712       0.10566157      -0.14294633      -8.68779013
Si      10.63586894       3.95635750       2.81564405       0.98726878       0.76262127      -1.05658327      -0.71379609      -0.30809449      -0.37426021      -8.73721989
Si      12.40628266       4.98328673       5.93620792       0.66538085      -0.63540333      -1.38452411       0.37463145       0.69413349       0.32102255      -8.70742568
Si      14.46270271       6.08830406       8.99719794      -1.18966956      -1.79532249      -0.44335164      -0.20878567       0.54063410       1.02921228      -8.72060111
Si      12.48572164       7.22607040       2.77022822      -0.00514712      -1.33096708      -1.18938927       0.28627238       0.49685805      -0.33596153      -8.74999435
Si      14.42027883       8.28763648       5.96951535      -1.04408695       0.05442167      -1.54313598       0.01162012       0.29665833      -0.49719072      -8.72974201
Si      16.43607041       9.45918156       9.05285240      -1.73837549      -0.05743569       1.12489786      -0.08060819      -0.12175513      -0.18161362      -8.75216292
Si      14.51751718      10.50376682       2.71819871      -1.10996689       0.07941491      -0.71402946      -0.89498052       0.65912292       0.01539016      -8.76137525
Si      16.38693548      11.66184220       5.91713646       1.15728964       0.34628530       0.29209506       0.23592237      -0.63927170      -0.29983339      -8.72714377
Si      18.28749594      12.87658436       8.95549501       0.84391839      -1.20553159      -0.62857602       0.32082939      -0.54850813       1.01298500      -8.74785882
Si      14.38763143       3.95676499       2.77437477      -0.77397955      -0.06075799       0.95936022       0.31994377       0.18801438      -0.02823714      -8.74530933
Si      16.33207552       4.92138416       5.88139744       0.42623428       0.06547736       0.01049347       0.21892435       0.34931730       0.29098988      -8.73926443
Si      18.22932844       6.03349717       9.06481405      -0.49465306      -0.14583697       0.49068096       0.17605197       0.75602841      -0.13143854      -8.71586311
Si      16.37798837       7.27340186       2.73063490       0.82228479       0.36133681       0.44106721      -0.78810810      -0.30862483      -0.04034445      -8.71759732
Si      18.27240405       8.19849979       5.80441969       1.21699711       2.15352806       0.94665175       0.34559958       1.26148373       0.47781451      -8.72299500
Si      20.15406323       9.41038867       9.00188432       0.49103537       0.29736393       0.43629703       0.22104173       0.38583672      -0.32633286      -8.74576720
Si      18.26005341      10.50481079       2.72086582       0.82850733      -0.56919575      -0.71749770      -0.08067528       0.47706462       1.17342601      -8.71765553
Si      20.21359803      11.72035314       5.77028627      -0.15855499      -1.26920457       1.60732762      -0.30016959      -0.47401135       0.20597896      -8.75397302
Si      22.17834257      12.77832470       9.02531888      -1.16774208       1.55927283       0.67806400      -0.52957506      -0.30934220      -0.21416333      -8.74508345
Si       0.93788389       0.51631827       0.47124433      -0.05177127      -0.45420084      -0.38935310       0.34044684      -0.01257374      -1.20033414      -8.77005537
Si       2.85273898       1.71831493       3.41914851      -1.65543833       0.83718343       0.39273787       0.21618987      -0.35722183       0.39076357      -8.72957495
Si       4.77313205       2.70037119       6.67410904      -0.07509910       1.58741101       1.16453862       0.40986974       0.63284229       0.00085462      -8.73692654
Si       2.82919557       3.88135151       0.43889286       1.37689104       0.40552047       0.15842058       0.30041670      -0.12849466      -0.52580531      -8.73211192
Si       4.81559803       5.04657213       3.55448956      -0.40376274      -0.65399652      -0.00707549      -0.41299604      -0.11594498      -0.33111268      -8.75224238
Si       6.72976103       6.06705982       6.65994137       0.08091712       0.94448417       0.04797196       0.27675401      -1.01324624       0.37530157      -8.71003865
Si       4.74850016       7.23936947       0.35444323      -0.10597753       0.75121052       0.99245331       0.53404897      -0.48321297       0.18246871      -8.71614040
Si       6.77585666       8.27759650       3.47273172       0.20170428      -0.65274534       0.22199943      -0.05445794       0.28078975      -0.04347933      -8.76822930
Si       8.64151342       9.50898842       6.58405837       0.93450782       0.13253686       0.15282636      -0.70841865      -0.63661728       0.43464841      -8.67976457
Si       4.83545565       0.57841478       0.43784852       0.06110366       0.70590957      -0.48560773      -0.28738501       0.23378715      -0.34067240      -8.71393947
Si       6.81279085       1.65633176       3.56482425      -1.16456280       0.94074393      -0.48985826      -0.23858587       0.19732857      -0.30588991      -8.71287477
Si       8.69852723       2.71772566       6.69717098      -0.77270310       0.89368152       0.78845910      -0.39561999       0.26705161       0.31659359      -8.75656091
Si       6.78653923       3.95846765       0.46655855      -1.17465259      -0.59572676      -1.75345280       0.30471469      -0.38124404      -0.62675164      -8.74507810
Si       8.67309057       5.09368602       3.54017751       1.99401455       0.12608827      -1.72775496       0.01068193      -0.78037413       0.10339673      -8.69914913
Si      10.50200942       6.15052212       6.77434380       1.01101464      -1.53478190      -0.11849274       0.85899529      -0.07701744      -0.25969941      -8.74556385
Si       8.64790163       7.12716490       0.29477150       0.65106789       0.65057037       1.49059620       0.75266225       1.02480712       0.02778953      -8.75001199
Si      10.58443829       8.28802421       3.59591912       0.65794270      -0.15557574       1.05952166      -0.53181047       0.45442437      -0.98617275      -8.71512534
Si      12.47331027       9.47697535       6.61523594       0.17579399      -0.63674113       2.18177864       0.13386091      -0.94015694       0.68888618      -8.72597046
Si       8.71979763       0.54659687       0.35480211      -0.32978738       0.63058788      -1.44181188      -0.35057137       0.09000040       0.12612449      -8.73581594
Si      10.55936241       1.69154270       3.51839545       0.57076300       1.09058786      -0.34498621       0.73627880      -0.04602458       0.43644633      -8.71708929
Si      12.56500930       2.79036030       6.66775984      -0.46247583       1.27081775       0.90060146      -0.60627364      -0.20871077      -0.52733564      -8.75255950
Si      10.56101652       3.92396409       0.45431453       0.03095967      -0.63688576       0.11189462       0.47278923      -0.37200135      -0.34663297      -8.72626378
Si      12.50145814       5.07757477       3.62311972       0.65718883      -1.02330955      -0.26228927       0.14100514      -0.47001762      -0.35441779      -8.76214615
Si      14.40721001       6.03585010       6.69382147      -0.47435425      -0.69882260       1.03542422      -0.12504788       0.20751975      -0.45735575      -8.74868262
Si      12.56123291       7.31522191       0.37988456      -1.33454429      -0.94761341       0.42899922      -0.40995911      -0.14006049       0.15230346      -8.72247606
Si      14.38257489       8.36290494       3.57472549      -0.86694063      -2.27434558      -0.61399632       0.75436270      -0.65727345       0.23317729      -8.71623187
Si      16.39648302       9.38511427       6.69725174      -0.88294741       1.66463091      -0.11984216      -0.01993514       0.09704001      -0.35053012      -8.73389907
54
Lattice="11.5478352 0.0 0.0 5.773917198490155 10.000722372470358 0.0 5.773916394327279 3.333571176804646 9.428767828939895" Properties=species:S:1:pos:R:3:momenta:R:3:forces:R:3:energies:R:1 spacegroup="_JSON {\"number\": 1, \"setting\": 1}" unit_cell=conventional occupancy="_JSON {\"0\": {\"Si\": 1.0}, \"1\": {\"Si\": 1.0}, \"2\": {\"Si\": 1.0}, \"3\": {\"Si\": 1.0}, \"4\": {\"Si\": 1.0}, \"5\": {\"Si\": 1.0}, \"6\": {\"Si\": 1.0}, \"7\": {\"Si\": 1.0}, \"8\": {\"Si\": 1.0}, \"9\": {\"Si\": 1.0}, \"10\": {\"Si\": 1.0}, \"11\": {\"Si\": 1.0}, \"12\": {\"Si\": 1.0}, \"13\": {\"Si\": 1.0}, \"14\": {\"Si\": 1.0}, \"15\": {\"Si\": 1.0}, \"16\": {\"Si\": 1.0}, \"17\": {\"Si\": 1.0}, \"18\": {\"Si\": 1.0}, \"19\": {\"Si\": 1.0}, \"20\": {\"Si\": 1.0}, \"21\": {\"Si\": 1.0}, \"22\": {\"Si\": 1.0}, \"23\": {\"Si\": 1.0}, \"24\": {\"Si\": 1.0}, \"25\": {\"Si\": 1.0}, \"26\": {\"Si\": 1.0}, \"27\": {\"Si\": 1.0}, \"28\": {\"Si\": 1.0}, \"29\": {\"Si\": 1.0}, \"30\": {\"Si\": 1.0}, \"31\": {\"Si\": 1.0}, \"32\": {\"Si\": 1.0}, \"33\": {\"Si\": 1.0}, \"34\": {\"Si\": 1.0}, \"35\": {\"Si\": 1.0}, \"36\": {\"Si\": 1.0}, \"37\": {\"Si\": 1.0}, \"38\": {\"Si\": 1.0}, \"39\": {\"Si\": 1.0}, \"40\": {\"Si\": 1.0}, \"41\": {\"Si\": 1.0}, \"42\": {\"Si\": 1.0}, \"43\": {\"Si\": 1.0}, \"44\": {\"Si\": 1.0}, \"45\": {\"Si\": 1.0}, \"46\": {\"Si\": 1.0}, \"47\": {\"Si\": 1.0}, \"48\": {\"Si\": 1.0}, \"49\": {\"Si\": 1.0}, \"50\": {\"Si\": 1.0}, \"51\": {\"Si\": 1.0}, \"52\": {\"Si\": 1.0}, \"53\": {\"Si\": 1.0}}" energy=-471.14022063748 stress="1.4107980991288841e-05 -0.0002620901592360602 -0.0007206325494322904 -0.0002620901592360602 -0.0020526180515224586 0.0005351943828788774 -0.0007206325494322904 0.0005351943828788774 -0.004749940112195594" free_energy=-471.14022063748 pbc="T T T"
Si       6.71665417       3.82927490       2.72529827       0.50446354      -1.15614532      -1.13136977       0.50455018       1.38899657       0.09499912      -8.68158340
Si       8.76403696       4.98519711       5.93014151      -1.00880586       1.03060535      -0.01173110      -1.25819273      -0.10167836      -0.63330158      -8.71372880
Si      10.65774047       6.19211400       9.01477743      -1.15627606      -0.82231598      -0.70145414      -1.02884037      -0.66717449       0.84379317      -8.75601049
Si       8.63849499       7.28647556       2.68862172       0.16200673       0.97383267       2.25069315       1.07219001      -0.66028976       0.29477569      -8.73071993
Si      10.56758353       8.37385945       5.88549342       1.06853385       0.41116357       0.26327027       0.21141028      -0.84699086       0.81990855      -8.71626313
Si      12.55249128       9.42205662       9.01594588      -0.11155581      -0.38830981       0.60082838      -0.67144528       0.69140772       0.80241278      -8.70712637
Si      10.65443106      10.54160352       2.76148797       0.23715345      -0.34528304      -0.77450400      -0.95605123       0.35891549       0.09723370      -8.67879854
Si      12.47927366      11.66760863       5.90859525       0.16206241       0.27886880      -0.31132886       0.29869096       0.02274828       0.13873619      -8.71969390
Si      14.37315732      12.71506286       9.08759451       0.04108190      -0.24824603       0.00202141       1.00740011       0.82513207      -0.35660449      -8.71926585
Si      10.66304786       3.97763227       2.75065382       0.15710694      -0.07167451      -1.31676760      -0.31060835      -0.78288267       0.03153892      -8.76962532
Si      12.45402828       4.97822688       5.88257418       1.12958326       0.39407740      -0.60587524       0.27739486       0.50142448       0.53198221      -8.72835210
Si      14.39857541       6.03250135       9.01321585      -1.12516374      -0.07723033       0.90823573       0.31564345       1.51154774       0.47335396      -8.70003754
Si      12.48964527       7.17340353       2.70708903       0.03516887      -0.73738489      -0.97731299      -0.17530603       0.27763229       0.59010896      -8.74430071
Si      14.37267623       8.29571281       5.88304821      -0.65390606       0.13993120      -1.48963788       0.47298899      -0.14195543       0.52628251      -8.71480610
Si      16.35064184       9.44751786       9.09427803      -1.37128736      -0.45702718       0.27310688       0.48202722      -0.38848589      -0.89075768      -8.74310398
Si      14.43540988      10.52815291       2.68866407      -1.77383868       0.72239958      -0.28574542       0.06838551       0.15770506       0.51118081      -8.65697130
Si      16.43934573      11.66789564       5.92073495       0.52675160       0.12985633      -0.15437146      -0.99391720       0.30924276      -0.30136496      -8.73233002
Si      18.33048286      12.80056673       8.96811166       0.53413162      -1.53090884       1.08343974      -0.70669693       0.08448182       0.91610466      -8.72198383
Si      14.36879375       3.95733122       2.81215327       0.21300332      -0.04465323       0.27218515       0.92624840      -0.30460449      -0.83728441      -8.75836719
Si      16.35937862       4.94401456       5.89145149       0.54123668       0.88024019       0.30644332      -0.06241036       0.66870871       0.03823352      -8.75490356
Si      18.22089786       6.05401138       9.08186248       0.36301443       0.83878381       0.09328848       0.91848997       0.41836136      -0.38859765      -8.71688356
Si      16.38735602       7.27206640       2.75334073      -0.43427372      -0.53365267       0.44979802      -0.66603942      -0.78484225       0.05389007      -8.74294850
Si      18.33748259       8.34330774       5.86857889       0.99200816       2.94567600       1.39718711      -0.72740831      -0.36222556       0.07742812      -8.72844278
Si      20.18408351       9.43950087       9.01466063       0.57673717       0.75756017       0.12846618      -0.07444833       0.17177314      -0.02383795      -8.73325773
Si      18.29216524      10.49375206       2.72445221       0.27532753       0.13251418       0.63960885      -0.55525562       0.42447031       0.37784260      -8.73181382
Si      20.19545973      11.65573307       5.85566836      -0.46639957      -0.83233823       1.53120522      -0.04260589       0.92075950      -0.25107752      -8.70878409
Si      22.10881151      12.83816368       9.05157351      -1.23312391       0.56822290       0.32293352       0.43502929      -0.91069111      -0.21642585      -8.74151097
Si       0.94392141       0.49684936       0.41424530       0.17858459      -0.18628961      -1.49073559      -0.05489785       0.38635604      -0.08968282      -8.76685076
Si       2.79181853       1.73652710       3.45869792      -0.39311417      -0.29149641       1.16760964       1.30032524      -0.94673846       0.58935266      -8.66744419
Si       4.78221086       2.79184959       6.72740805       0.34761073       1.57811692       0.72052440       0.12917651      -0.61234564      -0.57163145      -8.74755710
Si       2.90290577       3.89512796       0.42923094       1.23154998       0.12059752      -0.45229036      -0.49379664      -0.12951878      -0.23977721      -8.68844711
Si       4.78832338       5.00913672       3.54141294      -0.42325077      -0.74689863      -0.44887429       0.41763263      -0.00746270      -0.16761995      -8.72931293
Si       6.74585730       6.08686999       6.67512948       0.52257171       0.08817206       0.47631726       0.23504198       0.04412434       0.16819350      -8.71618584
Si       4.76654129       7.26143860       0.40567350       0.78864085       0.13553863       0.81559228       0.52470764      -0.31318280      -0.38191841      -8.68332309
Si       6.77822339       8.26653925       3.49449469      -0.24836570       0.41833568       0.82428521      -0.56773367       1.00038276       0.78516295      -8.75352800
Si       8.66694973       9.49128265       6.61403481       0.19081715      -0.75233178       1.06241898      -0.10044074      -0.40854833       0.71799447      -8.77694331
Si       4.83055336       0.61415477       0.39740570      -0.18802837       0.45145620      -1.03204147      -0.05709184      -0.57221530      -0.24838172      -8.66460864
Si       6.75051355       1.69826626       3.53392796      -1.07768877       0.38226876      -0.54361685       0.27664315      -0.86139214       0.25338093      -8.79614656
Si       8.65280448       2.76629408       6.74022276      -0.78092324       0.81820487       0.64109818       0.34005944      -0.27949254      -0.51160267      -8.72806781
Si       6.74436960       3.91170909       0.36324977      -0.36890639      -1.17148953      -1.90608343       0.54525517      -0.31066903       0.45363680      -8.75854140
Si       8.76069523       5.07027954       3.46491751       1.03656520      -0.94247909      -0.95271353      -1.20704229      -0.50069375       0.84727359      -8.63085761
Si      10.58624944       6.08598224       6.74662541       2.04959557      -0.65411732      -1.09453548       0.25795088       1.00331426      -0.86229093      -8.71614996
Si       8.69492779       7.19187508       0.37422253       0.80003521       1.58329626       1.56793948      -0.54633264       0.12303316       0.13679960      -8.76063314
Si      10.60161358       8.29727548       3.60286001       0.09802031       0.49331933      -0.85209674      -0.13972870       0.40147266      -1.19985264      -8.71929281
Si      12.48730420       9.42305582       6.73454260       0.34849329      -1.08826283       1.92056110       0.10411209       0.33865778      -1.03265593      -8.76472850
Si       8.68390274       0.57268220       0.30052939      -1.10233551       0.18551054      -0.33718361      -0.59001782      -0.58747241       1.25212766      -8.75207363
Si      10.60818705       1.73528291       3.51389670       1.06878513       0.39303157       0.10207596      -0.12726567      -0.76707511       0.15813591      -8.67895036
Si      12.52800536       2.83550775       6.68811477      -0.75065731       0.25986486      -0.12773821       0.16876076      -0.95393527      -0.54586468      -8.75249275
Si      10.57131534       3.87757879       0.44122080       0.17596176      -1.06347068      -0.68282027      -0.25174331      -0.11051680      -0.63004842      -8.71227075
Si      12.53399151       5.01720350       3.59269207       0.41578922      -1.04652841      -0.91753076      -0.49560647       0.41950882      -0.42815531      -8.72646915
Si      14.38503015       6.01428127       6.71836056      -0.21477292       0.00726730      -0.21004064       0.48833168       0.72280431      -0.89183034      -8.70623955
Si      12.48468859       7.25969855       0.39811881      -1.39654096      -1.18451710       0.08096513       0.31943469      -0.19949515      -0.56334273      -8.74389979
Si      14.36883070       8.24139799       3.54409919       0.31920647      -1.92829747      -0.69287863       0.65868110       1.02362397      -0.30145481      -8.73903501
Si      16.35117744       9.46503571       6.68132984      -0.81238375       1.18263624      -0.40082072       0.10436149      -0.68401033      -0.01650148      -8.70855737
54
Lattice="11.5478352 0.0 0.0 5.773917198490155 10.000722372470358 0.0 5.773916394327279 3.333571176804646 9.428767828939895" Properties=species:S:1:pos:R:3:momenta:R:3:forces:R:3:energies:R:1 spacegroup="_JSON {\"number\": 1, \"setting\": 1}" unit_cell=conventional occupancy="_JSON {\"0\": {\"Si\": 1.0}, \"1\": {\"Si\": 1.0}, \"2\": {\"Si\": 1.0}, \"3\": {\"Si\": 1.0}, \"4\": {\"Si\": 1.0}, \"5\": {\"Si\": 1.0}, \"6\": {\"Si\": 1.0}, \"7\": {\"Si\": 1.0}, \"8\": {\"Si\": 1.0}, \"9\": {\"Si\": 1.0}, \"10\": {\"Si\": 1.0}, \"11\": {\"Si\": 1.0}, \"12\": {\"Si\": 1.0}, \"13\": {\"Si\": 1.0}, \"14\": {\"Si\": 1.0}, \"15\": {\"Si\": 1.0}, \"16\": {\"Si\": 1.0}, \"17\": {\"Si\": 1.0}, \"18\": {\"Si\": 1.0}, \"19\": {\"Si\": 1.0}, \"20\": {\"Si\": 1.0}, \"21\": {\"Si\": 1.0}, \"22\": {\"Si\": 1.0}, \"23\": {\"Si\": 1.0}, \"24\": {\"Si\": 1.0}, \"25\": {\"Si\": 1.0}, \"26\": {\"Si\": 1.0}, \"27\": {\"Si\": 1.0}, \"28\": {\"Si\": 1.0}, \"29\": {\"Si\": 1.0}, \"30\": {\"Si\": 1.0}, \"31\": {\"Si\": 1.0}, \"32\": {\"Si\": 1.0}, \"33\": {\"Si\": 1.0}, \"34\": {\"Si\": 1.0}, \"35\": {\"Si\": 1.0}, \"36\": {\"Si\": 1.0}, \"37\": {\"Si\": 1.0}, \"38\": {\"Si\": 1.0}, \"39\": {\"Si\": 1.0}, \"40\": {\"Si\": 1.0}, \"41\": {\"Si\": 1.0}, \"42\": {\"Si\": 1.0}, \"43\": {\"Si\": 1.0}, \"44\": {\"Si\": 1.0}, \"45\": {\"Si\": 1.0}, \"46\": {\"Si\": 1.0}, \"47\": {\"Si\": 1.0}, \"48\": {\"Si\": 1.0}, \"49\": {\"Si\": 1.0}, \"50\": {\"Si\": 1.0}, \"51\": {\"Si\": 1.0}, \"52\": {\"Si\": 1.0}, \"53\": {\"Si\": 1.0}}" energy=-471.39229001706883 stress="-0.004597476376540337 0.0006317428444005833 0.00024315158986510478 0.0006317428444005833 -0.0009355094536843485 -0.0010382653374565666 0.00024315158986510478 -0.0010382653374565666 0.0004030898410973218" free_energy=-471.39229001706883 pbc="T T T"
Si       6.75736228       3.82620637       2.66848477       0.93362677       0.93922077      -1.00279479       0.04847258       1.01964797       0.21769002      -8.68381519
Si       8.68281139       5.03058988       5.90552338      -1.66272295       0.61978066      -0.89081777       0.37908484      -0.41870289      -0.49731581      -8.71812133
Si      10.57200156       6.12885182       8.99922441      -1.78257490      -1.45268801      -0.16381813       0.24389571      -0.13315679      -0.19741078      -8.77159011
Si       8.67929902       7.30609740       2.80783388       1.09279500      -0.27011862       2.14325202      -0.06965445      -0.84525812      -0.30612631      -8.76184216
Si      10.62646583       8.36234736       5.91989085       1.06610995      -0.77334725       0.77589187      -0.21548973      -0.53936275      -0.22028367      -8.71745175
Si      12.53162764       9.43013756       9.08219607      -0.47779422       0.64468973       1.84768614       0.14638908       0.49754645       0.50600971      -8.71361854
Si      10.62637076      10.54102171       2.72308435      -1.29677492       0.36383544      -0.72081695      -0.91360746       0.51753960      -0.01624081      -8.70906751
Si      12.49466873      11.67875956       5.90321376       0.33664078       0.07419615       0.16813669      -0.04940983      -0.26273503       0.38401018      -8.68811555
Si      14.41121593      12.73700227       9.07334979       1.27844481       1.06162326      -0.52784806       0.48594117       0.72548249      -0.29130870      -8.76884277
Si      10.66370680       3.94177449       2.68775549      -0.10718841      -1.28331506      -0.99859987      -0.21605700      -0.73352822       0.35994546      -8.77217134
Si      12.52304980       5.00585366       5.86408217       1.47282764       0.40293736      -0.25981980       0.15212024      -0.48109556      -0.07504367      -8.75654069
Si      14.36069961       6.07575125       9.06059343      -0.15361999       1.35510494       0.55755050       0.94064543       0.10011725      -0.85327638      -8.72044838
Si      12.48375482       7.14478515       2.68284883      -0.24562801      -0.33545797       0.04311112      -0.12644452       0.34777301       0.55825984      -8.74357130
Si      14.35967824       8.29610489       5.83136660       0.19359313      -0.11488481      -0.44520671       0.61390827      -0.10002576       0.67279585      -8.70960698
Si      16.29615792       9.40978421       9.07260589      -0.78926392      -0.91373424      -1.06205512       0.17351356      -0.12661829      -0.74715042      -8.73803432
Si      14.35883545      10.56366733       2.69606065      -0.90696170       0.47343810       0.59623543       1.00559145      -0.46095252       0.63134574      -8.60277120
Si      16.42166412      11.69144638       5.90186258      -1.25270590       0.78342641      -0.53111104      -1.19733522       0.37674155      -0.16501371      -8.74167458
Si      18.32264616      12.72931936       9.04245430      -0.93372829      -1.10487871       1.39981060      -1.09498629       0.40336763      -0.44074843      -8.71205177
Si      14.41323542       3.93431460       2.79201830       1.34225874      -0.95954897      -0.99512358       0.39803963      -0.79506873      -0.66550332      -8.75967914
Si      16.38365647       5.01241093       5.90443579       0.38184524       1.60100731       0.12069767      -0.07076223       0.17706032      -0.22711231      -8.75616489
Si      18.27659048       6.10461519       9.07105750       1.68693550       0.92145041      -0.48745220       0.62243020      -0.24032534      -0.31862528      -8.74281736
Si      16.35256546       7.21605776       2.77842838      -0.60310278      -1.49801592       0.47366783       0.44602584      -0.37365939      -0.07230858      -8.77036423
Si      18.34884073       8.46320046       5.93857893      -0.69671693       1.33757760       1.18873180      -1.23769142      -1.48961706      -0.23423471      -8.68384251
Si      20.21057063       9.48040617       9.02657201       0.44152715       0.69866458       0.44259803      -0.04417371      -0.23229325       0.43542666      -8.72328261
Si      18.28687241      10.51480502       2.75733434      -0.38532716       0.62517811       0.37802828      -0.19738654       0.24626476      -0.54925108      -8.75731672
Si      20.17574375      11.65010362       5.92433570      -0.15379716       0.53947790       1.08205200       0.47715629       0.63551057      -0.27718335      -8.70921570
Si      22.06744296      12.83400396       9.06204038      -0.29776788      -0.63800525       0.11377991       0.62762866      -0.56943831      -0.07264362      -8.74918731
Si       0.94813440       0.50571887       0.34837666      -0.03271134       0.56506438      -0.78522644      -0.11206890       0.54481245       0.84233157      -8.72398923
Si       2.82224643       1.68923144       3.53846055       1.46708798      -1.37395351       1.74077792       0.96060567      -0.41536442       0.07172738      -8.69491174
Si       4.80168264       2.84304028       6.73958154       0.33409398       0.31820596      -0.28131439      -0.11079464      -0.83959554      -0.66944882      -8.73300477
Si       2.94071223       3.90178495       0.40184839       0.11620665       0.23968577      -0.48992057      -0.85093948       0.27634013       0.15631811      -8.71292781
Si       4.79115734       4.97176937       3.51738933       0.65542765      -0.64242984      -0.35365608       0.90091159       0.12416154       0.27279331      -8.72582226
Si       6.77655334       6.10855891       6.70289262       0.51632528       0.97552524       0.50615804      -0.26987784       0.97181965      -0.13899221      -8.72070728
Si       4.82072843       7.25934133       0.43149265       1.10635449      -0.16048012       0.18557165      -0.14631007      -0.09343773      -0.31594834      -8.71948340
Si       6.74321788       8.32216108       3.56794491      -1.00913568       1.51224642       1.88148941      -0.28456464       0.27409138       0.42614055      -8.74948069
Si       8.68617128       9.44709048       6.69388082       0.73269989      -0.71957374       1.84461768       0.61535586       0.40343258       0.17139754      -8.78709631
Si       4.82021427       0.60858398       0.34194010      -0.18224670      -0.74516800      -0.91321100       0.04084745      -0.88143713       0.41026468      -8.69757553
Si       6.70597947       1.68510734       3.51983784      -0.63009132      -0.75016598       0.04766778       0.24654192      -0.36101304       0.42083634      -8.81557275
Si       8.62965898       2.79729362       6.74663418      -0.05491394       0.38188903      -0.49130250       0.52667829      -0.21284252      -0.88273751      -8.72038801
Si       6.73433180       3.84678715       0.29197972      -0.30442414      -1.09211038      -0.65478027      -0.56008153       0.50683704       1.07149516      -8.74772281
Si       8.76320444       5.01013362       3.44996536      -0.92311595      -1.19919375       0.36371728      -1.13620408       0.09314461       0.77656484      -8.66424853
Si      10.68269899       6.09010248       6.66294226       1.23359083       0.72057688      -1.88479476      -1.25593974       0.63866293      -0.06197020      -8.72128940
Si       8.70876941       7.26618662       0.46243009      -0.30455664       1.03536332       1.77089940      -0.69637333      -0.71247817       0.03514526      -8.73074339
Si      10.60943629       8.33672653       3.53029049       0.35223276       0.96195273      -1.50755462       0.44593068       0.20409282       0.36613906      -8.74388303
Si      12.51017952       9.39101650       6.78558786       0.54156849       0.03787064       0.01028068       0.16919520       1.01888927      -1.11178038      -8.74689502
Si       8.60927359       0.56233083       0.33317997      -1.57120376      -0.45395683       1.50948441       0.07208510      -0.12431708       0.97844658      -8.77711569
Si      10.64744544       1.72589851       3.52176479       0.22229365      -0.70312592       0.13196509      -0.93935060      -0.59159086      -0.10219651      -8.67759081
Si      12.50065120       2.81594091       6.67274975      -0.23616387      -0.86231172      -0.22266888       0.38467545      -0.40691249       0.36037520      -8.74476659
Si      10.56689270       3.82435378       0.38386827      -0.34397089      -0.84226978      -1.41471339      -0.24107046       0.37260755      -0.28367698      -8.73591085
Si      12.53425335       4.98294456       3.53297354      -0.35524877      -0.26269902      -1.25095516      -0.30360815       0.41372873      -0.00975021      -8.73274833
Si      14.39845561       6.04593508       6.68373080       0.79417263       1.22251877      -0.86497983       0.74682883       0.80555403       0.04694028      -8.71164562
Si      12.43046832       7.18938522       0.37932403      -0.58498568      -1.49631546      -0.74673255       0.65652777      -0.19508360      -0.37335112      -8.75060935
Si      14.39973379       8.19188641       3.49543568       0.61568640       0.18677390      -1.11977414      -0.27551031       1.60677874      -0.14138453      -8.71750862
Si      16.31327189       9.49719762       6.66299667      -0.63590159       0.04846710      -0.25681063       0.08866540      -0.66609449       0.14561846      -8.70744628
54
Lattice="11.5478352 0.0 0.0 5.773917198490155 10.000722372470358 0.0 5.773916394327279 3.333571176804646 9.428767828939895" Properties=species:S:1:pos:R:3:momenta:R:3:forces:R:3:energies:R:1 spacegroup="_JSON {\"number\": 1, \"setting\": 1}" unit_cell=conventional occupancy="_JSON {\"0\": {\"Si\": 1.0}, \"1\": {\"Si\": 1.0}, \"2\": {\"Si\": 1.0}, \"3\": {\"Si\": 1.0}, \"4\": {\"Si\": 1.0}, \"5\": {\"Si\": 1.0}, \"6\": {\"Si\": 1.0}, \"7\": {\"Si\": 1.0}, \"8\": {\"Si\": 1.0}, \"9\": {\"Si\": 1.0}, \"10\": {\"Si\": 1.0}, \"11\": {\"Si\": 1.0}, \"12\": {\"Si\": 1.0}, \"13\": {\"Si\": 1.0}, \"14\": {\"Si\": 1.0}, \"15\": {\"Si\": 1.0}, \"16\": {\"Si\": 1.0}, \"17\": {\"Si\": 1.0}, \"18\": {\"Si\": 1.0}, \"19\": {\"Si\": 1.0}, \"20\": {\"Si\": 1.0}, \"21\": {\"Si\": 1.0}, \"22\": {\"Si\": 1.0}, \"23\": {\"Si\": 1.0}, \"24\": {\"Si\": 1.0}, \"25\": {\"Si\": 1.0}, \"26\": {\"Si\": 1.0}, \"27\": {\"Si\": 1.0}, \"28\": {\"Si\": 1.0}, \"29\": {\"Si\": 1.0}, \"30\": {\"Si\": 1.0}, \"31\": {\"Si\": 1.0}, \"32\": {\"Si\": 1.0}, \"33\": {\"Si\": 1.0}, \"34\": {\"Si\": 1.0}, \"35\": {\"Si\": 1.0}, \"36\": {\"Si\": 1.0}, \"37\": {\"Si\": 1.0}, \"38\": {\"Si\": 1.0}, \"39\": {\"Si\": 1.0}, \"40\": {\"Si\": 1.0}, \"41\": {\"Si\": 1.0}, \"42\": {\"Si\": 1.0}, \"43\": {\"Si\": 1.0}, \"44\": {\"Si\": 1.0}, \"45\": {\"Si\": 1.0}, \"46\": {\"Si\": 1.0}, \"47\": {\"Si\": 1.0}, \"48\": {\"Si\": 1.0}, \"49\": {\"Si\": 1.0}, \"50\": {\"Si\": 1.0}, \"51\": {\"Si\": 1.0}, \"52\": {\"Si\": 1.0}, \"53\": {\"Si\": 1.0}}" energy=-471.56877929142195 stress="-0.0033846693972990147 0.0010016340778974846 0.0004107918612174742 0.0010016340778974846 0.0002931562222121062 -0.001108031348878457 0.0004107918612174742 -0.001108031348878457 0.002277962772990191" free_energy=-471.56877929142195 pbc="T T T"
Si       6.80019186       3.89356061       2.63096373       0.54230500       1.20985192      -0.31440593      -0.56264746      -0.61407086       0.65465512      -8.71800267
Si       8.62264210       5.04671298       5.84577095      -0.50760362       0.03953559      -1.22765772       0.88138354      -0.24330053       0.13436161      -8.71119409
Si      10.50021932       6.05608184       8.97351081      -0.80578566      -1.16748277      -0.91765119       0.83866282       0.47223096      -0.60248368      -8.70887617
Si       8.71754332       7.26612632       2.90671222       0.15401114      -1.07509128       1.62060108      -0.90426737      -0.14671599      -0.34105877      -8.71525802
Si      10.67076072       8.31763514       5.94035351       0.59656972      -0.56186987      -0.15991692      -0.31979831       0.88311301      -0.86740842      -8.72370817
Si      12.52001071       9.47194875       9.17910917       0.14264837       0.72875217       1.47398449       0.55929456      -0.35422203      -0.93951262      -8.70648336
Si      10.53717638      10.57554548       2.68515867      -1.75170317       0.81033561      -0.70669036       0.46189310      -0.04022204       0.05096861      -8.75077130
Si      12.50729873      11.67207304       5.92284803       0.10093354      -0.29985356       0.46980404      -0.22340265      -0.14070444      -0.04342954      -8.74063280
Si      14.48009396      12.80634591       9.03793108       0.98368675       1.26126149      -0.76152288      -0.93089082      -0.51219411      -0.05619220      -8.74536421
Si      10.64403658       3.85464789       2.65114593      -0.74344267      -1.83531926      -0.38416316      -0.59516337       0.05984449       0.41245034      -8.74535881
Si      12.60049992       5.00358069       5.84457642       1.35295904      -0.49000105      -0.48882347      -0.33715374      -0.49951511      -0.10837382      -8.74509367
Si      14.38442080       6.12892514       9.05066819       0.82970082       0.36385747      -0.94833682       0.07238512      -1.11667988      -0.90882187      -8.71708982
Si      12.46992789       7.14427568       2.69637077      -0.19717903       0.36897874       0.26370543       0.20315365       0.54216774      -0.24618850      -8.75528802
Si      14.39082790       8.29303772       5.82575547       0.90115262       0.16369341       0.03932843       0.24602597       0.54445156      -0.07100604      -8.73361271
Si      16.25559285       9.36433833       8.99912993      -0.83953526      -0.67883593      -1.48746318      -0.14880406       0.42189709       0.23657198      -8.73039894
Si      14.35296449      10.56768610       2.75027675       0.64215809      -0.31388034       1.41858089       0.84169862      -0.43123773       0.41768308      -8.71853968
Si      16.32202878      11.73822252       5.87129120      -2.21126461       0.79769600      -0.57335564       0.10971311      -0.41156323       0.06626287      -8.75767862
Si      18.24073218      12.68598534       9.08955889      -1.90818288      -0.60299234       0.29920672      -0.00156474       0.18510677      -0.83545588      -8.72790949
Si      14.48720901       3.85695031       2.72691883       1.29468629      -1.86476461      -1.21053428      -0.31832360      -0.31485798       0.40786953      -8.71665063
Si      16.40482227       5.09188810       5.90235064       0.50856498       1.22057727      -0.17585953       0.24876434      -0.63597323      -0.13660902      -8.72775295
Si      18.37158105       6.14008036       9.03791893       1.56505459       0.39398297      -0.68218188      -0.80458987      -0.39109572       0.04052154      -8.74234036
Si      16.34521830       7.13722949       2.79789844       0.36010389      -1.19911759       0.23911889       0.60644682       0.82397950      -0.18411721      -8.73911018
Si      18.27958253       8.48070680       5.99526110      -1.57010052      -0.47100203       1.05297479       0.18442283      -0.72048875       0.05480673      -8.73396116
Si      20.23477417       9.50492192       9.06913302       0.53517727       0.19664872       1.17983687       0.16325682      -0.38993726       0.42775076      -8.73317613
Si      18.26888632      10.55413881       2.75586209      -0.12547401       0.80837259      -0.36079585       0.47423993      -0.01260346      -0.26937985      -8.74672948
Si      20.19123499      11.68798429       5.97223084       0.79714523       0.61485639       0.77656294       0.67058313      -0.48864935      -0.15175394      -8.75282169
Si      22.07002143      12.78936422       9.06590088       0.26629466      -0.84448637       0.04018430       0.12968708       0.28975206      -0.04082138      -8.74307623
Si       0.94684100       0.55270243       0.34009562       0.07919222       1.12282184       0.41045958       0.25186109       0.14295825       0.62104665      -8.71193316
Si       2.91724284       1.61256779       3.62207812       1.72377613      -1.31431723       1.27579534      -0.72065140       0.50701854      -0.58812485      -8.71635243
Si       4.81431476       2.83640178       6.70501833       0.15923943      -0.35669232      -0.87694682      -0.06139757      -0.00872494      -0.04792538      -8.73917522
Si       2.92162106       3.92562397       0.38388717      -0.61831283       0.62706252      -0.19264206       0.01694766       0.11167709       0.17156480      -8.75725642
Si       4.85553824       4.94197259       3.51191075       1.62936072      -0.52921039       0.16389422       0.24238137      -0.00416314       0.35371336      -8.74894263
Si       6.78955813       6.19445463       6.71880909      -0.03445879       2.12955560      -0.00018537      -0.32740097       0.30578699      -0.52568981      -8.74938605
Si       4.86371303       7.25005161       0.43696707       0.38673052      -0.14336385       0.18601311      -0.70512465       0.10231655       0.30957833      -8.75129201
Si       6.68794279       8.39707220       3.66884122      -0.94765141       1.08691639       1.67785828       0.30960065      -0.73036303      -0.69215130      -8.69699318
Si       8.74098349       9.42821229       6.78229681       1.15055569       0.01127786       1.25505732      -0.15614892       0.46661515      -0.86832528      -8.72236158
Si       4.81266925       0.54461254       0.31604297      -0.10285554      -1.42720552       0.01048331       0.04412528       0.15058375       0.74546416      -8.75392383
Si       6.67978675       1.64689476       3.53491925      -0.41138308      -0.46024521       0.43891190       0.08505354       0.59789504       0.07799017      -8.72564658
Si       8.64216873       2.81420633       6.69183685       0.37990315       0.37558230      -1.43403351      -0.07489433       0.22773826      -0.24658552      -8.76403214
Si       6.69028595       3.81743530       0.29568680      -1.34313316       0.04819642       0.64942270      -0.45043483       0.80809239       0.50423924      -8.73006491
Si       8.68804079       4.95526470       3.49002624      -1.56190662      -0.82270904       0.95805650       0.33835690       0.37360938      -0.02782794      -8.73680498
Si      10.69462171       6.13417366       6.57336399      -0.72267962       0.54881968      -1.35797516      -1.06324723      -0.93983180       0.61661363      -8.70109198
Si       8.67417684       7.29278785       0.54928746      -0.83251132       0.03609248       1.39175141       0.01099645      -0.50725759      -0.53609804      -8.70785017
Si      10.64504109       8.38981969       3.48004835       0.91573644       0.94838053      -0.21653008       0.10064583      -0.23781552       1.13200648      -8.71044288
Si      12.54476574       9.42971316       6.75960722       0.75355986       1.29874257      -0.67498657       0.08040968       0.47698503       0.14999941      -8.72209181
Si       8.54005422       0.54056427       0.43370939      -0.91034109      -0.29674104       1.97095210       0.69066496       0.19133632      -0.39299632      -8.73751485
Si      10.61962771       1.67315356       3.52296032      -1.26657005      -1.17376071      -0.10321992      -0.86837121      -0.07015936      -0.16830574      -8.73413136
Si      12.49726934       2.76643277       6.67910043      -0.03924207      -0.82662956       0.47700893      -0.16822140       0.36731658       0.41558129      -8.72789713
Si      10.55091384       3.79776522       0.30700046      -0.02600108      -0.13727421      -1.34880094       0.66676842       0.50716757       0.36890766      -8.73522332
Si      12.51513820       4.97529992       3.47201703      -0.17510202      -0.23232821      -0.99175991       0.46253299      -0.37128033       0.30955496      -8.74716617
Si      14.46246013       6.13238456       6.64900814       1.46272299       1.83156262      -0.34841012       0.04140802      -0.13806308       0.48337831      -8.75643776
Si      12.42180148       7.10705805       0.33520213       0.14068455      -1.54276485      -0.75783179       0.21591076       0.19579593       0.31486012      -8.73643842
Si      14.41550443       8.25564746       3.43876774      -0.03663665       1.96967240      -0.89274434      -0.37442053       0.52894416       0.43985072      -8.72298799
Si      16.28067728       9.48365891       6.65363594      -0.66555695      -0.34514440      -0.14412816      -0.13235599       0.18731033      -0.02160854      -8.73846098
54
Lattice="11.5478352 0.0 0.0 5.773917198490155 10.000722372470358 0.0 5.773916394327279 3.333571176804646 9.428767828939895" Properties=species:S:1:pos:R:3:momenta:R:3:forces:R:3:energies:R:1 spacegroup="_JSON {\"number\": 1, \"setting\": 1}" unit_cell=conventional occupancy="_JSON {\"0\": {\"Si\": 1.0}, \"1\": {\"Si\": 1.0}, \"2\": {\"Si\": 1.0}, \"3\": {\"Si\": 1.0}, \"4\": {\"Si\": 1.0}, \"5\": {\"Si\": 1.0}, \"6\": {\"Si\": 1.0}, \"7\": {\"Si\": 1.0}, \"8\": {\"Si\": 1.0}, \"9\": {\"Si\": 1.0}, \"10\": {\"Si\": 1.0}, \"11\": {\"Si\": 1.0}, \"12\": {\"Si\": 1.0}, \"13\": {\"Si\": 1.0}, \"14\": {\"Si\": 1.0}, \"15\": {\"Si\": 1.0}, \"16\": {\"Si\": 1.0}, \"17\": {\"Si\": 1.0}, \"18\": {\"Si\": 1.0}, \"19\": {\"Si\": 1.0}, \"20\": {\"Si\": 1.0}, \"21\": {\"Si\": 1.0}, \"22\": {\"Si\": 1.0}, \"23\": {\"Si\": 1.0}, \"24\": {\"Si\": 1.0}, \"25\": {\"Si\": 1.0}, \"26\": {\"Si\": 1.0}, \"27\": {\"Si\": 1.0}, \"28\": {\"Si\": 1.0}, \"29\": {\"Si\": 1.0}, \"30\": {\"Si\": 1.0}, \"31\": {\"Si\": 1.0}, \"32\": {\"Si\": 1.0}, \"33\": {\"Si\": 1.0}, \"34\": {\"Si\": 1.0}, \"35\": {\"Si\": 1.0}, \"36\": {\"Si\": 1.0}, \"37\": {\"Si\": 1.0}, \"38\": {\"Si\": 1.0}, \"39\": {\"Si\": 1.0}, \"40\": {\"Si\": 1.0}, \"41\": {\"Si\": 1.0}, \"42\": {\"Si\": 1.0}, \"43\": {\"Si\": 1.0}, \"44\": {\"Si\": 1.0}, \"45\": {\"Si\": 1.0}, \"46\": {\"Si\": 1.0}, \"47\": {\"Si\": 1.0}, \"48\": {\"Si\": 1.0}, \"49\": {\"Si\": 1.0}, \"50\": {\"Si\": 1.0}, \"51\": {\"Si\": 1.0}, \"52\": {\"Si\": 1.0}, \"53\": {\"Si\": 1.0}}" energy=-470.347949096016 stress="0.00026584097587084327 0.00026100636186533136 -0.00022076345066801524 0.00026100636186533136 -0.001054282013458812 0.00038594858788727846 -0.00022076345066801524 0.00038594858788727846 -0.00019934853069830436" free_energy=-470.347949096016 pbc="T T T"
Si       6.80368053       3.91937129       2.64014086      -0.40118807      -0.40673271       0.63230142      -0.53128631      -1.33180621       0.53528025      -8.71558216
Si       8.62298089       5.04646222       5.79796601       0.34262798       0.08050921      -0.41274454       0.19405990       0.25444199       0.83082307      -8.71934536
Si      10.48730309       6.01737489       8.90891749       0.22395697      -0.26103735      -1.36783079       0.50489986       0.66530998       0.08463783      -8.67704028
Si       8.69505757       7.21613663       2.97776453      -0.87735686      -0.62017140       1.05584243      -0.39666485       0.67874269      -0.47529775      -8.65845529
Si      10.69242114       8.33097698       5.90263290       0.28601938       1.06668901      -1.10546703      -0.10689929       0.88341429      -0.18936133      -8.75129667
Si      12.54380532       9.49130091       9.21074194       0.59847710      -0.02757884      -0.35692442      -0.07238826      -0.50842589      -1.30388133      -8.71164315
Si      10.48258068      10.60554998       2.65302519      -0.06508028       0.16646961      -0.41848376       1.47955438      -0.67960006       0.46725292      -8.70732034
Si      12.50430731      11.65871954       5.93892525      -0.19697928      -0.04055347       0.03093848      -0.15736876       0.50586929      -0.48142540      -8.76332258
Si      14.48366368      12.84109496       8.99821444      -0.94481790      -0.06478683      -0.69075063      -1.31252427      -1.02660188       0.19864273      -8.66419070
Si      10.58412590       3.77315493       2.64474998      -1.44429741      -1.05929418       0.08517454      -0.21762389       0.89366992       0.19894607      -8.69178083
Si      12.65280719       4.96696019       5.81878906       0.55848386      -0.74661366      -0.42057616      -0.67132598       0.11830135       0.17695222      -8.69002790
Si      14.41452015       6.10733546       8.97989708       0.11152138      -1.05287479      -1.42349850      -0.73966495      -0.60981868       0.35993719      -8.68807090
Si      12.47065213       7.18016015       2.69547303       0.25960714       0.86224218      -0.33749959       0.33612014       0.01156800      -0.40555341      -8.73948651
Si      14.43756793       8.32848974       5.81689192       0.67905791       1.21090044      -0.48267501      -0.54068680       0.61990194      -0.47794014      -8.71918174
Si      16.20768672       9.34949291       8.94336207      -0.92687816       0.16726313      -0.43298806       0.08250749       0.63911043       1.04372004      -8.70289196
Si      14.40282843      10.54452530       2.83098107       0.88212187      -0.35612320       1.41381050      -0.62944502       0.37552209      -0.54283587      -8.77346380
Si      16.23269110      11.75491647       5.84411130      -0.84337054      -0.27270924      -0.45702271       1.46546189      -0.83024431       0.10879630      -8.69883412
Si      18.16091457      12.65621799       9.07817102      -0.81042903      -0.61092892      -0.58749088       1.25390828      -0.10625441      -0.26678539      -8.72107388
Si      14.54088139       3.75831391       2.69000915       0.74211657      -1.67301877      -0.06024800      -0.37209612       0.56804782       0.94639301      -8.64592567
Si      16.44220632       5.12620153       5.89043862       0.89754252       0.04144290      -0.22578529       0.17195147      -0.82835272       0.07028776      -8.69875523
Si      18.41123650       6.14806720       9.00611984      -0.15535123      -0.01312080      -0.50353527      -1.21480067      -0.09539684       0.15432777      -8.72752015
Si      16.37930366       7.11685910       2.80568454       0.77027146       0.52049145       0.12542210      -0.04965062       1.21182575       0.07892889      -8.69312162
Si      18.21985886       8.44883134       6.05019112      -0.50219051      -0.31632491       0.93506361       1.00430417       0.94251055      -0.35125932      -8.69424247
Si      20.26897763       9.50132274       9.13832899       0.73018536      -0.29361038       1.24639796       0.00659671      -0.23657612      -0.39245987      -8.74368255
Si      18.28096408      10.59225999       2.73753031       0.52483450       0.57781741      -0.12630200       0.24480115      -0.28372333       0.54799685      -8.70281790
Si      20.25011671      11.69444711       6.00695960       1.21451786      -0.41662474       0.53873148      -0.22661000      -0.68154531      -0.18688478      -8.77136186
Si      22.08466736      12.76499890       9.06711416       0.23644468       0.04229526       0.03057155      -0.09175886       0.79135577       0.05754754      -8.69331118
Si       0.96164653       0.60906964       0.37615894       0.46327917       0.87628361       0.77381055       0.16820337      -0.44505515      -0.11843310      -8.72656291
Si       2.96083274       1.57234657       3.66527789      -0.28885222      -0.12104071       0.38331313      -1.59317404       0.88301482      -0.56658103      -8.68739120
Si       4.82429480       2.82754431       6.66771592       0.30381398       0.17337261      -0.36205109       0.24963451       0.59607805       0.67116063      -8.72597033
Si       2.90276870       3.95352737       0.37823879       0.08410642       0.23139946      -0.06169578       0.74104273      -0.69293166       0.02187386      -8.74299654
Si       4.93457656       4.91463392       3.53171107       1.08267095      -0.45790244       0.53103551      -0.93884015       0.21383343       0.11879767      -8.73350426
Si       6.78100470       6.29472199       6.69877308      -0.16595019       1.22142989      -0.69854185       0.15864465      -1.52055861      -0.28047437      -8.71750062
Si       4.86032573       7.24753151       0.46175614      -0.36653407       0.06017195       0.75945675      -0.13582377       0.16248288       0.31394663      -8.76903970
Si       6.65499205       8.42172881       3.72080857      -0.23249790      -0.15761068       0.20879117       0.61803756      -0.78187015      -1.06991193      -8.66571891
Si       8.78628950       9.44316215       6.81219540       0.45616295       0.47240074      -0.06967756      -0.63975177       0.12532194      -0.71151705      -8.66008559
Si       4.80591597       0.49196379       0.34212925      -0.24199177      -0.35160302       0.84278659      -0.28770075       1.03488603       0.17930762      -8.75355434
Si       6.66266442       1.64735636       3.55602635      -0.20474805       0.44166774       0.28317769       0.22266563       0.46899738      -0.24621003      -8.62932941
Si       8.64680548       2.84647974       6.62041053      -0.39958729       0.87602251      -1.06089979      -0.81497500       0.29385512       0.63947592      -8.75092509
Si       6.61893712       3.84436565       0.33524848      -1.07573288       0.81608242       0.60481988       0.72160292       0.17580977      -0.48564072      -8.68944638
Si       8.63473950       4.92771754       3.52770218      -0.26882331      -0.23181671       0.28315056       1.13007330       0.35985454      -0.78840863      -8.72182630
Si      10.63123089       6.11731955       6.52551826      -1.36647432      -1.17668072      -0.53415284       0.22756212      -0.89705587       0.36545895      -8.71640570
Si       8.63939361       7.28145123       0.59751878      -0.36409053      -0.35103655       0.41287559       0.51745387      -0.04810412      -0.68120636      -8.66227175
Si      10.68452423       8.42566167       3.50859133       0.37192497       0.35297222       1.15158230      -0.74109103      -0.50309748       0.53113417      -8.71846103
Si      12.58457437       9.49993902       6.74012154       0.71002783       1.07088443       0.06324891      -0.13594951      -0.71166758       0.67043519      -8.67898622
Si       8.51973129       0.52991442       0.50705214       0.11348909      -0.17395228       0.61513066       0.61561200      -0.05477001      -1.22845278      -8.64966059
Si      10.53483673       1.61451168       3.51315812      -1.59341571      -0.94975320      -0.21374842       0.58885086       0.38781444       0.05205096      -8.75848244
Si      12.48521846       2.74037517       6.71216716      -0.42077387      -0.15981378       0.59879009      -0.17635738       0.40578300      -0.30367737      -8.70779879
Si      10.57709731       3.80671326       0.25663486       0.93098798       0.37644541      -0.49629629       0.30898778       0.11589077       0.67232349      -8.72865187
Si      12.52606243       4.94387083       3.43318116       0.58264322      -0.99738911      -0.48782849       0.43794403      -0.50099018       0.32011328      -8.71014519
Si      14.52934797       6.20710072       6.64497282       0.90527841       0.77187604       0.04670074      -0.67722045      -1.08997928      -0.09083599      -8.76954139
Si      12.42906112       7.04153405       0.31179747      -0.00026400      -0.81877284      -0.09757201      -0.30971236       0.73083159       0.46769272      -8.69107709
Si      14.40671830       8.35306474       3.41509944      -0.15333901       1.24297300       0.08151393       0.18392519      -1.41696938       0.79393067      -8.68651328
Si      16.24166006       9.48277778       6.64363427      -0.75115713       0.45937364      -0.24215138       0.14698489       0.76734961      -0.03313825      -8.73235541
54
Lattice="11.5478352 0.0 0.0 5.773917198490155 10.000722372470358 0.0 5.773916394327279 3.333571176804646 9.428767828939895" Properties=species:S:1:pos:R:3:momenta:R:3:forces:R:3:energies:R:1 spacegroup="_JSON {\"number\": 1, \"setting\": 1}" unit_cell=conventional occupancy="_JSON {\"0\": {\"Si\": 1.0}, \"1\": {\"Si\": 1.0}, \"2\": {\"Si\": 1.0}, \"3\": {\"Si\": 1.0}, \"4\": {\"Si\": 1.0}, \"5\": {\"Si\": 1.0}, \"6\": {\"Si\": 1.0}, \"7\": {\"Si\": 1.0}, \"8\": {\"Si\": 1.0}, \"9\": {\"Si\": 1.0}, \"10\": {\"Si\": 1.0}, \"11\": {\"Si\": 1.0}, \"12\": {\"Si\": 1.0}, \"13\": {\"Si\": 1.0}, \"14\": {\"Si\": 1.0}, \"15\": {\"Si\": 1.0}, \"16\": {\"Si\": 1.0}, \"17\": {\"Si\": 1.0}, \"18\": {\"Si\": 1.0}, \"19\": {\"Si\": 1.0}, \"20\": {\"Si\": 1.0}, \"21\": {\"Si\": 1.0}, \"22\": {\"Si\": 1.0}, \"23\": {\"Si\": 1.0}, \"24\": {\"Si\": 1.0}, \"25\": {\"Si\": 1.0}, \"26\": {\"Si\": 1.0}, \"27\": {\"Si\": 1.0}, \"28\": {\"Si\": 1.0}, \"29\": {\"Si\": 1.0}, \"30\": {\"Si\": 1.0}, \"31\": {\"Si\": 1.0}, \"32\": {\"Si\": 1.0}, \"33\": {\"Si\": 1.0}, \"34\": {\"Si\": 1.0}, \"35\": {\"Si\": 1.0}, \"36\": {\"Si\": 1.0}, \"37\": {\"Si\": 1.0}, \"38\": {\"Si\": 1.0}, \"39\": {\"Si\": 1.0}, \"40\": {\"Si\": 1.0}, \"41\": {\"Si\": 1.0}, \"42\": {\"Si\": 1.0}, \"43\": {\"Si\": 1.0}, \"44\": {\"Si\": 1.0}, \"45\": {\"Si\": 1.0}, \"46\": {\"Si\": 1.0}, \"47\": {\"Si\": 1.0}, \"48\": {\"Si\": 1.0}, \"49\": {\"Si\": 1.0}, \"50\": {\"Si\": 1.0}, \"51\": {\"Si\": 1.0}, \"52\": {\"Si\": 1.0}, \"53\": {\"Si\": 1.0}}" energy=-470.5373001066829 stress="0.0032481999849269883 -0.00139052515587221 -0.0009332706292846943 -0.00139052515587221 -0.00043333420839029787 0.0013137302977871748 -0.0009332706292846943 0.0013137302977871748 -0.0015421389350362051" free_energy=-470.5373001066829 pbc="T T T"
Si       6.77079996       3.85385563       2.68740374      -0.68557211      -1.82706371       1.01415469       0.10646381      -0.28356517      -0.08311535      -8.75925084
Si       8.63858780       5.06125257       5.80454649       0.09534967       0.44671309       0.49614436      -0.40620575       0.11340245       0.19592380      -8.75108722
Si      10.51417971       6.02723174       8.85115379       0.73542683       0.56878196      -0.66486185       0.24807080       0.39722007       0.74559878      -8.70211555
Si       8.64311851       7.21296126       3.00979893      -0.91975621       0.48831460       0.06103701       0.33366490       0.63670104      -0.88893161      -8.66618976
Si      10.70396751       8.40329787       5.85570947       0.15218375       1.34297937      -0.33461512      -0.11199651      -0.47176757       1.15747942      -8.71048922
Si      12.56349038       9.47569406       9.15032794       0.03667652      -0.43807883      -1.69887139      -0.52687537      -0.00696265      -0.32658615      -8.75322544
Si      10.52662123      10.59099371       2.66014911       1.45254248      -0.61141614       0.85270836       0.36608836      -0.26877191       1.05918083      -8.72515137
Si      12.48942303      11.67903125       5.92230806      -0.34158440       0.78983626      -0.60881575      -0.04261610       0.41132334      -0.26579566      -8.75821559
Si      14.39780135      12.80414491       8.97512828      -1.99754996      -1.18478249      -0.10235640      -0.03000520      -0.41183986       0.53078458      -8.68110326
Si      10.51234120       3.75495997       2.65348882      -1.02310460       0.34988426       0.18268164       0.84799335       0.83823148      -0.05894564      -8.68846391
Si      12.65534156       4.93660464       5.80464171      -0.45229732      -0.36139902      -0.12546424      -0.63320919       0.31991546       0.15136864      -8.69196937
Si      14.39634623       6.04187369       8.93360138      -0.67681713      -1.18789515      -0.16171770      -0.25457503       0.39560187       1.05809836      -8.65524802
Si      12.49354437       7.21547088       2.66885618       0.51458291       0.29607129      -0.50992551      -0.04455199      -0.73062230       0.24616230      -8.69876324
Si      14.44672903       8.40241717       5.77933715      -0.36239572       1.31653388      -0.75382865      -0.66424382      -0.50046012       0.28675955      -8.72102950
Si      16.16759335       9.38025444       8.96054479      -0.49210457       0.91734265       1.00361211       0.52066989       0.29218590       0.72143340      -8.71893260
Si      14.40847875      10.54234551       2.87040794      -0.83942007       0.21305342      -0.10411389      -1.27161895       0.16469450      -1.29557644      -8.72115223
Si      16.24135580      11.71901635       5.82795680       0.98291050      -0.80073002      -0.08544219       0.75654573       0.31005771       0.38060379      -8.71937439
Si      18.16521508      12.62467400       9.04741067       0.83825225      -0.45602422      -0.41142880       0.74982846       0.41444064       0.40090483      -8.73022130
Si      14.56577557       3.70279426       2.71822358       0.21497101      -0.27864068       0.97334883      -0.34140169       1.21527150       0.31756067      -8.67997952
Si      16.48890003       5.10038964       5.88345804       0.72604296      -0.91857011      -0.01220508      -0.44238597      -0.40794834       0.17829089      -8.73414107
Si      18.36708562       6.14818439       8.98599274      -1.25569311       0.07108212      -0.25844122      -0.16096061       0.10795265       0.17736479      -8.74778400
Si      16.41113779       7.17989993       2.81934509       0.33963374       1.60632418       0.45184373      -0.46003546       0.13712509       0.29244443      -8.71219631
Si      18.23014478       8.47737346       6.07782933       0.79944307       1.36428067       0.00925105       0.63869951       0.78872930      -0.78563768      -8.67069638
Si      20.30067025       9.47944909       9.17949698       0.34569469      -0.50360667       0.20661393      -0.50284457      -0.09447092      -0.85230436      -8.73113334
Si      18.30857665      10.60805850       2.75480280       0.34208229      -0.04754582       0.74842838      -0.47994187      -0.56945038       0.40736792      -8.70135159
Si      20.29348339      11.65675616       6.02617525       0.28285223      -0.75620648       0.15074075      -0.84422742       0.34487969      -0.35722363      -8.74623117
Si      22.09497182      12.79626989       9.07348201       0.20910383       1.06819291       0.26018348       0.11368427       0.47218267       0.24233479      -8.69264585
Si       0.98644897       0.63408591       0.40680526       0.35178353       0.05378992       0.34879356      -0.34339647      -0.53901672      -0.30286148      -8.74327038
Si       2.89909563       1.59153525       3.66518058      -1.65912264       0.63965378      -0.32199224      -0.03213645       0.07165602      -0.29618822      -8.73603661
Si       4.84922490       2.85761042       6.67760958       0.57882636       0.86152609       0.74494034      -0.01383514       0.16157342       0.69998309      -8.73499862
Si       2.93342515       3.93084421       0.37543597       0.98098313      -1.17671487      -0.04365029       0.34129035      -0.99494768       0.02656977      -8.74166324
Si       4.94717381       4.90547709       3.55972868      -0.65558189       0.21298723       0.44581439      -1.14525318       0.61240039      -0.24265945      -8.69862391
Si       6.78247228       6.29214514       6.65823136       0.26229157      -1.23578974      -0.73664634       0.31450306      -1.20064032       0.16054582      -8.71719952
Si       4.84695911       7.25814239       0.50571448       0.02429092       0.36777482       0.73523439       0.51145513       0.24639625      -0.39301772      -8.76501711
Si       6.66823937       8.39178475       3.69797786       0.74263646      -0.77273946      -0.87423172       0.63082761       0.04654242      -0.27223539      -8.71677139
Si       8.78686037       9.46675948       6.79088604      -0.36683957       0.31331506      -0.54445568      -0.37766585      -0.31729913       0.06478128      -8.69315806
Si       4.77973886       0.50776608       0.37713923      -0.75182141       0.76787853       0.21337129      -0.27331710       0.33009662      -0.87536389      -8.75499783
Si       6.66204767       1.67982480       3.56076031       0.19161345       0.59388012      -0.07937270       0.26129199      -0.33254848      -0.15232825      -8.68514298
Si       8.60042603       2.89380351       6.59200292      -1.16103912       0.70113764      -0.02849853      -0.02854007      -0.57314123       0.63612378      -8.73248655
Si       6.59748541       3.88408304       0.34358603       0.33538792       0.51255652      -0.30192337       1.04078353      -0.55756138      -0.55201017      -8.66213139
Si       8.65718268       4.92697261       3.51215169       0.89101580       0.16405381      -0.78551226       0.22497503       0.21528137      -0.44137530      -8.72326959
Si      10.58472154       6.04223512       6.50586450      -0.13540559      -1.26497435      -0.29559691       1.28377820       0.73909810       0.05662059      -8.68298276
Si       8.63861708       7.26447104       0.59556285       0.23593109      -0.25320353      -0.41860101       0.13339700       0.12771013      -0.41257084      -8.67151402
Si      10.67373267       8.42380917       3.57236936      -0.74519580      -0.43521911       0.93895394      -0.60138695      -0.55182733      -0.78501815      -8.74071513
Si      12.61325243       9.52433176       6.76421292       0.31481492      -0.10898114       0.67211091      -0.40916456      -0.60225513      -0.04911319      -8.70815936
Si       8.54494189       0.51581731       0.49334946       0.74100936      -0.40321338      -1.03940581       0.19057016      -0.20849507      -0.85004159      -8.66624694
Si      10.49295826       1.58609358       3.50679298       0.22477150      -0.05101030      -0.00206750       1.44938660       0.69478376       0.15094027      -8.73251132
Si      12.46352624       2.74281414       6.72362476      -0.26099493       0.14640253      -0.26595697       0.38787736      -0.00701571      -0.70417293      -8.69932049
Si      10.62009907       3.82557795       0.25548486       0.36114142       0.27694544       0.41556568      -1.04284340      -0.14335615       0.53164389      -8.72081694
Si      12.56716958       4.87927631       3.41837798       0.83667412      -1.29528160      -0.10993500      -0.14725004       0.16808059       0.19205029      -8.64797021
Si      14.54848514       6.20707108       6.63376868      -0.17705262      -0.67266086      -0.61352226      -0.69456108      -0.71981939      -0.61839828      -8.73960587
Si      12.41826501       7.02902831       0.32136674      -0.33684992       0.34204922       0.37759993      -0.02600522       0.73720078       0.14038998      -8.69557446
Si      14.40868351       8.35587277       3.44649090       0.24477391      -1.07943742       0.97258593       0.24762192      -1.21258138       0.23436443      -8.71301020
Si      16.21614401       9.53343763       6.63467834      -0.08949544       1.32784371       0.01773769       0.65358397       0.19562913       0.41779641      -8.74596316
54
Lattice="11.5478352 0.0 0.0 5.773917198490155 10.000722372470358 0.0 5.773916394327279 3.333571176804646 9.428767828939895" Properties=species:S:1:pos:R:3:momenta:R:3:forces:R:3:energies:R:1 spacegroup="_JSON {\"number\": 1, \"setting\": 1}" unit_cell=conventional occupancy="_JSON {\"0\": {\"Si\": 1.0}, \"1\": {\"Si\": 1.0}, \"2\": {\"Si\": 1.0}, \"3\": {\"Si\": 1.0}, \"4\": {\"Si\": 1.0}, \"5\": {\"Si\": 1.0}, \"6\": {\"Si\": 1.0}, \"7\": {\"Si\": 1.0}, \"8\": {\"Si\": 1.0}, \"9\": {\"Si\": 1.0}, \"10\": {\"Si\": 1.0}, \"11\": {\"Si\": 1.0}, \"12\": {\"Si\": 1.0}, \"13\": {\"Si\": 1.0}, \"14\": {\"Si\": 1.0}, \"15\": {\"Si\": 1.0}, \"16\": {\"Si\": 1.0}, \"17\": {\"Si\": 1.0}, \"18\": {\"Si\": 1.0}, \"19\": {\"Si\": 1.0}, \"20\": {\"Si\": 1.0}, \"21\": {\"Si\": 1.0}, \"22\": {\"Si\": 1.0}, \"23\": {\"Si\": 1.0}, \"24\": {\"Si\": 1.0}, \"25\": {\"Si\": 1.0}, \"26\": {\"Si\": 1.0}, \"27\": {\"Si\": 1.0}, \"28\": {\"Si\": 1.0}, \"29\": {\"Si\": 1.0}, \"30\": {\"Si\": 1.0}, \"31\": {\"Si\": 1.0}, \"32\": {\"Si\": 1.0}, \"33\": {\"Si\": 1.0}, \"34\": {\"Si\": 1.0}, \"35\": {\"Si\": 1.0}, \"36\": {\"Si\": 1.0}, \"37\": {\"Si\": 1.0}, \"38\": {\"Si\": 1.0}, \"39\": {\"Si\": 1.0}, \"40\": {\"Si\": 1.0}, \"41\": {\"Si\": 1.0}, \"42\": {\"Si\": 1.0}, \"43\": {\"Si\": 1.0}, \"44\": {\"Si\": 1.0}, \"45\": {\"Si\": 1.0}, \"46\": {\"Si\": 1.0}, \"47\": {\"Si\": 1.0}, \"48\": {\"Si\": 1.0}, \"49\": {\"Si\": 1.0}, \"50\": {\"Si\": 1.0}, \"51\": {\"Si\": 1.0}, \"52\": {\"Si\": 1.0}, \"53\": {\"Si\": 1.0}}" energy=-470.8974778279387 stress="-0.00010044060266660226 0.00041122830058998994 0.0007189222812208144 0.00041122830058998994 0.0006490216144848052 0.0002666044696538856 0.0007189222812208144 0.0002666044696538856 0.0003699041689455998" free_energy=-470.8974778279387 pbc="T T T"
Si       6.74150927       3.77346132       2.72722162      -0.42280237      -0.75540106       0.32729736       0.15229737       1.56209569      -0.76224714      -8.70665664
Si       8.63263914       5.08192173       5.82620755      -0.12954199       0.20001638       0.14943623       0.32759249      -0.43251122      -0.50663313      -8.76698703
Si      10.56256668       6.06566462       8.84413611       1.13019969       0.75008795       0.31799706       0.31971872      -0.17948143       0.44849204      -8.75690279
Si       8.61578731       7.25297541       2.97406927      -0.00234639       0.80937776      -1.48609166       0.78956343      -0.24582615      -1.12580143      -8.70624795
Si      10.70586477       8.44395407       5.88562275      -0.12310725       0.03433755       1.36779629      -0.28390378      -1.15997869       0.74825397      -8.66730784
Si      12.54789204       9.45810706       9.06808875      -0.54521698      -0.15827164      -1.08645641      -0.19776937       0.28084637       1.02207411      -8.74318481
Si      10.59840784      10.55538277       2.73537760       0.95498455      -0.63707083       1.71706296      -0.93193178       0.15916726      -0.07797163      -8.70994509
Si      12.47097947      11.72657793       5.88773602      -0.34333601       0.82956247      -0.55739100       0.03157160      -0.33962181       0.32837130      -8.72578947
Si      14.30703308      12.73612300       8.98865232      -1.22270190      -1.21182296       0.55023265       0.92072907       0.37399260       0.27307795      -8.70460992
Si      10.50408439       3.79689952       2.65911622       0.87642875       1.06644478       0.02877916       1.47953839       0.13442165      -0.06339571      -8.72650044
Si      12.61206118       4.92839850       5.80006319      -1.07047678      -0.00471019      -0.13314181      -0.12961024       0.11166320      -0.17304670      -8.76131063
Si      14.35870301       6.00335173       8.95727927      -0.61218778      -0.17488019       0.81802133       0.32902768       0.80417947       0.11110954      -8.69605955
Si      12.51353823       7.19786074       2.66037538       0.16577102      -1.01609861       0.31825410      -0.36801117      -0.91767372       0.75722060      -8.66557736
Si      14.41171339       8.44270372       5.76516048      -0.74809139       0.09786330       0.43533592       0.20498273      -0.99310312       1.13377713      -8.69900319
Si      16.16734564       9.43175557       9.02979158       0.56508603       0.89521574       1.41516161       0.83341037      -0.29584579      -0.14152799      -8.73399063
Si      14.33477975      10.55067439       2.81891016      -1.49191744      -0.06189368      -1.72095734       0.55634716      -0.48929948      -0.76527325      -8.70180438
Si      16.30705012      11.70539162       5.83759489       1.24773444       0.50549947       0.40948046      -0.33075743       1.16520770       0.22263878      -8.72367101
Si      18.22478443      12.62435012       9.04012125       1.17449996       0.55205130       0.04296831      -0.27350153       0.83333421       0.06134948      -8.72565634
Si      14.56431929       3.73359775       2.76964879      -0.26352662       1.33083090       0.77223246      -0.31685615       0.73358925      -0.52770799      -8.75088595
Si      16.50284219       5.04477797       5.88807846      -0.29205240      -1.03288567       0.13932958      -0.82074394       0.25553947      -0.00864708      -8.76999383
Si      18.30847824       6.15314481       8.97975659      -0.78369831       0.05278477       0.03439349       0.59964058      -0.13430566       0.23400812      -8.73893552
Si      16.41206972       7.25435428       2.85128614      -0.22707662       0.98683337       0.66676029      -0.15581351      -0.82541325      -0.09468955      -8.73955481
Si      18.28643275       8.55563218       6.04833993       1.12700148       1.16550041      -1.09947301      -0.22109195      -0.97058717      -0.64593466      -8.64797168
Si      20.29760388       9.44880500       9.16130551      -0.45015006      -0.67813453      -0.77359125      -0.45947626      -0.13806507      -0.36095764      -8.71046153
Si      18.30366757      10.58163419       2.79818451      -0.53656325      -0.95234609       0.67891956      -0.50014700      -0.52170778      -0.46512774      -8.73725006
Si      20.27845880      11.64300328       6.01861280      -0.74946320       0.38734752      -0.44554017      -0.42839734       0.94125789      -0.37583286      -8.70882717
Si      22.11481223      12.86052817       9.09684280       0.62151137       1.16928660       0.61547882       0.39100230      -0.36370859       0.18259784      -8.73509922
Si       0.98642108       0.62180576       0.41823548      -0.40998228      -0.38596815       0.19585103      -0.55454786      -0.01187931       0.11359722      -8.74392594
Si       2.83305527       1.61960372       3.64443156      -0.51390074       0.32632216      -0.34506227       1.31465556      -0.34584125       0.17093881      -8.71143927
Si       4.87110318       2.89682102       6.73773892       0.11527064       0.40345720       1.40367867      -0.55742006      -0.73041168       0.13045677      -8.72474013
Si       2.98745345       3.84134972       0.37545761       0.86161770      -1.95629824       0.07563220      -0.51011415       0.08749186       0.14750442      -8.73442910
Si       4.88081635       4.93884173       3.57030671      -1.58038041       0.99626622      -0.07860514      -0.00340752       0.37556699      -0.38116292      -8.69452410
Si       6.80332125       6.20883806       6.62916670       0.39082582      -1.41354226      -0.30727575      -0.23584484       0.83831233       0.40981418      -8.71886518
Si       4.86533708       7.28564530       0.52151610       0.56226334       0.62943232      -0.22665578       0.07438027       0.04354953      -0.75535563      -8.72832197
Si       6.72539565       8.36486786       3.65463378       1.26696159      -0.07758263      -0.55898254      -0.03071952       0.71944744       0.58032025      -8.74740702
Si       8.76067026       9.46995410       6.77198920      -0.47637570      -0.14984781      -0.07827543       0.22554085      -0.15255766       0.44718860      -8.75718472
Si       4.73592193       0.54902827       0.35758131      -0.78280710       0.60143473      -0.79338646       0.25824807      -0.47477013      -0.25865554      -8.68321629
Si       6.67943348       1.68713583       3.55635580       0.40430945      -0.46646531       0.01898875       0.00406333      -0.89218705       0.24949763      -8.76763314
Si       8.55163232       2.90223229       6.61110715      -0.48061698      -0.42289173       0.67388595       0.83438228      -0.74989512       0.30703055      -8.69131394
Si       6.65150549       3.88449668       0.31451343       1.60282482      -0.52747507      -0.62280346       0.55554624      -0.66611018       0.16528976      -8.70376087
Si       8.69514153       4.94490516       3.46610647       0.26520540       0.53934005      -0.74963205      -0.89411988       0.27356355       0.40934812      -8.68697244
Si      10.62512847       6.01680117       6.49454780       1.49206908       0.44632006      -0.07309830       0.56822489       1.34441507       0.29804251      -8.66733933
Si       8.64532027       7.25593969       0.56227288      -0.17550657      -0.09035454      -0.76601675      -0.61517882       0.05112268      -0.08588041      -8.69725511
Si      10.62079492       8.38047833       3.58644171      -1.06537330      -1.17938722      -0.35247729       0.21737542      -0.39668315      -0.60690078      -8.76101473
Si      12.61094704       9.50765258       6.78159444      -0.44249782      -0.28425317      -0.27939423      -0.56197095       0.34109764      -1.07719580      -8.72766834
Si       8.58359852       0.48845685       0.41804415       0.58833823      -0.57070459      -1.58306764      -0.36965675       0.06821443       0.12188588      -8.75127122
Si      10.54432257       1.60518507       3.50936200       1.31288990       0.65746498       0.03743312      -0.15289923       0.23824528      -0.08280257      -8.74993514
Si      12.46928437       2.74644288       6.68834080       0.53273653      -0.04598995      -0.90749680       0.59147513      -0.14901661      -0.04140054      -8.72504380
Si      10.59074238       3.83616473       0.29388311      -1.51510369       0.16190010       0.94717110      -1.17020284      -0.01435292       0.12508504      -8.72234778
Si      12.59635343       4.82828546       3.41896635       0.11668041      -0.46117274       0.11721644      -0.76572850       0.90326366       0.13054965      -8.63566621
Si      14.51605067       6.15296669       6.58434220      -0.97497168      -1.21556057      -1.07633308      -0.36032593      -0.02743074       0.12695301      -8.68319308
Si      12.40715934       7.07056764       0.34257682       0.05618472       1.13144169       0.37681488       0.53355100       0.30666857      -0.06931135      -8.73416113
Si      14.42517587       8.27577116       3.49386407       0.23247301      -1.51309204       0.62912013      -0.33999570       0.58088717      -0.54621914      -8.75049693
Si      16.23554683       9.59465664       6.65577489       0.76790508       0.71768170       0.82047574       0.42727905      -0.90887628       0.54320595      -8.73816607
