53
Lattice="11.5478352 0.0 0.0 5.773917198490155 10.000722372470358 0.0 5.773916394327279 3.333571176804646 9.428767828939895" Properties=species:S:1:pos:R:3:momenta:R:3:forces:R:3:energies:R:1 spacegroup="_JSON {\"number\": 1, \"setting\": 1}" unit_cell=conventional occupancy="_JSON {\"0\": {\"Si\": 1.0}, \"1\": {\"Si\": 1.0}, \"2\": {\"Si\": 1.0}, \"3\": {\"Si\": 1.0}, \"4\": {\"Si\": 1.0}, \"5\": {\"Si\": 1.0}, \"6\": {\"Si\": 1.0}, \"7\": {\"Si\": 1.0}, \"8\": {\"Si\": 1.0}, \"9\": {\"Si\": 1.0}, \"10\": {\"Si\": 1.0}, \"11\": {\"Si\": 1.0}, \"12\": {\"Si\": 1.0}, \"13\": {\"Si\": 1.0}, \"14\": {\"Si\": 1.0}, \"15\": {\"Si\": 1.0}, \"16\": {\"Si\": 1.0}, \"17\": {\"Si\": 1.0}, \"18\": {\"Si\": 1.0}, \"19\": {\"Si\": 1.0}, \"20\": {\"Si\": 1.0}, \"21\": {\"Si\": 1.0}, \"22\": {\"Si\": 1.0}, \"23\": {\"Si\": 1.0}, \"24\": {\"Si\": 1.0}, \"25\": {\"Si\": 1.0}, \"26\": {\"Si\": 1.0}, \"27\": {\"Si\": 1.0}, \"28\": {\"Si\": 1.0}, \"29\": {\"Si\": 1.0}, \"30\": {\"Si\": 1.0}, \"31\": {\"Si\": 1.0}, \"32\": {\"Si\": 1.0}, \"33\": {\"Si\": 1.0}, \"34\": {\"Si\": 1.0}, \"35\": {\"Si\": 1.0}, \"36\": {\"Si\": 1.0}, \"37\": {\"Si\": 1.0}, \"38\": {\"Si\": 1.0}, \"39\": {\"Si\": 1.0}, \"40\": {\"Si\": 1.0}, \"41\": {\"Si\": 1.0}, \"42\": {\"Si\": 1.0}, \"43\": {\"Si\": 1.0}, \"44\": {\"Si\": 1.0}, \"45\": {\"Si\": 1.0}, \"46\": {\"Si\": 1.0}, \"47\": {\"Si\": 1.0}, \"48\": {\"Si\": 1.0}, \"49\": {\"Si\": 1.0}, \"50\": {\"Si\": 1.0}, \"51\": {\"Si\": 1.0}, \"52\": {\"Si\": 1.0}}" energy=-460.5355734807893 stress="0.010721873251236927 -2.52516525706965e-08 -3.7168094282179116e-08 -2.52516525706965e-08 0.01072220050553766 -1.2666040276360346e-07 -3.7168094282179116e-08 -1.2666040276360346e-07 0.010721866538695656" free_energy=-460.5355734807893 pbc="T T T"
Si       6.73623669       3.88916875       2.75005738      -1.34175965      -0.02421960       0.13102659       0.00000018       0.00000052      -0.00000020      -8.75736503
Si       8.65058680       4.99441901       5.89887139      -0.62821101      -0.51469887       0.24367825       0.00497787       0.00287448       0.00211660      -8.74116379
Si      10.57727441       6.10679228       9.04513969      -0.11090441       0.80798329      -0.13365699      -0.00006906      -0.00003936      -0.00612493      -8.74116379
Si       8.65058710       7.22631716       2.74249318       1.16221140      -0.17103827      -0.13350276       0.00497788       0.00295406       0.00200374      -8.74116378
Si      10.58631937       8.33346861       5.89265142      -0.02798272       0.05317660       0.53474423      -0.00123307       0.00071271       0.00050323      -8.75547483
Si      12.51015335       9.45463810       9.04513972       0.91139514       0.24336971      -0.50554992       0.00000014       0.00008016      -0.00612482      -8.74116378
Si      10.57727501      10.56344006       2.74249315       1.17591274       1.12593377       0.61333224      -0.00006898      -0.00578713       0.00200367      -8.74116387
Si      12.51015363      11.67938771       5.89887135      -0.20966205       0.57348275       0.91542845       0.00000014      -0.00574723       0.00211649      -8.74116387
Si      14.26913062      12.87434216       9.10353393       0.15843114      -1.23994186       0.13577512       0.01050921      -0.00606733      -0.00429052      -7.98876509
Si      10.58346627       3.87847132       2.74249310      -0.33488643      -0.10325732       0.70696160       0.00504701       0.00283455       0.00200364      -8.74116380
Si      12.51015388       5.00128847       5.89265142      -0.08284691      -0.11985266      -0.20949938       0.00000023      -0.00142347       0.00050325      -8.75547485
Si      14.44303256       6.10679228       9.04513969      -0.53522400      -0.47444606       1.29668448       0.00006929      -0.00003933      -0.00612489      -8.74116380
Si      12.51015415       7.22274288       2.75104307      -0.03291896       1.77136701       0.01225306       0.00000021       0.00000065      -0.00151072      -8.75547482
Si      14.43398812       8.33346860       5.89265141       0.91353016       0.26407318       0.61697805       0.00123355       0.00071272       0.00050326      -8.75547482
Si      16.35629178       9.44331094       9.03846632      -0.53556961      -0.68817872      -1.10831207      -0.00713982      -0.00412139       0.00582933      -8.72323460
Si      14.44303300      10.56344007       2.74249318       0.62910469       0.33950060       0.58101984       0.00006912      -0.00578708       0.00200373      -8.74116385
Si      16.35629204      11.66932028       5.89041616       1.06890056       0.16627386      -1.18436785      -0.00713974       0.00412296      -0.00583010      -8.72323453
Si      18.28407085      12.78232356       9.03846638       0.53969364      -0.23912693       1.03892568       0.00000011       0.00824517       0.00582930      -8.72323453
Si      14.43684230       3.87847132       2.74249309      -0.86684879       0.52155063       0.14628042      -0.00504677       0.00283450       0.00200360      -8.74116382
Si      16.36972098       4.99441901       5.89887140       0.96885520       0.97354056       0.16379241      -0.00497755       0.00287446       0.00211660      -8.74116382
Si      18.28407106       5.92026131       9.10353320      -0.27726809       0.82406006      -0.42973933      -0.00000001       0.01213599      -0.00429081      -7.98876438
Si      16.36972120       7.22631713       2.74249320      -1.04765131      -0.05875226      -1.13649076      -0.00497760       0.00295397       0.00200377      -8.74116378
Si      18.28407136       8.33030769       5.89041612      -1.64514455      -1.04010884      -0.28399218       0.00000013      -0.00824359      -0.00583018      -8.72323460
Si      20.21185015       9.44331096       9.03846633      -0.55963264      -0.01784105      -0.89071384       0.00714004      -0.00412139       0.00582930      -8.72323460
Si      18.28407148      10.55631650       2.54716373      -1.18499080       0.43672964      -0.72879037      -0.00000005       0.00000016       0.01287076      -7.98876528
Si      20.21185044      11.66932030       5.89041617       0.32740066       0.55788043       0.00012880       0.00714001       0.00412297      -0.00583013      -8.72323450
Si      22.29901122      12.87434233       9.10353421      -1.04719837      -0.70307605      -1.02183837      -0.01050895      -0.00606717      -0.00429037      -7.98876527
Si       2.85034047       1.64564476       3.50407669      -0.01852036       0.63255421      -0.21688462       0.01008268       0.00582065       0.00713523      -8.74058364
Si       4.82528324       2.78587816       6.72914538       0.43540447       0.44557943      -0.42325606      -0.00246472      -0.00142358      -0.01335470      -8.74058364
Si       2.85034088       3.85222572       0.38350325       0.46615542       0.02906248      -0.43245429       0.01008312       0.00866738       0.00311040      -8.74058386
Si       4.80462892       5.00438346       3.53863277      -0.96324293       0.80711646      -0.09248236       0.00849333      -0.00490467      -0.00346700      -8.76335540
Si       6.73623623       6.09574777       6.72914504      -0.28846464       0.49592525      -0.84187475      -0.00000010       0.00284580      -0.01335542      -8.74058386
Si       4.82528358       7.27292793       0.38350342       1.56873559      -0.64984562       0.73988004      -0.00246469      -0.01306634       0.00311053      -8.74058370
Si       6.73623648       8.37621677       3.50407703      -1.22489466      -0.02235275       1.23021544      -0.00000013      -0.01164341       0.00713519      -8.74058368
Si       8.65956381       9.44588202       6.67924585       0.67679574      -1.02196330      -1.18147495      -0.00088414       0.00050996       0.00036112      -8.77109052
Si       4.76129413       0.54235601       0.38350335       0.46253679       0.37820524       1.21031904       0.01254758       0.00439771       0.00311042      -8.74058369
Si       6.73623675       1.65873962       3.53863274      -1.53367892       0.57240142       0.45869715      -0.00000021       0.00980684      -0.00346710      -8.76335545
Si       8.64718957       2.78587811       6.72914528       1.29773497      -1.47433002      -2.04281558       0.00246463      -0.00142365      -0.01335491      -8.74058369
Si       6.73623703       3.88916981       0.38433061       1.45910099      -0.17216364      -1.09248812      -0.00000015      -0.00000089       0.01040276      -8.76335538
Si       8.66784436       5.00438348       3.53863277      -0.89744604      -1.41397104       0.19770907      -0.00849372      -0.00490466      -0.00346707      -8.76335538
Si      10.57886124       6.10770932       6.68414294      -0.31476711       0.29816528       1.01446335       0.00450664       0.00260137      -0.00367961      -8.75718129
Si       8.64719025       7.27292790       0.38350339      -1.11953122      -1.47355363       0.16585470       0.00246460      -0.01306644       0.00311046      -8.74058372
Si      10.57886150       8.33777572       3.53035537      -0.23937015       0.40810897       1.56001033       0.00450664      -0.00260277       0.00368012      -8.75718126
Si      12.51015370       9.45280745       6.68414295      -1.37471419       0.76458421      -0.12982984      -0.00000021      -0.00520479      -0.00367957      -8.75718126
Si       8.71118021       0.54235603       0.38350339       0.97428826      -1.37992920      -0.81430050      -0.01254758       0.00439776       0.00311050      -8.74058366
Si      10.62213299       1.64564479       3.50407679      -0.58880520       0.69594665      -1.47758266      -0.01008299       0.00582068       0.00713519      -8.74058365
Si      12.51015397       2.77646215       6.67924586      -0.71704051       1.08599533       1.41982097      -0.00000009      -0.00102137       0.00036116      -8.77109056
Si      10.62213317       3.85222575       0.38350326       0.72513264      -1.33771569       0.97615673      -0.01008330       0.00866733       0.00311040      -8.74058386
Si      12.51015424       4.99267759       3.53035537       1.40865347      -0.05344231      -0.41362965      -0.00000025       0.00520341       0.00368010      -8.75718129
Si      14.44144643       6.10770932       6.68414294       0.94460671      -0.63165244       1.90523405      -0.00450709       0.00260138      -0.00367957      -8.75718129
Si      12.51015451       7.22274405       0.39125898       0.66417297       0.03527584      -0.93058872      -0.00000011      -0.00000045      -0.00108248      -8.77109051
Si      14.44144670       8.33777572       3.53035537       1.54541960       0.99825654       0.07856055      -0.00450711      -0.00260275       0.00368014      -8.75718125
Si      16.36074359       9.44588201       6.67924584      -0.73499671      -1.28064129      -0.23781477       0.00088387       0.00050991       0.00036111      -8.77109050
53
Lattice="11.5478352 0.0 0.0 5.773917198490155 10.000722372470358 0.0 5.773916394327279 3.333571176804646 9.428767828939895" Properties=species:S:1:pos:R:3:momenta:R:3:forces:R:3:energies:R:1 spacegroup="_JSON {\"number\": 1, \"setting\": 1}" unit_cell=conventional occupancy="_JSON {\"0\": {\"Si\": 1.0}, \"1\": {\"Si\": 1.0}, \"2\": {\"Si\": 1.0}, \"3\": {\"Si\": 1.0}, \"4\": {\"Si\": 1.0}, \"5\": {\"Si\": 1.0}, \"6\": {\"Si\": 1.0}, \"7\": {\"Si\": 1.0}, \"8\": {\"Si\": 1.0}, \"9\": {\"Si\": 1.0}, \"10\": {\"Si\": 1.0}, \"11\": {\"Si\": 1.0}, \"12\": {\"Si\": 1.0}, \"13\": {\"Si\": 1.0}, \"14\": {\"Si\": 1.0}, \"15\": {\"Si\": 1.0}, \"16\": {\"Si\": 1.0}, \"17\": {\"Si\": 1.0}, \"18\": {\"Si\": 1.0}, \"19\": {\"Si\": 1.0}, \"20\": {\"Si\": 1.0}, \"21\": {\"Si\": 1.0}, \"22\": {\"Si\": 1.0}, \"23\": {\"Si\": 1.0}, \"24\": {\"Si\": 1.0}, \"25\": {\"Si\": 1.0}, \"26\": {\"Si\": 1.0}, \"27\": {\"Si\": 1.0}, \"28\": {\"Si\": 1.0}, \"29\": {\"Si\": 1.0}, \"30\": {\"Si\": 1.0}, \"31\": {\"Si\": 1.0}, \"32\": {\"Si\": 1.0}, \"33\": {\"Si\": 1.0}, \"34\": {\"Si\": 1.0}, \"35\": {\"Si\": 1.0}, \"36\": {\"Si\": 1.0}, \"37\": {\"Si\": 1.0}, \"38\": {\"Si\": 1.0}, \"39\": {\"Si\": 1.0}, \"40\": {\"Si\": 1.0}, \"41\": {\"Si\": 1.0}, \"42\": {\"Si\": 1.0}, \"43\": {\"Si\": 1.0}, \"44\": {\"Si\": 1.0}, \"45\": {\"Si\": 1.0}, \"46\": {\"Si\": 1.0}, \"47\": {\"Si\": 1.0}, \"48\": {\"Si\": 1.0}, \"49\": {\"Si\": 1.0}, \"50\": {\"Si\": 1.0}, \"51\": {\"Si\": 1.0}, \"52\": {\"Si\": 1.0}}" energy=-459.393527242842 stress="0.006523290278687551 0.0011712422427809718 0.0006817514208836362 0.0011712422427809718 0.009947650100331896 -0.0012630288855049374 0.0006817514208836362 -0.0012630288855049374 0.009326576145631283" free_energy=-459.393527242842 pbc="T T T"
Si       6.66809445       3.88988902       2.75016090      -1.20696195       0.09055418      -0.22807069       0.19802184       0.15391064      -0.39018681      -8.73375573
Si       8.62312708       4.96896743       5.91110487      -0.32791517      -0.43816258       0.21061830       0.36303180       0.07212666      -0.04707632      -8.71284856
Si      10.57782024       6.14234946       9.04334784       0.23007718       0.43131891       0.15399069       0.37334086      -0.45650197       0.33393841      -8.74654289
Si       8.69769407       7.21558453       2.74329273       0.41368105      -0.26881630       0.28238097      -0.86068071      -0.10902845       0.46687962      -8.67322472
Si      10.58571880       8.33041816       5.92044819       0.02181198      -0.26351802       0.51699483       0.05623327      -0.35462101      -0.03527779      -8.78782448
Si      12.54989615       9.45883827       9.01835580       0.46195453      -0.22514384      -0.52039917      -0.53975006      -0.54096519      -0.01453998      -8.75443624
Si      10.62220597      10.61235687       2.77500200       0.24767992       0.56817947       0.62023593      -1.11179651      -0.66257133      -0.01442399      -8.74430718
Si      12.50053761      11.70635484       5.93784480      -0.12012661       0.40780885       0.42367441       0.14544218      -0.18788335      -0.57083966      -8.74921747
Si      14.28279603      12.81158854       9.10423778       0.44613473      -1.10392620      -0.20088185       0.34207989       0.18864273      -0.37111917      -7.87477730
Si      10.57194401       3.87981794       2.77734565      -0.01475475       0.27639282       0.57861302       0.35294003       0.47726445      -0.16642781      -8.72236311
Si      12.50903621       5.00153090       5.88594532       0.09087988       0.22948565       0.02490562       0.19774390       0.38913650       0.27949038      -8.72934465
Si      14.42956674       6.07544257       9.10980025       0.26034383      -0.82532373       1.11101078       0.90786022      -0.38862077      -0.23112931      -8.73932377
Si      12.51326649       7.30723427       2.75166494       0.22569087       1.30642754       0.00795763       0.28512892      -0.56678868      -0.01567264      -8.69078486
Si      14.46535072       8.33997399       5.92194394       0.00506884      -0.13963825       0.43725308      -1.06520648      -0.46927946      -0.23475777      -8.69340574
Si      16.33217213       9.40670953       8.99149156      -0.31273800      -0.70575679      -0.49772117       0.27595371       0.00412245       0.72851211      -8.65514732
Si      14.46475533      10.58349729       2.76509919       0.01897942       0.45541032       0.15750032      -0.69997755       0.11635571      -0.47518379      -8.68014386
Si      16.41245289      11.66848059       5.82921039       1.07643619      -0.34106132      -1.11949046       0.00161707      -0.55087938       0.12123845      -8.68335625
Si      18.30711290      12.77379204       9.08991448       0.24388755      -0.02661883       0.86225188      -0.37476719       0.23664714      -0.23413040      -8.73952029
Si      14.40188092       3.90043397       2.74378988      -0.28899860       0.22245242      -0.20367921       0.66325654      -0.34866459      -0.40524318      -8.75292955
Si      16.41178763       5.03902364       5.90492305       0.47499874       0.61432021       0.01888269      -0.62735185      -0.43429121      -0.18397693      -8.73470781
Si      18.27578961       5.95919775       9.07866896       0.06775517       0.57956317      -0.54521599       0.40784216      -0.30197101      -0.10032884      -7.96315020
Si      16.32481278       7.22503375       2.69344716      -0.50115148       0.03716526      -0.55775513       0.63368003       0.11409044       0.67748575      -8.75691341
Si      18.20991249       8.28390877       5.87864557      -0.97961912      -0.58113439      -0.11897787       0.79811540       0.57106935       0.16821739      -8.72590657
Si      20.19477050       9.44152266       8.99292914       0.08992923      -0.06316711      -0.82727296       0.70946295      -0.04420301       0.08399772      -8.68483340
Si      18.22990865      10.57498182       2.51212161      -0.74069022       0.20140800      -0.56559890       0.55005164      -0.28871333       0.17779092      -7.94620425
Si      20.22298751      11.69668018       5.89137036      -0.00061885       0.44859082       0.04923731      -0.37856707      -0.13920348       0.04550794      -8.67224197
Si      22.25340357      12.83345423       9.05263047      -0.51786837      -0.92046551      -0.86454755       0.66174406      -0.24761716       0.21501622      -7.98160509
Si       2.84710234       1.67596331       3.49274341      -0.15270608       0.46902505      -0.21169942      -0.18142935      -0.21053903       0.02205733      -8.70534924
Si       4.84488536       2.81193848       6.70633890       0.25131501       0.58678528      -0.44762059      -0.24056689       0.14232268      -0.01824772      -8.75783803
Si       2.86879699       3.85792802       0.36518118       0.13555652       0.24956051      -0.20213406      -0.37927743       0.24245016       0.24831805      -8.73701947
Si       4.75491758       5.04399869       3.53464488      -0.91258168       0.65425831      -0.04075525       0.09038069      -0.20076010       0.06898769      -8.74291757
Si       6.72612992       6.11702827       6.69279937      -0.00249367       0.22763306      -0.39803332       0.36323090      -0.34068936       0.55260473      -8.75906437
Si       4.89498369       7.23926229       0.40867806       0.88271040      -0.60911715      -0.01374340      -0.81709182       0.07723560      -0.89968980      -8.70343163
Si       6.67928562       8.37216899       3.55268927      -0.82536867      -0.15971719       0.35156661       0.48623537      -0.12267420      -1.05050556      -8.66317793
Si       8.68097459       9.40092627       6.62099138      -0.09132137      -0.53648226      -0.96383500      -0.89373114       0.60579111       0.29420520      -8.71841949
Si       4.78388211       0.56093887       0.44048491       0.35948406       0.30167793       0.84793785      -0.14562388      -0.10885469      -0.44540455      -8.70826524
Si       6.67391455       1.68868396       3.56609386      -0.54066110       0.57284201       0.64324352       1.16264238       0.00751250       0.19062123      -8.72957348
Si       8.71054512       2.71591885       6.63776457       1.02822388      -1.06503765      -1.17756061      -0.34631750       0.49970024       1.02972520      -8.71090135
Si       6.79749958       3.88469382       0.33804140       0.61667109       0.07215275      -0.49687518      -0.99411540       0.25744260       0.69313253      -8.72252865
Si       8.62324569       4.94087899       3.54891888      -0.75343278      -0.82543326       0.19464778       0.18580088       0.71018148      -0.00512143      -8.75177585
Si      10.56301580       6.11852077       6.72640111      -0.27607060       0.02767758       0.41864656       0.05941493      -0.33816452      -0.69196576      -8.73531312
Si       8.60421829       7.20413131       0.39278142      -0.24519090      -0.98962959       0.20800313       1.05762169       0.60519278       0.07677693      -8.75996040
Si      10.57020341       8.36234878       3.60157483      -0.03234961       0.56594733       0.96327654       0.22991883       0.13538405      -0.74778541      -8.75319967
Si      12.45169479       9.48897673       6.67635560      -0.63307204       0.55036618      -0.17476655       0.86528119      -0.26616126      -0.03819102      -8.71550907
Si       8.75324334       0.47782253       0.35319856       0.47987073      -0.94787612      -0.13710155      -0.58770281       0.51601581       0.80142915      -8.72699286
Si      10.59760967       1.68014364       3.43631460      -0.22844905       0.57190351      -0.94704489       0.44627078      -0.18292137       0.62755239      -8.76770482
Si      12.48020250       2.82573453       6.74690421      -0.30539843       0.66609990       1.03477551       0.47268588      -0.49848894      -0.49687247      -8.75290457
Si      10.65099027       3.79268089       0.43128339       0.23334723      -0.76072665       0.78353500      -0.55352852       0.68124217      -0.24615726      -8.72312491
Si      12.56663986       5.00059623       3.51200376       0.45104983       0.53243175      -0.21729778      -1.12796760       0.68753949       0.26503383      -8.72890158
Si      14.48378125       6.07976641       6.77366583       0.55453410      -0.35099513       1.32960466      -0.45934592       0.32866259      -0.70472492      -8.70835276
Si      12.53406049       7.22153945       0.34880622       0.07781525      -0.13259218      -0.57617469      -0.65595074      -0.20400671       0.43715948      -8.75930112
Si      14.51032253       8.38592900       3.53766243       0.87463741       0.77005950       0.24921970      -0.81331452      -0.27095470       0.19199590      -8.75226880
Si      16.32979096       9.39474816       6.66680720      -0.30998552      -0.40715822      -0.22571104       0.51103094       1.01597895       0.03730574      -8.77091460
53
Lattice="11.5478352 0.0 0.0 5.773917198490155 10.000722372470358 0.0 5.773916394327279 3.333571176804646 9.428767828939895" Properties=species:S:1:pos:R:3:momenta:R:3:forces:R:3:energies:R:1 spacegroup="_JSON {\"number\": 1, \"setting\": 1}" unit_cell=conventional occupancy="_JSON {\"0\": {\"Si\": 1.0}, \"1\": {\"Si\": 1.0}, \"2\": {\"Si\": 1.0}, \"3\": {\"Si\": 1.0}, \"4\": {\"Si\": 1.0}, \"5\": {\"Si\": 1.0}, \"6\": {\"Si\": 1.0}, \"7\": {\"Si\": 1.0}, \"8\": {\"Si\": 1.0}, \"9\": {\"Si\": 1.0}, \"10\": {\"Si\": 1.0}, \"11\": {\"Si\": 1.0}, \"12\": {\"Si\": 1.0}, \"13\": {\"Si\": 1.0}, \"14\": {\"Si\": 1.0}, \"15\": {\"Si\": 1.0}, \"16\": {\"Si\": 1.0}, \"17\": {\"Si\": 1.0}, \"18\": {\"Si\": 1.0}, \"19\": {\"Si\": 1.0}, \"20\": {\"Si\": 1.0}, \"21\": {\"Si\": 1.0}, \"22\": {\"Si\": 1.0}, \"23\": {\"Si\": 1.0}, \"24\": {\"Si\": 1.0}, \"25\": {\"Si\": 1.0}, \"26\": {\"Si\": 1.0}, \"27\": {\"Si\": 1.0}, \"28\": {\"Si\": 1.0}, \"29\": {\"Si\": 1.0}, \"30\": {\"Si\": 1.0}, \"31\": {\"Si\": 1.0}, \"32\": {\"Si\": 1.0}, \"33\": {\"Si\": 1.0}, \"34\": {\"Si\": 1.0}, \"35\": {\"Si\": 1.0}, \"36\": {\"Si\": 1.0}, \"37\": {\"Si\": 1.0}, \"38\": {\"Si\": 1.0}, \"39\": {\"Si\": 1.0}, \"40\": {\"Si\": 1.0}, \"41\": {\"Si\": 1.0}, \"42\": {\"Si\": 1.0}, \"43\": {\"Si\": 1.0}, \"44\": {\"Si\": 1.0}, \"45\": {\"Si\": 1.0}, \"46\": {\"Si\": 1.0}, \"47\": {\"Si\": 1.0}, \"48\": {\"Si\": 1.0}, \"49\": {\"Si\": 1.0}, \"50\": {\"Si\": 1.0}, \"51\": {\"Si\": 1.0}, \"52\": {\"Si\": 1.0}}" energy=-459.3728734762795 stress="0.009225001740720632 0.0004817526736858314 0.000523684009909481 0.0004817526736858314 0.008473159099496273 0.00016567189560415282 0.000523684009909481 0.00016567189560415282 0.009586609680720688" free_energy=-459.3728734762795 pbc="T T T"
Si       6.61548668       3.90195995       2.72527776      -0.73596190       0.38430482      -0.62760234       0.44781837       0.20618308      -0.02196760      -8.72001748
Si       8.62149586       4.94799391       5.91965496       0.27271189      -0.38273118       0.10162326       0.38828160      -0.00850243      -0.10081863      -8.70763860
Si      10.60140504       6.14579143       9.06304069       0.55785959      -0.30183027       0.52787267      -0.05926808      -0.46494463       0.06421335      -8.74217903
Si       8.68577759       7.19872126       2.77579046      -0.80617166      -0.32199403       0.90517308      -0.61462287       0.09558328       0.25823324      -8.66742956
Si      10.58740076       8.30562262       5.94455926      -0.01061202      -0.57340079       0.35582795      -0.14657157       0.06565561      -0.22045229      -8.77784755
Si      12.55496076       9.42844285       8.99230573      -0.16839585      -0.81873154      -0.41447062      -0.15866434      -0.09722882       0.21133243      -8.75936163
Si      10.59338548      10.61747989       2.80701592      -1.20655877      -0.28417194       0.60139833      -0.57603312      -0.32473482      -0.02359026      -8.76197119
Si      12.50210680      11.72061872       5.93819072       0.21333730       0.15178130      -0.35472644       0.27246102      -0.13079306      -0.35235551      -8.75158138
Si      14.32139279      12.76294533       9.07903286       1.04674705      -0.71568869      -0.74001228       0.42041010       0.32787766      -0.28551118      -7.85037364
Si      10.58362115       3.91440464       2.80049201       0.39848894       1.02433888       0.29819727       0.11142035       0.39853747      -0.19270454      -8.72251572
Si      12.52126170       5.02751148       5.89871890       0.35255077       0.69866256       0.45100234       0.10727733       0.14225770       0.23143086      -8.72259876
Si      14.47402276       6.02110192       9.15777343       1.24252803      -1.10398512       0.69073589       0.17059402       0.16045214      -0.34925308      -8.73915368
Si      12.53469590       7.35148359       2.75068128       0.52773699       0.36529863      -0.06437499       0.03486436      -0.62951931      -0.09026229      -8.68976819
Si      14.42669738       8.31662097       5.93588911      -1.31489071      -0.64778080       0.12100248      -0.43090673      -0.07290268      -0.14076232      -8.69884519
Si      16.32791328       9.37124464       8.99479362       0.16594896      -0.61046634       0.58515947       0.33627768       0.14833670       0.57452331      -8.66848791
Si      14.43976767      10.61142453       2.75681211      -0.87875908       0.58983492      -0.38135402      -0.33468764       0.03434107      -0.11264528      -8.68974817
Si      16.46716232      11.63192305       5.77906497       0.95274695      -0.93708531      -0.70074699      -0.22409725      -0.09363120       0.47978491      -8.68061314
Si      18.30306307      12.78053442       9.12401860      -0.42082077       0.23325779       0.40140591      -0.45807143       0.03892866      -0.38136086      -8.74668051
Si      14.40797813       3.90084346       2.71919294       0.34709401      -0.11639844      -0.64766840      -0.00117218      -0.00591447      -0.07063124      -8.76016272
Si      16.41007421       5.05442335       5.89840136      -0.52917384       0.01643707      -0.25485396      -0.58129848      -0.26588599      -0.13259339      -8.73592841
Si      18.29450541       5.97760001       9.04950864       0.59046556       0.13835032      -0.46646232       0.19388666      -0.24323574       0.29243545      -7.94151823
Si      16.32288748       7.23233901       2.68897257       0.36768406       0.25469169       0.28752738       0.39498837       0.16126951       0.29528038      -8.75703003
Si      18.19175702       8.27729994       5.87661287       0.27695683       0.31510041      -0.02862735       0.75227845       0.51224481      -0.10171764      -8.72802488
Si      20.22382056       9.43820309       8.95448679       0.87840638      -0.01641609      -0.59949864       0.16359176       0.13210179       0.23514693      -8.68601991
Si      18.21508951      10.57327506       2.48940717       0.19765368      -0.26742681      -0.31027531       0.63463353      -0.29056781       0.13968276      -7.92931438
Si      20.20810121      11.71430109       5.89491988      -0.54050285       0.22082679       0.06289996      -0.27119129      -0.15151188      -0.04668385      -8.65756664
Si      22.25280594      12.77749210       9.01827955       0.45184865      -1.12685786      -0.39372555       0.49754246       0.09497915       0.41505376      -7.96111696
Si       2.83009414       1.69100237       3.48378659      -0.53061733       0.08855818      -0.10052385      -0.31531039      -0.26968603       0.13641377      -8.70710309
Si       4.84713241       2.84563792       6.68225347      -0.18074692       0.61123378      -0.46278717      -0.29817409      -0.20046708       0.01750094      -8.76046355
Si       2.86320506       3.87929671       0.36248739      -0.26407997       0.51580090       0.03565960      -0.05337944       0.05104956       0.00182383      -8.74865925
Si       4.71327548       5.06854255       3.53525363      -0.61411554       0.24930487       0.05487866       0.32907858      -0.32515536       0.03125236      -8.74171491
Si       6.74055538       6.11429541       6.69390755       0.51809424      -0.33284616       0.39343243       0.22688013      -0.34149854       0.36680024      -8.76766760
Si       4.90679355       7.21038745       0.37347170      -0.43795054      -0.50327298      -1.23097295      -0.83214146       0.03600939      -0.51926561      -8.72627706
Si       6.65810292       8.36029921       3.52959723       0.06841386      -0.25343710      -1.15575613       0.68346405       0.03566194      -0.75129672      -8.67230488
Si       8.64302303       9.39821815       6.58376178      -1.23010077       0.42692543      -0.43290096      -0.40054708       0.58515001       0.38990879      -8.71824494
Si       4.79527340       0.57140798       0.46633429       0.03761972       0.07880678       0.14374274      -0.29266549      -0.18240820      -0.42059236      -8.70852460
Si       6.68826149       1.71723739       3.60228370       0.92125288       0.46202140       0.58141466       0.52343760      -0.19224492      -0.40928793      -8.73838188
Si       8.74988291       2.68087067       6.61883402       0.47680698      -0.27460680       0.45119390      -0.32937642       0.49035816       1.00871463      -8.69630028
Si       6.79368941       3.89404109       0.33915261      -0.61316407       0.14918455       0.49276849      -0.42839977      -0.25625556       0.51399782      -8.73994279
Si       8.59172535       4.92723051       3.55840960      -0.44166389       0.30110743       0.15359945       0.21551277       0.69392920      -0.05748531      -8.74031022
Si      10.55228923       6.10512841       6.72262894      -0.10000672      -0.54808951      -0.47243593       0.18793242      -0.36973200      -0.34359290      -8.74115260
Si       8.63225660       7.17639376       0.40733719       1.20420061      -0.10610306       0.34840002       0.63222589       0.46474960       0.08543589      -8.76552659
Si      10.57666933       8.39338750       3.62040889       0.24044707       0.50511006      -0.23954424       0.07944421      -0.30566759      -0.72388570      -8.74882879
Si      12.45244839       9.50476110       6.66559024       0.59919344       0.00035338      -0.23832907       0.61830628      -0.46093813      -0.04420113      -8.72051637
Si       8.75601424       0.44761963       0.37807370      -0.30928180      -0.26685027       1.03501418      -0.34130335       0.27387166       0.59668356      -8.74148543
Si      10.60352152       1.70097476       3.41169444       0.42630779       0.19329136      -0.02574890       0.34067394      -0.29363622       0.49695523      -8.77209461
Si      12.48319671       2.84021660       6.77794633       0.40308324      -0.10294485       0.09143128       0.40638295      -0.45529104      -0.71811683      -8.73231361
Si      10.64405471       3.78048339       0.46068271      -0.38920814       0.27550582       0.30139335      -0.13308879       0.60451310      -0.38466245      -8.73552744
Si      12.54895138       5.05438534       3.51195732      -0.96102185       1.43344163       0.21579923      -0.49813088       0.35803764       0.27388528      -8.73646375
Si      14.49355291       6.07485918       6.81357469      -0.18645062       0.15911811       0.19100332      -0.47550887       0.31051231      -0.70754945      -8.70736520
Si      12.51493808       7.20585913       0.33719825      -0.69611384      -0.46227681       0.14022288      -0.22406422      -0.18567754       0.46503239      -8.73272496
Si      14.52190818       8.41478349       3.55737822      -0.43318787       0.32190604       0.46228987      -0.81205660      -0.30427088       0.03403585      -8.74529773
Si      16.33128550       9.41140821       6.65696735       0.26337183       0.91083784      -0.13867169       0.12106693       0.49971077       0.08768836      -8.77418785
53
Lattice="11.5478352 0.0 0.0 5.773917198490155 10.000722372470358 0.0 5.773916394327279 3.333571176804646 9.428767828939895" Properties=species:S:1:pos:R:3:momenta:R:3:forces:R:3:energies:R:1 spacegroup="_JSON {\"number\": 1, \"setting\": 1}" unit_cell=conventional occupancy="_JSON {\"0\": {\"Si\": 1.0}, \"1\": {\"Si\": 1.0}, \"2\": {\"Si\": 1.0}, \"3\": {\"Si\": 1.0}, \"4\": {\"Si\": 1.0}, \"5\": {\"Si\": 1.0}, \"6\": {\"Si\": 1.0}, \"7\": {\"Si\": 1.0}, \"8\": {\"Si\": 1.0}, \"9\": {\"Si\": 1.0}, \"10\": {\"Si\": 1.0}, \"11\": {\"Si\": 1.0}, \"12\": {\"Si\": 1.0}, \"13\": {\"Si\": 1.0}, \"14\": {\"Si\": 1.0}, \"15\": {\"Si\": 1.0}, \"16\": {\"Si\": 1.0}, \"17\": {\"Si\": 1.0}, \"18\": {\"Si\": 1.0}, \"19\": {\"Si\": 1.0}, \"20\": {\"Si\": 1.0}, \"21\": {\"Si\": 1.0}, \"22\": {\"Si\": 1.0}, \"23\": {\"Si\": 1.0}, \"24\": {\"Si\": 1.0}, \"25\": {\"Si\": 1.0}, \"26\": {\"Si\": 1.0}, \"27\": {\"Si\": 1.0}, \"28\": {\"Si\": 1.0}, \"29\": {\"Si\": 1.0}, \"30\": {\"Si\": 1.0}, \"31\": {\"Si\": 1.0}, \"32\": {\"Si\": 1.0}, \"33\": {\"Si\": 1.0}, \"34\": {\"Si\": 1.0}, \"35\": {\"Si\": 1.0}, \"36\": {\"Si\": 1.0}, \"37\": {\"Si\": 1.0}, \"38\": {\"Si\": 1.0}, \"39\": {\"Si\": 1.0}, \"40\": {\"Si\": 1.0}, \"41\": {\"Si\": 1.0}, \"42\": {\"Si\": 1.0}, \"43\": {\"Si\": 1.0}, \"44\": {\"Si\": 1.0}, \"45\": {\"Si\": 1.0}, \"46\": {\"Si\": 1.0}, \"47\": {\"Si\": 1.0}, \"48\": {\"Si\": 1.0}, \"49\": {\"Si\": 1.0}, \"50\": {\"Si\": 1.0}, \"51\": {\"Si\": 1.0}, \"52\": {\"Si\": 1.0}}" energy=-459.45410970245996 stress="0.011347274750795004 -0.0009358416797267335 0.00013110598393332312 -0.0009358416797267335 0.006806507481530015 0.0011040435756797934 0.00013110598393332312 0.0011040435756797934 0.01010348907181434" free_energy=-459.45410970245996 pbc="T T T"
Si       6.59649383       3.92837285       2.70090071       0.04939592       0.57304323      -0.12054813       0.58964069       0.00986849       0.67510185      -8.71857573
Si       8.64776183       4.92630900       5.92083912       0.65088515      -0.45900344      -0.05546075       0.07910222      -0.06188579      -0.09446095      -8.72917172
Si      10.61984897       6.11508777       9.08647435       0.00376184      -0.79207687       0.24111282      -0.60203210      -0.15520074      -0.41797988      -8.71780976
Si       8.63101278       7.18963470       2.82520966      -1.02620838       0.04466306       0.79893574       0.39421680       0.35704382      -0.44742695      -8.70763065
Si      10.57823862       8.28603363       5.95155818      -0.37512682      -0.04900728      -0.13996359      -0.28322068       0.54293925      -0.41157385      -8.72609108
Si      12.54817096       9.39097493       8.98207790       0.03846692      -0.45915744       0.07535944       0.34317360       0.48567292       0.40781357      -8.72539886
Si      10.52258377      10.59890472       2.83546313      -1.22078777      -0.27118629       0.42031459       0.49165333       0.26959296      -0.26336061      -8.72803949
Si      12.52311179      11.72466196       5.91358148       0.55688549       0.01317460      -0.44022921       0.14815233      -0.08912392       0.20103097      -8.73819218
Si      14.39087432      12.73810276       9.03461243       1.54125281      -0.24350537      -0.81006797       0.16911165       0.27524454       0.28567790      -7.90883413
Si      10.60248283       3.97626381       2.80906082       0.20095084       1.16904475       0.03181173      -0.35042664      -0.24793054      -0.17766987      -8.72540064
Si      12.54077532       5.06262139       5.92732077       0.32508692       0.49453952       0.54527628      -0.15192896      -0.42581638      -0.13729618      -8.73134261
Si      14.53105327       5.97826865       9.17853168       0.67941643      -0.39134364       0.06452235      -0.81432635       0.69430503      -0.47870472      -8.69802617
Si      12.55761853       7.34988126       2.74267135       0.22880434      -0.34031797      -0.25763449      -0.42033829      -0.28621701      -0.14925270      -8.74233035
Si      14.35808534       8.28807228       5.93837300      -0.97446031      -0.30361427      -0.01568763       0.84874414       0.45990418      -0.09704328      -8.71709095
Si      16.34827767       9.34737455       9.03847288       0.57039398      -0.24741207       0.88119436       0.17418072       0.35273722      -0.20488814      -8.72295573
Si      14.39212004      10.64090892       2.74233795      -0.70605641       0.46439518       0.01734992       0.57244459      -0.24056356       0.60935640      -8.72262109
Si      16.50450300      11.59079504       5.76443780       0.39418014      -0.40392709       0.18897895      -0.52339242       0.78206890       0.65195124      -8.68444587
Si      18.26647690      12.78915877       9.12939403      -0.88116510      -0.00063668      -0.20943184      -0.08742667      -0.33314098      -0.42626329      -8.72846053
Si      14.41422149       3.90046342       2.69000809      -0.29600706       0.19246868      -0.32991375      -0.72706634       0.34767696       0.45484924      -8.71633708
Si      16.36702362       5.05096085       5.88293215      -0.95650811      -0.04456092      -0.26885832       0.03074649       0.13284970       0.12635926      -8.73985341
Si      18.32714581       5.97789989       9.04309241       0.54364519      -0.08332214       0.33070489      -0.23907730      -0.07123508       0.70342429      -7.92270024
Si      16.34785867       7.25071275       2.70560717       0.38730059       0.40593741       0.17187530      -0.36854179       0.00532856      -0.38542490      -8.71866515
Si      18.22670344       8.30652914       5.86677621       0.85522894       0.64122558      -0.41592304      -0.03050441      -0.10580999      -0.36786305      -8.70947215
Si      20.26239474       9.44352673       8.93288957       0.31756379       0.21227683      -0.22077657      -0.90632881       0.10182530       0.24809913      -8.69417916
Si      18.24619958      10.55090925       2.47625715       0.88675089      -0.51212727      -0.24273123       0.22663905       0.00128700      -0.06441493      -7.95372144
Si      20.17464536      11.72049759       5.89430487      -0.60752420       0.02095968      -0.13104762       0.23248654      -0.12894152      -0.22007019      -8.69174769
Si      22.28837983      12.73019063       9.01416979       0.75965940      -0.52384658       0.22893776      -0.07484698       0.68363214       0.38005450      -7.92191398
Si       2.78978301       1.68723887       3.48497296      -0.98685494      -0.17381818       0.16056807      -0.22653055      -0.03899609       0.18986765      -8.73388588
Si       4.82793330       2.86319051       6.66020467      -0.50145206      -0.05855825      -0.33831466      -0.09761866      -0.64317544       0.17177406      -8.74329969
Si       2.85403086       3.90433177       0.35956896       0.02760601       0.36589347      -0.22357437       0.38503304      -0.23476215      -0.28940040      -8.75244217
Si       4.69573028       5.06983192       3.53731561      -0.03327673      -0.16718261      -0.01992365       0.40734821      -0.19244640      -0.13650134      -8.75930686
Si       6.77054599       6.08737957       6.72017555       0.50832406      -0.60763530       0.43939921      -0.22904660      -0.00544256      -0.28548349      -8.75466488
Si       4.85973871       7.18414011       0.30161505      -1.14849137      -0.50100345      -1.25124792      -0.00990628       0.03209966       0.49125865      -8.75805100
Si       6.68671778       8.35232281       3.45299084       0.94724458       0.03280443      -1.49350037       0.36459019       0.35824648       0.31496385      -8.73083364
Si       8.57807265       9.43878472       6.57594359      -0.95029644       1.02418545       0.13183088       0.74967504       0.19945178       0.37064631      -8.73945889
Si       4.78454619       0.56839402       0.46250756      -0.46103507      -0.18984150      -0.18083394      -0.33864681      -0.16415606       0.00614806      -8.74448489
Si       6.73985410       1.73331891       3.60813702       0.72573251       0.16637588      -0.47382351      -0.73212474      -0.13558665      -0.84075356      -8.73239150
Si       8.76557740       2.68161126       6.67210572       0.18658480       0.22249270       1.34410129      -0.07663195       0.17258012       0.06904980      -8.71658811
Si       6.75825845       3.88548281       0.37720446      -0.50711943      -0.55271784       0.79188511       0.47294831      -0.55178608      -0.14120467      -8.74978644
Si       8.57619774       4.96357002       3.56390701      -0.16098309       0.93575502       0.05625602       0.17466912       0.10524925      -0.05497241      -8.73836822
Si      10.55550406       6.06627915       6.69453731       0.23304221      -0.81593061      -0.41277561       0.22208753       0.09545171       0.38067602      -8.75013734
Si       8.70543929       7.18297387       0.42873537       1.30524589       0.25292515       0.46444643      -0.46899666       0.05445126       0.06686559      -8.73216129
Si      10.58829072       8.40074656       3.58746570       0.12193995      -0.34062327      -0.85224687      -0.23581833      -0.74144913      -0.08062249      -8.73080286
Si      12.49652254       9.48767502       6.65234008       0.83749584      -0.59908586      -0.23087847      -0.33877719      -0.24524725       0.09929822      -8.74922520
Si       8.73355892       0.43679113       0.44408662      -0.42520253      -0.26980309       1.22666318       0.13655796      -0.20087945      -0.40349788      -8.73932910
Si      10.63425473       1.70112573       3.42295907       0.65041396      -0.14754697       0.32686000      -0.03341365      -0.13646772      -0.00344182      -8.74568075
Si      12.51519176       2.82214673       6.75717335       0.69952737      -0.47167451      -0.80285398      -0.05933138      -0.00283882      -0.39192641      -8.72963588
Si      10.62818910       3.81201436       0.46250796      -0.04853973       0.78154044      -0.19467155       0.51188093       0.02601945      -0.23658539      -8.75026239
Si      12.49514965       5.13389433       3.53326838      -0.80584224       1.40036135       0.59016250       0.61217438      -0.42698412       0.23939392      -8.72526703
Si      14.46904384       6.09273073       6.80305489      -0.65449465       0.46780066      -0.43856618      -0.10310690       0.09470320      -0.10546707      -8.73915784
Si      12.48073530       7.17795977       0.35963460      -0.39869041      -0.51362507       0.64209288       0.58984094       0.15822597       0.16884754      -8.70823552
Si      14.47516275       8.42155415       3.57907726      -1.17346822      -0.02333017       0.29149094      -0.11693867      -0.14403201      -0.25276145      -8.73450836
Si      16.34264636       9.46172416       6.65502176       0.06680429       0.67555897       0.10935455      -0.28075170      -0.78834042       0.25380381      -8.72513617
53
Lattice="11.5478352 0.0 0.0 5.773917198490155 10.000722372470358 0.0 5.773916394327279 3.333571176804646 9.428767828939895" Properties=species:S:1:pos:R:3:momenta:R:3:forces:R:3:energies:R:1 spacegroup="_JSON {\"number\": 1, \"setting\": 1}" unit_cell=conventional occupancy="_JSON {\"0\": {\"Si\": 1.0}, \"1\": {\"Si\": 1.0}, \"2\": {\"Si\": 1.0}, \"3\": {\"Si\": 1.0}, \"4\": {\"Si\": 1.0}, \"5\": {\"Si\": 1.0}, \"6\": {\"Si\": 1.0}, \"7\": {\"Si\": 1.0}, \"8\": {\"Si\": 1.0}, \"9\": {\"Si\": 1.0}, \"10\": {\"Si\": 1.0}, \"11\": {\"Si\": 1.0}, \"12\": {\"Si\": 1.0}, \"13\": {\"Si\": 1.0}, \"14\": {\"Si\": 1.0}, \"15\": {\"Si\": 1.0}, \"16\": {\"Si\": 1.0}, \"17\": {\"Si\": 1.0}, \"18\": {\"Si\": 1.0}, \"19\": {\"Si\": 1.0}, \"20\": {\"Si\": 1.0}, \"21\": {\"Si\": 1.0}, \"22\": {\"Si\": 1.0}, \"23\": {\"Si\": 1.0}, \"24\": {\"Si\": 1.0}, \"25\": {\"Si\": 1.0}, \"26\": {\"Si\": 1.0}, \"27\": {\"Si\": 1.0}, \"28\": {\"Si\": 1.0}, \"29\": {\"Si\": 1.0}, \"30\": {\"Si\": 1.0}, \"31\": {\"Si\": 1.0}, \"32\": {\"Si\": 1.0}, \"33\": {\"Si\": 1.0}, \"34\": {\"Si\": 1.0}, \"35\": {\"Si\": 1.0}, \"36\": {\"Si\": 1.0}, \"37\": {\"Si\": 1.0}, \"38\": {\"Si\": 1.0}, \"39\": {\"Si\": 1.0}, \"40\": {\"Si\": 1.0}, \"41\": {\"Si\": 1.0}, \"42\": {\"Si\": 1.0}, \"43\": {\"Si\": 1.0}, \"44\": {\"Si\": 1.0}, \"45\": {\"Si\": 1.0}, \"46\": {\"Si\": 1.0}, \"47\": {\"Si\": 1.0}, \"48\": {\"Si\": 1.0}, \"49\": {\"Si\": 1.0}, \"50\": {\"Si\": 1.0}, \"51\": {\"Si\": 1.0}, \"52\": {\"Si\": 1.0}}" energy=-459.2823735288427 stress="0.009219112696688153 -0.0007805366683770552 3.25861912090222e-05 -0.0007805366683770552 0.0069199140135869225 -0.00030006308904928936 3.25861912090222e-05 -0.00030006308904928936 0.010624861328570982" free_energy=-459.2823735288427 pbc="T T T"
Si       6.62130179       3.95576501       2.72256954       0.86178805       0.41124538       0.90438317       0.43673857      -0.22699916       0.49397876      -8.74642564
Si       8.68060521       4.90135370       5.91545041       0.52179793      -0.43705940      -0.12016925      -0.23355354       0.15986688       0.02413517      -8.73536821
Si      10.59781997       6.07251545       9.08135553      -0.76270140      -0.73003609      -0.42807227      -0.27652180       0.24131377      -0.37700868      -8.72116740
Si       8.60408997       7.20472264       2.84264840       0.17096885       0.47719716      -0.23738314       1.03220689       0.14762802      -0.83682548      -8.72434463
Si      10.54957045       8.30289849       5.92934650      -0.65488560       0.61756393      -0.65838387      -0.03167528       0.24828227      -0.21361363      -8.69149714
Si      12.56338955       9.38500533       9.00150335       0.50120692       0.17525230       0.64166448       0.18068888       0.26515514       0.30642501      -8.69057964
Si      10.48277352      10.59611511       2.84500064      -0.25159355       0.14268404      -0.08197767       0.66506802       0.18591875      -0.35695786      -8.68789203
Si      12.55470686      11.72072527       5.89973045       0.56562752      -0.19162401      -0.10012256      -0.18028086      -0.19499642       0.15850919      -8.70773453
Si      14.47246467      12.73247350       9.01227190       1.42578876      -0.05302360       0.10851618      -0.40477342      -0.04854661       0.84509148      -7.92769249
Si      10.59821913       4.02160637       2.80405041      -0.34460033       0.45362718      -0.21361175      -0.27141750      -0.66466832      -0.13614452      -8.70151746
Si      12.55003020       5.06782891       5.94696239       0.00767911      -0.33987115       0.15703640      -0.22714204      -0.58306929      -0.31203147      -8.74268765
Si      14.53322165       5.98331083       9.16494593      -0.56612243       0.51708523      -0.52728734      -0.68266657       0.42640737      -0.25700056      -8.69302066
Si      12.55126401       7.32606194       2.72490113      -0.47609443      -0.47708515      -0.36142484      -0.43151063       0.07018362       0.08657225      -8.76963171
Si      14.34766370       8.29064829       5.93253365       0.64534966       0.38714819      -0.22358436       1.08920822       0.40119014      -0.15295004      -8.73639186
Si      16.38196069       9.34990511       9.06981907       0.65191757       0.36562113       0.21892244      -0.07210010       0.42430771      -0.57129107      -8.73734053
Si      14.38412795      10.65260436       2.76864364       0.47544687      -0.06679916       0.94202573       0.84074195      -0.41761046       0.42709051      -8.74029219
Si      16.50295634      11.60260894       5.79732855      -0.48014253       0.81593241       0.99620099      -0.61645008       0.61559671       0.36811941      -8.69559887
Si      18.22334300      12.77472843       9.10298809      -0.63772005      -0.54460138      -0.75912093       0.40481664      -0.30433989      -0.26543238      -8.68034073
Si      14.37111149       3.92396140       2.69183679      -1.26585039       0.67303149       0.38982523      -0.38973199       0.22003900       0.40861082      -8.68302248
Si      16.32400016       5.05364640       5.87625005      -0.58405952       0.10562366       0.05062283       0.42488663      -0.02546588       0.26515960      -8.73392272
Si      18.34397742       5.97160124       9.08561557       0.07254836      -0.15217453       1.19276993      -0.33504175      -0.05232497       0.31070589      -7.93677885
Si      16.34927318       7.26995896       2.69730165      -0.36516946       0.29082655      -0.49000830      -0.48880201      -0.14077092      -0.38680067      -8.67200919
Si      18.26290291       8.33037862       5.83147814       0.43038067       0.19300551      -0.87410336      -0.39998119      -0.39811881      -0.13839959      -8.66668669
Si      20.23756266       9.45543158       8.93010702      -1.28675127       0.18358632       0.11134888      -0.95546759      -0.12134165       0.23392837      -8.71525932
Si      18.29430823      10.52890463       2.45765294       0.80080652      -0.22866892      -0.52790390      -0.35170608       0.38631696      -0.29974076      -7.98649137
Si      20.15808348      11.71676136       5.87747504       0.07376484      -0.15361620      -0.51752635       0.59983017      -0.08344059      -0.23524790      -8.73206700
Si      22.32033457      12.73067219       9.03839108       0.37139967       0.52655668       0.63746685      -0.41936304       0.61449759       0.14790196      -7.89857937
Si       2.73424694       1.68087882       3.49927508      -1.00053195       0.00980263       0.33504741       0.28641214       0.26569440      -0.01171242      -8.73670639
Si       4.80186278       2.83622053       6.65095106      -0.40127721      -0.89598985       0.01828897       0.26455738      -0.34516521       0.29813563      -8.71790666
Si       2.87048150       3.91305835       0.33822352       0.55582914      -0.04633879      -0.51618157       0.20333362      -0.28152909       0.00491360      -8.75287646
Si       4.70712367       5.05716159       3.52997273       0.39517551      -0.24325972      -0.26042493       0.11768767       0.09414606      -0.13294069      -8.77469219
Si       6.78555138       6.05865277       6.72917179       0.02983596      -0.43257173      -0.10750666      -0.36152653       0.21315496      -0.32976364      -8.70854954
Si       4.81077550       7.16252674       0.26257998      -0.52916740      -0.24372724      -0.13669231       0.71577355       0.33123936       0.87515899      -8.73928980
Si       6.73904306       8.37002383       3.39574740       0.79815698       0.64464639      -0.55789380      -0.59630004       0.35117760       0.82425438      -8.73848472
Si       8.56291046       9.49459866       6.59535661       0.39489359       0.97102839       0.54673796       0.82650353      -0.32965939       0.11838453      -8.75527959
Si       4.75036893       0.55337231       0.45807440      -0.73906620      -0.34600486       0.08730266       0.07749949      -0.01352668       0.29976156      -8.77429000
Si       6.74198306       1.73964472       3.55710930      -0.70882093       0.10984036      -1.28357486      -0.95807613      -0.00768772      -0.10273080      -8.73746403
Si       8.77391354       2.69655266       6.73094628       0.13792316       0.29082905       0.64757078      -0.05205197      -0.05211140      -0.89659302      -8.73617363
Si       6.75248326       3.83898214       0.40713950       0.27541189      -1.10350716       0.26917876       0.42328039      -0.08538118      -0.44753193      -8.75367849
Si       8.57478120       5.00948598       3.56591764       0.12370944       0.69448873       0.04665959       0.23884754      -0.36459689       0.04686897      -8.74525809
Si      10.57389787       6.03494107       6.69092794       0.39970941      -0.23665214       0.28861722      -0.04872313       0.64417857       0.42481436      -8.74608189
Si       8.74859748       7.19578970       0.45449904       0.25274459       0.19620167       0.47179633      -0.80673060      -0.10799225      -0.11998682      -8.70800307
Si      10.58326466       8.35747883       3.54541891      -0.33561955      -1.17158309      -0.66097596      -0.31176064      -0.19107415       0.28011912      -8.72731691
Si      12.51828730       9.45338268       6.64716762      -0.12335514      -0.58027312       0.08647120      -0.77232296       0.25010727       0.29706403      -8.75207186
Si       8.71847675       0.41521963       0.48323376      -0.13350855      -0.49733225       0.13812641       0.20240452       0.01450972      -0.89119522      -8.70689063
Si      10.66449080       1.69093328       3.43725337       0.46459686      -0.18575286       0.19890970      -0.18424647       0.08402456      -0.08158525      -8.69828346
Si      12.54337423       2.80292530       6.70761022       0.27309759      -0.17296049      -0.92914437      -0.44814238       0.33399202       0.22796319      -8.73347210
Si      10.64593054       3.84625063       0.44660664       0.67509562       0.39006857      -0.34707064       0.30971333      -0.48809284       0.01822093      -8.75412006
Si      12.48030313       5.18276606       3.57251334       0.23723730       0.32205781       0.85961877       0.59516884      -0.96510630       0.04425565      -8.72388694
Si      14.43626110       6.11874891       6.78228555      -0.49645685       0.48482422      -0.26375697       0.28295659      -0.06436352       0.24347819      -8.75475911
Si      12.48645490       7.16136507       0.39426493       0.62329046      -0.04944324       0.55668560       0.59793262       0.42805035      -0.30843125      -8.72578840
Si      14.41790968       8.41700516       3.58295143      -0.85288400      -0.11716685      -0.16287031       0.49880650      -0.01598438      -0.32425853      -8.72654339
Si      16.33690129       9.46017074       6.67051014      -0.21680007      -0.75265203       0.44497778      -0.00699736      -0.84301484       0.10655263      -8.70016574
53
Lattice="11.5478352 0.0 0.0 5.773917198490155 10.000722372470358 0.0 5.773916394327279 3.333571176804646 9.428767828939895" Properties=species:S:1:pos:R:3:momenta:R:3:forces:R:3:energies:R:1 spacegroup="_JSON {\"number\": 1, \"setting\": 1}" unit_cell=conventional occupancy="_JSON {\"0\": {\"Si\": 1.0}, \"1\": {\"Si\": 1.0}, \"2\": {\"Si\": 1.0}, \"3\": {\"Si\": 1.0}, \"4\": {\"Si\": 1.0}, \"5\": {\"Si\": 1.0}, \"6\": {\"Si\": 1.0}, \"7\": {\"Si\": 1.0}, \"8\": {\"Si\": 1.0}, \"9\": {\"Si\": 1.0}, \"10\": {\"Si\": 1.0}, \"11\": {\"Si\": 1.0}, \"12\": {\"Si\": 1.0}, \"13\": {\"Si\": 1.0}, \"14\": {\"Si\": 1.0}, \"15\": {\"Si\": 1.0}, \"16\": {\"Si\": 1.0}, \"17\": {\"Si\": 1.0}, \"18\": {\"Si\": 1.0}, \"19\": {\"Si\": 1.0}, \"20\": {\"Si\": 1.0}, \"21\": {\"Si\": 1.0}, \"22\": {\"Si\": 1.0}, \"23\": {\"Si\": 1.0}, \"24\": {\"Si\": 1.0}, \"25\": {\"Si\": 1.0}, \"26\": {\"Si\": 1.0}, \"27\": {\"Si\": 1.0}, \"28\": {\"Si\": 1.0}, \"29\": {\"Si\": 1.0}, \"30\": {\"Si\": 1.0}, \"31\": {\"Si\": 1.0}, \"32\": {\"Si\": 1.0}, \"33\": {\"Si\": 1.0}, \"34\": {\"Si\": 1.0}, \"35\": {\"Si\": 1.0}, \"36\": {\"Si\": 1.0}, \"37\": {\"Si\": 1.0}, \"38\": {\"Si\": 1.0}, \"39\": {\"Si\": 1.0}, \"40\": {\"Si\": 1.0}, \"41\": {\"Si\": 1.0}, \"42\": {\"Si\": 1.0}, \"43\": {\"Si\": 1.0}, \"44\": {\"Si\": 1.0}, \"45\": {\"Si\": 1.0}, \"46\": {\"Si\": 1.0}, \"47\": {\"Si\": 1.0}, \"48\": {\"Si\": 1.0}, \"49\": {\"Si\": 1.0}, \"50\": {\"Si\": 1.0}, \"51\": {\"Si\": 1.0}, \"52\": {\"Si\": 1.0}}" energy=-459.4165576751325 stress="0.007742198099471293 4.3166413351115664e-05 0.0001355135519084145 4.3166413351115664e-05 0.009576370341697458 -0.0017055673076963062 0.0001355135519084145 -0.0017055673076963062 0.011420812406461874" free_energy=-459.4165576751325 pbc="T T T"
Si       6.67789199       3.96699338       2.77801271       1.15503982      -0.00649994       0.97264373      -0.12168189      -0.31278199      -0.42548619      -8.76193352
Si       8.69776725       4.88975392       5.91199944       0.11946805       0.10100421       0.02567593      -0.28330594       0.56458256       0.16747657      -8.73120035
Si      10.55680153       6.04576809       9.05030918      -0.60251231      -0.26140709      -0.60965705       0.49383410       0.35267103       0.19755560      -8.74044138
Si       8.64463429       7.23105668       2.80141837       1.09855399       0.44037162      -1.20530203      -0.04775704      -0.19521915      -0.31667571      -8.75480849
Si      10.51863719       8.33793356       5.89157006      -0.42725372       0.57699874      -0.67168219       0.34843850      -0.30474894       0.21946435      -8.70872462
Si      12.59060655       9.39784236       9.04370949       0.39882040       0.18317116       0.88321878      -0.35981657      -0.24755985      -0.03137893      -8.68862171
Si      10.48850544      10.60601167       2.82913205       0.30602321       0.13939861      -0.46196079       0.02094841      -0.18493576      -0.11116182      -8.68496106
Si      12.57256015      11.70207932       5.89641608       0.02332929      -0.52656587      -0.10260913      -0.52788752      -0.21586798      -0.13640711      -8.67925505
Si      14.52382659      12.72339597       9.04644053       0.38104580      -0.35342129       1.03208515      -0.97620977      -0.26828323       0.21205771      -7.91080070
Si      10.57542069       4.01867076       2.78892206      -0.40107237      -0.56885240      -0.33119079       0.20962302      -0.66284795      -0.00838607      -8.67979127
Si      12.54342404       5.03312969       5.94645815      -0.21950943      -0.82287389      -0.08600730      -0.07164432       0.05069694       0.03818892      -8.76105086
Si      14.48767798       6.01945580       9.13155311      -0.92687516       0.70235668      -0.66557353       0.27307820      -0.19714210       0.06084908      -8.71145057
Si      12.51425255       7.30432531       2.71492840      -0.81926453      -0.36270829       0.08591178       0.02761600       0.03178286       0.47999052      -8.75810206
Si      14.41157166       8.32267047       5.91612826       1.47533324       0.73571752      -0.37050887      -0.14990481       0.00595426      -0.03294755      -8.76945495
Si      16.41150173       9.38249208       9.06252246       0.43869881       0.78546476      -0.39769436      -0.21299707       0.06047389      -0.18026638      -8.71984200
Si      14.43331660      10.63561417       2.82377152       1.17461193      -0.49911982       0.92151488      -0.04177273      -0.09526711      -0.50373976      -8.73981259
Si      16.45641848      11.65629683       5.85763202      -1.19598217       0.94901609       1.15485775      -0.20940374      -0.48508810      -0.21922318      -8.69512441
Si      18.20846168      12.73958592       9.05662770       0.10935258      -0.66261114      -0.91910588       0.55100048       0.22013535       0.09058581      -8.64638293
Si      14.30223150       3.96247897       2.72223716      -1.06496754       0.66379577       0.62983189       0.76665283      -0.29681635      -0.14110426      -8.67186795
Si      16.31043506       5.05314869       5.88808334       0.06009202      -0.21728706       0.36161322       0.39071833      -0.37988177       0.10853242      -8.72626774
Si      18.33767441       5.95982516       9.15110173      -0.23907773      -0.33876595       1.11668491      -0.04525038      -0.21165608      -0.42335618      -7.96415478
Si      16.31698657       7.27955328       2.66230921      -0.72759169       0.07234921      -0.70000083       0.05587595      -0.15049511       0.18552934      -8.67875099
Si      18.27360145       8.32724234       5.78736790       0.06609333      -0.25566040      -0.64921248      -0.05674034      -0.17559630       0.47804178      -8.66543529
Si      20.14973698       9.45912022       8.94567572      -1.64511162      -0.07411221       0.47470275       0.66816194      -0.24768925       0.18813923      -8.73302054
Si      18.31823793      10.53519522       2.41699413       0.04645262       0.51350365      -1.01816265      -0.59793655       0.54897749      -0.27126568      -8.02239346
Si      20.18239192      11.70746949       5.84494506       0.75156222      -0.15721382      -0.62099209       0.19994807       0.08269530       0.16308686      -8.75508135
Si      22.32250803      12.77617664       9.07444350      -0.28671477       1.07458309       0.67015281      -0.40023526       0.08011242      -0.11754277      -7.92458338
Si       2.69939150       1.69305410       3.51135312      -0.21439112       0.45678628       0.01619681       0.72078823       0.26683377      -0.43314145      -8.70590494
Si       4.79566070       2.78433054       6.66402764       0.24480417      -0.90613587       0.48352349       0.56396800       0.34464290       0.30234954      -8.69683613
Si       2.89949239       3.90193441       0.31867291       0.37146595      -0.31919978      -0.08285249      -0.48783628      -0.05118523       0.56861181      -8.72828103
Si       4.72767935       5.05059091       3.51384904       0.30540965       0.02982890      -0.29012843      -0.20297465       0.23464520       0.11778877      -8.75421777
Si       6.77462239       6.04451368       6.71548156      -0.40314241      -0.10582779      -0.31229906      -0.18482765       0.21408338       0.07174485      -8.66779478
Si       4.80849152       7.16425368       0.28484747       0.34515400       0.32418546       0.85304967       0.34012403       0.38551616       0.34243788      -8.72723345
Si       6.75251878       8.41100199       3.39505450      -0.31389845       0.76340005       0.41293946      -0.70797117      -0.24312137       0.34646289      -8.72684725
Si       8.60498306       9.52672421       6.62326625       0.96810908       0.15638273       0.41626040      -0.11946180      -0.69588161      -0.27081773      -8.76451365
Si       4.72380464       0.53758827       0.47373870      -0.09252009      -0.20207649       0.46035311       0.76608121       0.18634999       0.09158184      -8.76771768
Si       6.67973547       1.74229924       3.49710747      -1.35029945      -0.08000072      -0.79186307       0.27099189      -0.27310688       0.72846014      -8.74487361
Si       8.77580674       2.70934591       6.73160023      -0.15749639       0.20137288      -0.50206198      -0.41065833      -0.03388231      -0.42315574      -8.78162307
Si       6.77504670       3.78646941       0.40802098       0.39731747      -0.71586800      -0.12526491      -0.30826605       0.62599204      -0.01822717      -8.72885298
Si       8.59280938       5.03230575       3.57120564       0.60851330       0.21290165       0.16562028       0.40185681      -0.22058998       0.08459801      -8.75914397
Si      10.58896935       6.04891682       6.71530737       0.10847228       0.75566214       0.46323803      -0.30236440       0.57667221      -0.26874868      -8.73454833
Si       8.73558521       7.20082165       0.46976736      -0.61287906      -0.02715688       0.00283219      -0.26523484      -0.19664371      -0.53301202      -8.74873995
Si      10.55748214       8.30167123       3.52225941      -0.53414872      -0.68813330      -0.21249975       0.13206429       0.85058598       0.31545414      -8.73495022
Si      12.48907542       9.43436812       6.66264495      -0.78837031      -0.13515893       0.47272103       0.01512948       0.28937392       0.17450494      -8.74542509
Si       8.71713664       0.39619357       0.46100257       0.02932320      -0.09679242      -0.84352316      -0.00849095       0.52186439      -0.32878001      -8.67688433
Si      10.68250313       1.68657460       3.44791940       0.24170547       0.05439467       0.28062172      -0.10862856       0.21477687       0.19716178      -8.67651237
Si      12.54195490       2.80442108       6.67191173      -0.26168641       0.13949189      -0.37446042      -0.19401392      -0.02081630       0.44998665      -8.75626353
Si      10.68455121       3.84876399       0.43044477       0.60527257      -0.22708838      -0.25146543      -0.43923214      -0.22425479       0.08919803      -8.75183434
Si      12.50538494       5.16347167       3.61393335       0.47590672      -0.97335985       0.60008252      -0.35895083      -0.61806258      -0.41551333      -8.74879348
Si      14.42205646       6.14084373       6.77548697      -0.04487312       0.33895472      -0.07379961       0.28461643      -0.13844841      -0.05965376      -8.75928608
Si      12.53183768       7.17596065       0.40801030       0.84822184       0.60675345      -0.05873542      -0.41283752       0.42224711      -0.39391530      -8.76658174
Si      14.39442230       8.40932587       3.56313143      -0.03224645      -0.20568577      -0.55098957       0.53148095      -0.12836097      -0.15178791      -8.74863719
Si      16.33265556       9.40129917       6.69311155       0.20773202      -1.18826256       0.32327099       0.58129587       0.34456515      -0.25414481      -8.73094669
53
Lattice="11.5478352 0.0 0.0 5.773917198490155 10.000722372470358 0.0 5.773916394327279 3.333571176804646 9.428767828939895" Properties=species:S:1:pos:R:3:momenta:R:3:forces:R:3:energies:R:1 spacegroup="_JSON {\"number\": 1, \"setting\": 1}" unit_cell=conventional occupancy="_JSON {\"0\": {\"Si\": 1.0}, \"1\": {\"Si\": 1.0}, \"2\": {\"Si\": 1.0}, \"3\": {\"Si\": 1.0}, \"4\": {\"Si\": 1.0}, \"5\": {\"Si\": 1.0}, \"6\": {\"Si\": 1.0}, \"7\": {\"Si\": 1.0}, \"8\": {\"Si\": 1.0}, \"9\": {\"Si\": 1.0}, \"10\": {\"Si\": 1.0}, \"11\": {\"Si\": 1.0}, \"12\": {\"Si\": 1.0}, \"13\": {\"Si\": 1.0}, \"14\": {\"Si\": 1.0}, \"15\": {\"Si\": 1.0}, \"16\": {\"Si\": 1.0}, \"17\": {\"Si\": 1.0}, \"18\": {\"Si\": 1.0}, \"19\": {\"Si\": 1.0}, \"20\": {\"Si\": 1.0}, \"21\": {\"Si\": 1.0}, \"22\": {\"Si\": 1.0}, \"23\": {\"Si\": 1.0}, \"24\": {\"Si\": 1.0}, \"25\": {\"Si\": 1.0}, \"26\": {\"Si\": 1.0}, \"27\": {\"Si\": 1.0}, \"28\": {\"Si\": 1.0}, \"29\": {\"Si\": 1.0}, \"30\": {\"Si\": 1.0}, \"31\": {\"Si\": 1.0}, \"32\": {\"Si\": 1.0}, \"33\": {\"Si\": 1.0}, \"34\": {\"Si\": 1.0}, \"35\": {\"Si\": 1.0}, \"36\": {\"Si\": 1.0}, \"37\": {\"Si\": 1.0}, \"38\": {\"Si\": 1.0}, \"39\": {\"Si\": 1.0}, \"40\": {\"Si\": 1.0}, \"41\": {\"Si\": 1.0}, \"42\": {\"Si\": 1.0}, \"43\": {\"Si\": 1.0}, \"44\": {\"Si\": 1.0}, \"45\": {\"Si\": 1.0}, \"46\": {\"Si\": 1.0}, \"47\": {\"Si\": 1.0}, \"48\": {\"Si\": 1.0}, \"49\": {\"Si\": 1.0}, \"50\": {\"Si\": 1.0}, \"51\": {\"Si\": 1.0}, \"52\": {\"Si\": 1.0}}" energy=-459.23733519278824 stress="0.007591998537764225 0.0009007597502633779 0.0007129706857690754 0.0009007597502633779 0.010182404136979817 -0.001954997653277937 0.0007129706857690754 -0.001954997653277937 0.011414071053533191" free_energy=-459.23733519278824 pbc="T T T"
Si       6.72730198       3.95556793       2.80661696       0.61948413      -0.39379296       0.05525810      -0.53835237      -0.16694752      -0.65723758      -8.74717157
Si       8.69399462       4.91919097       5.92067603      -0.24341142       1.02417306       0.30843774      -0.19956089       0.55541193       0.17287811      -8.74073454
Si      10.54843566       6.04529602       9.03273436       0.30641329       0.24434720       0.04288925       0.56737857       0.34953708       0.58518724      -8.73654727
Si       8.68348941       7.24435278       2.73627045       0.12575857       0.04481958      -1.07057754      -1.02772454      -0.26788505       0.49354630      -8.72598942
Si      10.51276868       8.35302210       5.86850675       0.24923253      -0.03129123      -0.14983874       0.51561837      -0.40539070       0.43755396      -8.74351828
Si      12.59148130       9.39434069       9.08444575      -0.46259002      -0.34807851       0.58060151      -0.72119392      -0.35617869      -0.37776742      -8.70413758
Si      10.49817957      10.60401335       2.80458849      -0.02641425      -0.22464729      -0.39671913      -0.31369771      -0.20917192       0.18498468      -8.70321772
Si      12.55300346      11.66765272       5.88474831      -0.73569006      -0.73461462      -0.33170690      -0.38307923      -0.00969830      -0.08818221      -8.70345904
Si      14.50596281      12.69879535       9.09811626      -1.00609154      -0.44402716       0.75334584      -0.73913477       0.27572420      -0.51206351      -7.89834708
Si      10.56601469       3.96618031       2.77256823       0.08092512      -1.34118864      -0.26681279       0.35081924      -0.28577103       0.08983327      -8.69882820
Si      12.53008041       5.00143094       5.94774940      -0.27958853      -0.22527926       0.18767608      -0.03089050       0.66034343       0.23440871      -8.75272632
Si      14.45871591       6.04432805       9.10052747      -0.06411404       0.20682176      -0.49126876       0.69409882      -0.33594340       0.16317644      -8.71892629
Si      12.47792260       7.28401590       2.73784871      -0.46748311      -0.44521733       0.73987225       0.40454367      -0.09360460       0.28458054      -8.73217158
Si      14.46832467       8.35603713       5.89621991       0.46784416       0.44513172      -0.36568225      -0.98866570      -0.34062702       0.06485684      -8.73690921
Si      16.42572388       9.42026876       9.04067875       0.09199231       0.54344787      -0.33573262      -0.25287792      -0.37356142       0.20665509      -8.68909580
Si      14.48212732      10.61065931       2.84418651       0.50341346      -0.36558871      -0.26873454      -0.74868814       0.24214844      -0.97655080      -8.67381888
Si      16.39519142      11.67790575       5.90361651      -0.94504422      -0.24878467       0.49938434       0.52722949      -0.94398179      -0.59145795      -8.67602760
Si      18.23419150      12.72094402       9.01584231       0.82791222       0.09348712      -0.55680238       0.36675837       0.75836535       0.39657962      -8.66359380
Si      14.28811730       3.98051028       2.74382816       0.69095365      -0.03811495       0.10954209       1.36251377      -0.51500086      -0.45105151      -8.68303142
Si      16.32536193       5.02580752       5.90803107       0.43525609      -0.81369612       0.33118034       0.09719580      -0.32308029      -0.15753813      -8.72390515
Si      18.32654257       5.93197939       9.18853500      -0.15170742      -0.73556237       0.24440298       0.07971549      -0.24922478      -0.67082419      -7.98914799
Si      16.28747023       7.27768863       2.64115907      -0.27930837      -0.14160981       0.04473748       0.51628651      -0.13972973       0.75678244      -8.71581722
Si      18.27942729       8.30977531       5.77683509       0.22923541      -0.36377899       0.30673113       0.22846375       0.01127767       0.68685243      -8.69237708
Si      20.10659875       9.44408918       8.97446052       0.23450542      -0.49182505       0.55885548       1.54292526      -0.19451003      -0.05207988      -8.69448489
Si      18.29925435      10.58148015       2.35676912      -0.71299503       1.18247976      -1.17603503      -0.36238567       0.26935146       0.13014034      -8.04306975
Si      20.22271025      11.70313733       5.82365748       0.66284365      -0.00688842      -0.11047051      -0.28090438       0.08584394       0.46620291      -8.73582384
Si      22.29604778      12.82991320       9.10323333      -0.62273174       0.86554329       0.39869539      -0.00727055      -0.34456407      -0.22547158      -7.97086383
Si       2.71600217       1.72390133       3.49219137       0.81397568       0.62561330      -0.76968184       0.57307690      -0.10557834      -0.50322772      -8.68576560
Si       4.82953774       2.75481214       6.69989262       0.98318980      -0.15831501       0.84126907       0.29812865       0.57307448       0.12630631      -8.70832296
Si       2.89504495       3.88542188       0.33939736      -0.57898144      -0.29028957       0.88428852      -0.61622132       0.02479769       0.59181799      -8.71894403
Si       4.73626056       5.05994874       3.50601607       0.06114711       0.27935677       0.04101784      -0.04491184       0.04294387       0.30818043      -8.71932653
Si       6.74946291       6.04634883       6.70606154      -0.49182213       0.15786450       0.02511353       0.06816295       0.13872341       0.35129462      -8.65633796
Si       4.83239838       7.19493733       0.33308672       0.43543851       0.80688204       0.79571775      -0.17842523       0.22142028      -0.39799857      -8.69688316
Si       6.71531822       8.43731786       3.41931351      -0.95682615       0.19120866       0.31056793      -0.11835296      -0.43086141      -0.43135716      -8.67112283
Si       8.64177756       9.50975103       6.63380794       0.29305682      -0.73761515      -0.00785798      -0.66166867      -0.42767161      -0.24287324      -8.75282936
Si       4.75012753       0.53260831       0.49312812       1.05518161      -0.04944321       0.09270986       0.59127983      -0.04984299      -0.62132557      -8.75643476
Si       6.63445808       1.72543551       3.48776087      -0.14177001      -0.58215984       0.46495983       1.16366795      -0.34467910       0.81702256      -8.71929716
Si       8.74534190       2.72082165       6.70137059      -1.09641370       0.27530586      -0.43059839      -0.73753579       0.11123333       0.43002269      -8.77541542
Si       6.77742806       3.77767659       0.40651812      -0.37260810       0.41723110       0.15029909      -0.54641589       0.74412481       0.29662254      -8.71560112
Si       8.64043765       5.03862469       3.58184437       1.16706673       0.07906903       0.19970222       0.22752631      -0.02187484      -0.07306688      -8.76278889
Si      10.58351560       6.10504969       6.72177277      -0.28354561       1.24001834      -0.30349688      -0.16869694      -0.00167724      -0.58297227      -8.73288277
Si       8.70162433       7.19049099       0.44582290      -0.53285257      -0.39276653      -0.94469875       0.31445116      -0.29113898      -0.62299256      -8.77984986
Si      10.54005145       8.30520173       3.52218192      -0.06692049       0.87745192       0.17390359       0.36406124       1.02983321       0.16485924      -8.74538845
Si      12.45892794       9.43587971       6.69185340      -0.19086344       0.13165168       0.59168448       0.67220014       0.04204509      -0.02321729      -8.71338686
Si       8.71502509       0.41498574       0.41252227      -0.16532561       0.85466114      -0.84513707      -0.21778437       0.66720463       0.30189913      -8.67137438
Si      10.69189635       1.69660990       3.47273288       0.11591462       0.27475926       0.68586232      -0.11237772      -0.00454786       0.26832024      -8.68280659
Si      12.52514738       2.80370470       6.66735328      -0.30744201      -0.28252991       0.13588343       0.08956345      -0.45595611       0.18810181      -8.76407085
Si      10.69317178       3.83474722       0.41989343      -0.34764768      -0.19698751      -0.17135709      -0.69709540       0.20223098       0.00785469      -8.73179638
Si      12.50575896       5.09752151       3.62648857      -0.60117302      -1.37272329      -0.15484558      -0.86830632       0.04030693      -0.53896149      -8.74531358
Si      14.42917675       6.15268558       6.76385669       0.28815959       0.09548763      -0.45397070       0.16761671      -0.20243688      -0.37909224      -8.74931417
Si      12.54978954       7.22165947       0.39597321      -0.28715915       1.03799645      -0.26315889      -0.86247245       0.01870011       0.13302334      -8.77831227
Si      14.40906542       8.39190356       3.53189152       0.48786698      -0.47115952      -0.56162619       0.11859067      -0.16776727       0.15625596      -8.76846259
Si      16.36955117       9.36390147       6.69868398       1.19175341      -0.06683340      -0.12777888       0.52281809       0.99426150      -0.31849071      -8.74156531
53
Lattice="11.5478352 0.0 0.0 5.773917198490155 10.000722372470358 0.0 5.773916394327279 3.333571176804646 9.428767828939895" Properties=species:S:1:pos:R:3:momenta:R:3:forces:R:3:energies:R:1 spacegroup="_JSON {\"number\": 1, \"setting\": 1}" unit_cell=conventional occupancy="_JSON {\"0\": {\"Si\": 1.0}, \"1\": {\"Si\": 1.0}, \"2\": {\"Si\": 1.0}, \"3\": {\"Si\": 1.0}, \"4\": {\"Si\": 1.0}, \"5\": {\"Si\": 1.0}, \"6\": {\"Si\": 1.0}, \"7\": {\"Si\": 1.0}, \"8\": {\"Si\": 1.0}, \"9\": {\"Si\": 1.0}, \"10\": {\"Si\": 1.0}, \"11\": {\"Si\": 1.0}, \"12\": {\"Si\": 1.0}, \"13\": {\"Si\": 1.0}, \"14\": {\"Si\": 1.0}, \"15\": {\"Si\": 1.0}, \"16\": {\"Si\": 1.0}, \"17\": {\"Si\": 1.0}, \"18\": {\"Si\": 1.0}, \"19\": {\"Si\": 1.0}, \"20\": {\"Si\": 1.0}, \"21\": {\"Si\": 1.0}, \"22\": {\"Si\": 1.0}, \"23\": {\"Si\": 1.0}, \"24\": {\"Si\": 1.0}, \"25\": {\"Si\": 1.0}, \"26\": {\"Si\": 1.0}, \"27\": {\"Si\": 1.0}, \"28\": {\"Si\": 1.0}, \"29\": {\"Si\": 1.0}, \"30\": {\"Si\": 1.0}, \"31\": {\"Si\": 1.0}, \"32\": {\"Si\": 1.0}, \"33\": {\"Si\": 1.0}, \"34\": {\"Si\": 1.0}, \"35\": {\"Si\": 1.0}, \"36\": {\"Si\": 1.0}, \"37\": {\"Si\": 1.0}, \"38\": {\"Si\": 1.0}, \"39\": {\"Si\": 1.0}, \"40\": {\"Si\": 1.0}, \"41\": {\"Si\": 1.0}, \"42\": {\"Si\": 1.0}, \"43\": {\"Si\": 1.0}, \"44\": {\"Si\": 1.0}, \"45\": {\"Si\": 1.0}, \"46\": {\"Si\": 1.0}, \"47\": {\"Si\": 1.0}, \"48\": {\"Si\": 1.0}, \"49\": {\"Si\": 1.0}, \"50\": {\"Si\": 1.0}, \"51\": {\"Si\": 1.0}, \"52\": {\"Si\": 1.0}}" energy=-459.89080727263126 stress="0.01056227220934095 0.0005636348597467041 0.0005545195535205269 0.0005636348597467041 0.008522598903616478 -0.0003771310215530214 0.0005545195535205269 -0.0003771310215530214 0.013522751633516891" free_energy=-459.89080727263126 pbc="T T T"
Si       6.74061036       3.93129953       2.79089578      -0.04962025      -0.47634559      -0.47696290      -0.28555152       0.04619075       0.04332041      -8.73124355
Si       8.67453889       4.98850424       5.94129697      -0.47391113       1.45541011       0.41313325      -0.09805433      -0.08875767      -0.08159865      -8.75399126
Si      10.57861698       6.07184150       9.05484490       0.65472293       0.74754828       0.70104264      -0.17450321       0.25148206       0.19442917      -8.71959529
Si       8.65464341       7.24019510       2.70273639      -1.06343724      -0.11512284      -0.18921039      -0.39047334       0.07086941       0.55299750      -8.71351230
Si      10.54431753       8.34193376       5.87594132       0.89454681      -0.23243319       0.37258795       0.27399530       0.21254561       0.19122713      -8.76287155
Si      12.54114083       9.36797903       9.09858837      -1.36198463      -0.50005913      -0.06262412      -0.33720458       0.25583089      -0.45109841      -8.73356524
Si      10.49090622      10.58938755       2.79021051      -0.07542741      -0.20522750      -0.20956996       0.36497094       0.28227783      -0.04959725      -8.75171828
Si      12.50583296      11.63188186       5.86894405      -0.91870266      -0.56467941      -0.14470041       0.17997964       0.23645459       0.40016218      -8.75555285
Si      14.43243193      12.69412834       9.11585690      -1.62781098       0.37753196      -0.08538769      -0.06482759       0.69037703      -0.53401315      -7.89992240
Si      10.57983551       3.89143610       2.76157226       0.33522863      -1.36086405      -0.17309667      -0.08517657       0.28627614       0.00660084      -8.74731189
Si      12.51323252       5.01324758       5.96318156      -0.38036711       0.57316697       0.29819453      -0.09574870       0.25106923      -0.16466448      -8.74164725
Si      14.47467419       6.04938519       9.07986774       0.47423748       0.15837534      -0.33436197      -0.07754899       0.33134897       0.00751172      -8.73364082
Si      12.46813069       7.25786498       2.78168720       0.04145035      -0.51577675       0.80173540       0.19169197       0.04263174      -0.22290994      -8.72970543
Si      14.46068111       8.36764225       5.88163145      -0.56709455       0.04434242      -0.14734262      -0.23529731      -0.15979342       0.22359107      -8.72306650
Si      16.42136623       9.43222986       9.03062759      -0.23488426      -0.11094650      -0.08564325      -0.15196316      -0.45539733       0.05649085      -8.71184770
Si      14.48044039      10.60107598       2.79536277      -0.49998535      -0.02063736      -1.46587107      -0.47112223       0.15411907      -0.45766494      -8.67353813
Si      16.36661110      11.63570162       5.90968952      -0.18699446      -1.13112730      -0.18219695       0.36100526      -0.03500918      -0.25228124      -8.72315591
Si      18.28834325      12.75557273       9.00302034       1.15108320       1.15710775       0.07080546       0.02430644       0.45893687       0.39302530      -8.73283273
Si      14.36784649       3.96496637       2.73698614       2.06859885      -0.40031727      -0.23039139       0.26237290       0.07551897       0.09315150      -8.74356737
Si      16.34934038       4.97554798       5.91719211       0.43908006      -0.97207949      -0.01275446      -0.05905718       0.18937333      -0.27081018      -8.73124273
Si      18.31792085       5.88652186       9.17865209      -0.26346728      -0.91505876      -0.52640325      -0.24783869       0.07251988      -0.28576863      -8.02322455
Si      16.29442776       7.26484375       2.67215131       0.54212736      -0.34476369       1.05360531       0.48801062      -0.12224300       0.41864128      -8.76482055
Si      18.30049141       8.29162378       5.81360767       0.53928327      -0.32207135       0.92828640       0.08327451       0.03685623       0.02921332      -8.72791317
Si      20.16857365       9.41786840       9.00243005       1.83529030      -0.35667146       0.52010340       0.38710707       0.37424530      -0.01249876      -8.69498897
Si      18.25244709      10.64912838       2.30461006      -0.96688849       1.28348820      -0.72276296       0.05465133      -0.17837622       0.47531332      -8.02157175
Si      20.24527825      11.70435545       5.83455545       0.18808881       0.01167048       0.46953212      -0.31442962      -0.07922710       0.23819815      -8.68811297
Si      22.26735344      12.86129176       9.11708531      -0.40084431       0.34043463       0.17323592       0.26502281      -0.29648291      -0.05029506      -8.01207555
Si       2.77535879       1.74699050       3.43795672       1.31001056       0.14874636      -1.14257119       0.01672308      -0.50666545       0.10770562      -8.68066985
Si       4.88441906       2.76507062       6.74572779       0.92100816       0.44729025       0.82930782      -0.43537754       0.16409128      -0.17404738      -8.73338941
Si       2.84832312       3.86840731       0.40148757      -1.01683269      -0.40560916       1.28521411       0.10680432      -0.14720088      -0.18797341      -8.74366639
Si       4.74369756       5.07183024       3.52072217       0.34552017       0.08340121       0.51678038       0.43111625      -0.30508156       0.28818431      -8.72436341
Si       6.72747297       6.05902224       6.72187382      -0.33540645       0.30327262       0.57284498       0.10928352       0.04913295       0.32175615      -8.68612169
Si       4.84554786       7.24264512       0.35714413       0.02827485       0.92953399       0.13350732      -0.32147534      -0.10364915      -0.34172064      -8.71262387
Si       6.66748536       8.43395609       3.41692202      -0.72153060      -0.23481925      -0.37728650       0.45381597      -0.09018016      -0.33098814      -8.62178417
Si       8.63535336       9.46008158       6.62741752      -0.39759109      -1.02990483      -0.15331034      -0.10197341       0.07792801       0.08698580      -8.75755871
Si       4.81930171       0.52443117       0.46905769       1.37127801      -0.29759950      -1.03568769      -0.24321061      -0.17674380      -0.70207944      -8.74187091
Si       6.66832347       1.68273818       3.53515762       1.27693314      -0.99530718       1.11185529       0.54149811      -0.13417589      -0.08939324      -8.73955832
Si       8.66384150       2.73943870       6.69729019      -1.84144612       0.41490616       0.26099493      -0.07396158       0.04105753       0.37456360      -8.74064685
Si       6.74396150       3.82056307       0.42411206      -0.72364710       1.02287435       0.45706581       0.14832405      -0.01847926       0.05053445      -8.76318635
Si       8.70395417       5.04106021       3.58719877       1.09490411      -0.01451659      -0.03113896      -0.39333416      -0.12256574      -0.20580118      -8.74938859
Si      10.56593811       6.16235995       6.69125259      -0.30406724       0.78908760      -0.64363433       0.15328467      -0.60124212       0.25587301      -8.75433669
Si       8.68609753       7.15862700       0.37750476      -0.10147006      -0.78409008      -1.50373524       0.14239366      -0.12519298      -0.00620474      -8.78759816
Si      10.54548441       8.37979155       3.53432568       0.15717642       1.66179705       0.23287672      -0.08332124      -0.16882603      -0.04977652      -8.76424353
Si      12.47412621       9.44029284       6.72041685       0.70378854      -0.03949655       0.46175146       0.40314354      -0.24895738      -0.16126879      -8.71903486
Si       8.69889162       0.48263520       0.38309604      -0.39259145       1.61905367      -0.23758108       0.01113922       0.24308945       0.44466422      -8.73378077
Si      10.69100371       1.70407717       3.51633682      -0.21283612      -0.13298786       0.88737244      -0.35100159      -0.55023526      -0.08586958      -8.69931019
Si      12.51296273       2.77338072       6.67671879      -0.15518178      -0.77321644       0.12896986       0.09877703      -0.06181298      -0.16864784      -8.76570736
Si      10.65395315       3.83225361       0.40970348      -0.97919757       0.07575819      -0.23637534      -0.03384442       0.10326965      -0.06417309      -8.72519790
Si      12.44988682       5.02864028       3.59989397      -1.25066976      -1.22129584      -0.78081163       0.21580870       0.18380568      -0.21646143      -8.74617250
Si      14.44969583       6.14911245       6.72614145       0.46593421      -0.24276293      -0.92876831       0.05031964      -0.23796546      -0.16065782      -8.75107778
Si      12.51133509       7.26774464       0.39131285      -0.92272832       0.54998235       0.13966164       0.13195096      -0.61692592       0.34456127      -8.76676701
Si      14.43313681       8.36338849       3.51088327       0.31413022      -0.53931830      -0.20202454      -0.32957532       0.12879663       0.29527143      -8.77119466
Si      16.44115196       9.39433630       6.68098559       1.27391999       1.06032618      -0.49825993      -0.49489925       0.32109177      -0.11570969      -8.76532064
53
Lattice="11.5478352 0.0 0.0 5.773917198490155 10.000722372470358 0.0 5.773916394327279 3.333571176804646 9.428767828939895" Properties=species:S:1:pos:R:3:momenta:R:3:forces:R:3:energies:R:1 spacegroup="_JSON {\"number\": 1, \"setting\": 1}" unit_cell=conventional occupancy="_JSON {\"0\": {\"Si\": 1.0}, \"1\": {\"Si\": 1.0}, \"2\": {\"Si\": 1.0}, \"3\": {\"Si\": 1.0}, \"4\": {\"Si\": 1.0}, \"5\": {\"Si\": 1.0}, \"6\": {\"Si\": 1.0}, \"7\": {\"Si\": 1.0}, \"8\": {\"Si\": 1.0}, \"9\": {\"Si\": 1.0}, \"10\": {\"Si\": 1.0}, \"11\": {\"Si\": 1.0}, \"12\": {\"Si\": 1.0}, \"13\": {\"Si\": 1.0}, \"14\": {\"Si\": 1.0}, \"15\": {\"Si\": 1.0}, \"16\": {\"Si\": 1.0}, \"17\": {\"Si\": 1.0}, \"18\": {\"Si\": 1.0}, \"19\": {\"Si\": 1.0}, \"20\": {\"Si\": 1.0}, \"21\": {\"Si\": 1.0}, \"22\": {\"Si\": 1.0}, \"23\": {\"Si\": 1.0}, \"24\": {\"Si\": 1.0}, \"25\": {\"Si\": 1.0}, \"26\": {\"Si\": 1.0}, \"27\": {\"Si\": 1.0}, \"28\": {\"Si\": 1.0}, \"29\": {\"Si\": 1.0}, \"30\": {\"Si\": 1.0}, \"31\": {\"Si\": 1.0}, \"32\": {\"Si\": 1.0}, \"33\": {\"Si\": 1.0}, \"34\": {\"Si\": 1.0}, \"35\": {\"Si\": 1.0}, \"36\": {\"Si\": 1.0}, \"37\": {\"Si\": 1.0}, \"38\": {\"Si\": 1.0}, \"39\": {\"Si\": 1.0}, \"40\": {\"Si\": 1.0}, \"41\": {\"Si\": 1.0}, \"42\": {\"Si\": 1.0}, \"43\": {\"Si\": 1.0}, \"44\": {\"Si\": 1.0}, \"45\": {\"Si\": 1.0}, \"46\": {\"Si\": 1.0}, \"47\": {\"Si\": 1.0}, \"48\": {\"Si\": 1.0}, \"49\": {\"Si\": 1.0}, \"50\": {\"Si\": 1.0}, \"51\": {\"Si\": 1.0}, \"52\": {\"Si\": 1.0}}" energy=-459.2717713398921 stress="0.010140685952089742 7.921706996907681e-05 0.0005020985062414306 7.921706996907681e-05 0.00783750726381515 -0.00027765753820718216 0.0005020985062414306 -0.00027765753820718216 0.014373524461858729" free_energy=-459.2717713398921 pbc="T T T"
Si       6.73359431       3.90816148       2.77756738      -0.08314147      -0.41707520       0.12940822       0.24526952       0.00201999       0.65429437      -8.70014217
Si       8.64726119       5.05258803       5.95599808      -0.52879173       0.82052909       0.08011134       0.04992751      -0.72956786      -0.33651732      -8.72898611
Si      10.59772475       6.11546737       9.09214568      -0.05590238       0.78275472       0.59016810      -0.66685054      -0.26254650      -0.31532832      -8.68854029
Si       8.59617871       7.23932781       2.70711733      -0.91999772       0.10031058       0.20469931       0.57070388       0.14104853      -0.03924204      -8.69109387
Si      10.59668035       8.34459078       5.89755637       0.98638053       0.40021853       0.35373032      -0.17911895       0.45383978      -0.18686395      -8.74842735
Si      12.46559558       9.35979701       9.07986922      -1.32877827       0.30480968      -0.58943731       0.39894790       0.69214161      -0.19804360      -8.73383720
Si      10.51109418      10.59366766       2.76925728       0.99521659       0.39489925      -0.73014562       0.92687173       0.36893780      -0.58121954      -8.75092411
Si      12.46973283      11.61173142       5.88215998      -0.37443055      -0.20909236       0.70207978       0.49903921       0.21246356       0.58631336      -8.75647286
Si      14.35053736      12.73683385       9.09536979      -1.37414160       1.13102056      -0.58328214       0.40471240       0.22446235      -0.08693687      -7.91330145
Si      10.58756179       3.83398129       2.75056753      -0.14339844      -0.79247112      -0.27277405      -0.47091762       0.43015808      -0.08713251      -8.75834830
Si      12.48959247       5.04258116       5.96619204      -0.49731626       0.34362378      -0.28878043       0.00075582      -0.52918171      -0.56583751      -8.71586500
Si      14.48636768       6.07820901       9.05819131      -0.19184584       1.03855528      -0.56802935      -0.70644904       0.69913923      -0.28098271      -8.70978666
Si      12.47154647       7.23387564       2.81114640      -0.02513894      -0.37783526       0.26151379      -0.24843961       0.12223493      -0.44879334      -8.73832236
Si      14.43501892       8.36631955       5.88223500      -0.17589795      -0.06522637       0.14729852       0.67939375      -0.04301056       0.13139239      -8.70819351
Si      16.40649463       9.41150446       9.02384927      -0.25669552      -0.59974485      -0.24518493       0.13927761      -0.13399138      -0.21674588      -8.74781015
Si      14.44471768      10.60118392       2.71348772      -0.68040075      -0.07785964      -1.37708706       0.23790526      -0.24573722       0.62524295      -8.69660425
Si      16.36352583      11.59166492       5.89649608      -0.06461641      -0.24088079      -0.20941526      -0.16507940       1.13654518       0.18869770      -8.71021935
Si      18.34583009      12.82084640       9.01764254       0.95732090       1.04106899       0.38100202      -0.29951205      -0.66072514      -0.01982668      -8.75972835
Si      14.47043690       3.95129394       2.73632117       1.54801484      -0.08178824       0.31862352      -0.88454634       0.22875231       0.52317009      -8.72341704
Si      16.37098267       4.93834801       5.90780054       0.40793072      -0.33353860      -0.28409656       0.02410173       0.61509352      -0.02337615      -8.73161390
Si      18.29175256       5.84525571       9.14784037      -0.75399097      -0.58412284      -0.48518869      -0.31911430       0.35692359       0.35241235      -8.03942107
Si      16.33550411       7.24259543       2.73382258       0.86915655      -0.48125499       1.10317598      -0.11272401      -0.03070264      -0.33455321      -8.75941827
Si      18.32579260       8.27599720       5.85386242       0.29640851      -0.26132284       0.43997413      -0.40162966       0.09154113      -0.61158905      -8.70517572
Si      20.26147038       9.41498606       9.02892756       1.35189852       0.22345822       0.46919684      -0.99616081       0.28419501      -0.08799002      -8.65610590
Si      18.20841616      10.70489901       2.28646723      -0.61724799       0.74298183       0.05274789       0.42166784      -0.56263291       0.55274751      -7.99478192
Si      20.24518391      11.69921222       5.86306200      -0.14646813      -0.25695908       0.50700336      -0.13491766      -0.26701667      -0.19352795      -8.63419777
Si      22.25637450      12.87275889       9.12757951      -0.03023110       0.20042658       0.28133187       0.21595196       0.10728316       0.15916307      -8.02506727
Si       2.83731879       1.73501900       3.39055007       0.90900142      -0.57055347      -0.51089524      -0.52954932      -0.36740438       0.69954310      -8.65186215
Si       4.90870126       2.78769866       6.77988472      -0.11352708       0.28176148       0.42382051      -0.88522709      -0.35376325      -0.36068545      -8.73241636
Si       2.80673113       3.84236689       0.45086886      -0.44587561      -0.53719637       0.41728732       0.58137962       0.04531764      -0.86730031      -8.71688469
Si       4.78277614       5.06218417       3.55656918       1.18608863      -0.46885059       0.77854447       0.57897011      -0.36664057       0.00265297      -8.75537157
Si       6.71228346       6.07590607       6.76088925      -0.27586770       0.31996385       0.82042857      -0.01239963      -0.03140138      -0.05046033      -8.71526847
Si       4.83611969       7.28402457       0.35914914      -0.34102078       0.58820739       0.11108121      -0.13625983      -0.32948793       0.31062866      -8.73726532
Si       6.65229607       8.42459728       3.39200030       0.22015940       0.00657338      -0.41492736       0.73741613       0.40653059       0.28103569      -8.59767312
Si       8.62296912       9.41531316       6.62809156       0.14730422      -0.55322522       0.27470387       0.74230661       0.54950104       0.45010664      -8.74351804
Si       4.87167172       0.50649992       0.39493360       0.43157742      -0.27102778      -1.61352797      -0.98354789       0.26201414      -0.01333436      -8.69809483
Si       6.74294082       1.63074419       3.57844271       1.30292571      -0.85582266       0.36755248      -0.49389093       0.37412554      -0.73396665      -8.72909720
Si       8.57529940       2.76250730       6.71979609      -1.31887230       0.46664789       0.47400392       0.76267112       0.04722482      -0.11021663      -8.68237196
Si       6.71868632       3.86551497       0.44600258      -0.14203272       0.57529274       0.30307157       0.52069994      -0.46123611      -0.23788198      -8.76336456
Si       8.73968170       5.03516500       3.57843893       0.15409540      -0.20060123      -0.27291810      -0.82149344      -0.08296746      -0.08841099      -8.71759843
Si      10.55830605       6.17870306       6.67791514       0.03776321      -0.15075906       0.29061542       0.24327818      -0.52647386       0.84711855      -8.75844062
Si       8.67854771       7.12001632       0.30716798      -0.33021711      -0.51562483      -1.00750335      -0.40407304       0.53713626       0.65173678      -8.73355571
Si      10.54692278       8.44418207       3.54483837      -0.14647883       0.52422640       0.17090126      -0.25679022      -1.19093171      -0.05084627      -8.71694813
Si      12.51906645       9.42821345       6.73757016       0.85563453      -0.39525133       0.17476548      -0.19597682      -0.14494516      -0.22693542      -8.74540574
Si       8.68504228       0.57013902       0.38381300      -0.01182668       1.58000364       0.15454011       0.48156593      -0.28493246       0.00578556      -8.77083579
Si      10.66344872       1.67258319       3.55305813      -0.87297797      -1.07293631       0.37690683      -0.47808267      -0.55585685      -0.60458679      -8.69524334
Si      12.50802867       2.73886721       6.67607135      -0.04027661      -0.38137216      -0.14451151       0.06931634       0.55984436      -0.13472022      -8.74883176
Si      10.61090119       3.83724222       0.39550545      -0.49262868       0.06052538      -0.28140180       0.61757774      -0.10752927       0.02426376      -8.71482333
Si      12.40871024       4.97391762       3.55736253      -0.05343457      -0.79997505      -0.70577815       1.22787363       0.41912250       0.30123447      -8.69309068
Si      14.47379058       6.12799885       6.67581967       0.39117102      -0.53031316      -0.89726211      -0.19238443      -0.10844410       0.19646357      -8.74545593
Si      12.47976582       7.27311883       0.41087414      -0.09433357      -0.29811151       0.55739115       0.85103510      -0.43586658       0.14530787      -8.69749134
Si      14.43531306       8.34335824       3.51033421      -0.22964297      -0.17693001       0.14043498      -0.31888566       0.30571334       0.13337232      -8.75174202
Si      16.48045000       9.44677072       6.65538653       0.10939708       0.62986368      -0.37596713      -0.93459564      -0.86031633       0.27116832      -8.73331801
53
Lattice="11.5478352 0.0 0.0 5.773917198490155 10.000722372470358 0.0 5.773916394327279 3.333571176804646 9.428767828939895" Properties=species:S:1:pos:R:3:momenta:R:3:forces:R:3:energies:R:1 spacegroup="_JSON {\"number\": 1, \"setting\": 1}" unit_cell=conventional occupancy="_JSON {\"0\": {\"Si\": 1.0}, \"1\": {\"Si\": 1.0}, \"2\": {\"Si\": 1.0}, \"3\": {\"Si\": 1.0}, \"4\": {\"Si\": 1.0}, \"5\": {\"Si\": 1.0}, \"6\": {\"Si\": 1.0}, \"7\": {\"Si\": 1.0}, \"8\": {\"Si\": 1.0}, \"9\": {\"Si\": 1.0}, \"10\": {\"Si\": 1.0}, \"11\": {\"Si\": 1.0}, \"12\": {\"Si\": 1.0}, \"13\": {\"Si\": 1.0}, \"14\": {\"Si\": 1.0}, \"15\": {\"Si\": 1.0}, \"16\": {\"Si\": 1.0}, \"17\": {\"Si\": 1.0}, \"18\": {\"Si\": 1.0}, \"19\": {\"Si\": 1.0}, \"20\": {\"Si\": 1.0}, \"21\": {\"Si\": 1.0}, \"22\": {\"Si\": 1.0}, \"23\": {\"Si\": 1.0}, \"24\": {\"Si\": 1.0}, \"25\": {\"Si\": 1.0}, \"26\": {\"Si\": 1.0}, \"27\": {\"Si\": 1.0}, \"28\": {\"Si\": 1.0}, \"29\": {\"Si\": 1.0}, \"30\": {\"Si\": 1.0}, \"31\": {\"Si\": 1.0}, \"32\": {\"Si\": 1.0}, \"33\": {\"Si\": 1.0}, \"34\": {\"Si\": 1.0}, \"35\": {\"Si\": 1.0}, \"36\": {\"Si\": 1.0}, \"37\": {\"Si\": 1.0}, \"38\": {\"Si\": 1.0}, \"39\": {\"Si\": 1.0}, \"40\": {\"Si\": 1.0}, \"41\": {\"Si\": 1.0}, \"42\": {\"Si\": 1.0}, \"43\": {\"Si\": 1.0}, \"44\": {\"Si\": 1.0}, \"45\": {\"Si\": 1.0}, \"46\": {\"Si\": 1.0}, \"47\": {\"Si\": 1.0}, \"48\": {\"Si\": 1.0}, \"49\": {\"Si\": 1.0}, \"50\": {\"Si\": 1.0}, \"51\": {\"Si\": 1.0}, \"52\": {\"Si\": 1.0}}" energy=-459.4054558308801 stress="0.00940988028481972 0.0009280478207288655 0.0013536446189190276 0.0009280478207288655 0.012553050037181995 -0.0017259150048806692 0.0013536446189190276 -0.0017259150048806692 0.013835865989171104" free_energy=-459.4054558308801 pbc="T T T"
Si       6.74408874       3.88385643       2.80716894       0.56252445      -0.55398649       0.87398299       0.54322015      -0.16762968       0.15818400      -8.72743646
Si       8.62350782       5.06627489       5.94749259      -0.33296373      -0.27378782      -0.37134450       0.21846703      -0.61743245      -0.20240892      -8.71165432
Si      10.57210774       6.14126799       9.10884116      -0.79484099       0.12604830       0.03379463      -0.16706839      -0.54675042      -0.35850502      -8.72283058
Si       8.57645632       7.24732972       2.71080154       0.24156241       0.14403856      -0.14139613       0.83831499      -0.09247634      -0.33900285      -8.69702089
Si      10.63728862       8.37550642       5.90770385       0.48712970       0.58633675       0.02765780      -0.46537979      -0.28783247      -0.20967417      -8.74471875
Si      12.41620742       9.39865745       9.04693621      -0.48593356       1.05084866      -0.54446145       0.65718853       0.20150634       0.27552283      -8.73285027
Si      10.59451299      10.62103075       2.70839035       1.98346855       0.46677837      -1.52519337       0.12368221      -0.33254070      -0.32094563      -8.74884662
Si      12.46848263      11.60734741       5.93493662       0.28133681       0.02011272       1.13351937       0.31153794       0.12815000      -0.09919297      -8.73689334
Si      14.29601119      12.79834420       9.06756011      -0.68115003       1.09446109      -0.36506811       0.48657268      -0.24656299       0.34689806      -7.92463672
Si      10.56441944       3.80763490       2.73539303      -0.64001009      -0.23116970      -0.23494200      -0.08720193       0.34731584       0.18212223      -8.74029236
Si      12.46691200       5.03636694       5.92933345      -0.29619288      -0.59531620      -1.06405551       0.27075990      -0.57333697      -0.34803449      -8.72740299
Si      14.45007948       6.15554371       9.01721158      -1.09627801       1.76295064      -0.96362367      -0.31990226       0.11842230      -0.16011443      -8.72223818
Si      12.45912377       7.21786922       2.80942556      -0.43762356      -0.25197377      -0.26632652      -0.20079930       0.04436625      -0.20692525      -8.75455154
Si      14.45478777       8.35968517       5.89238998       0.90041410      -0.22934277       0.18473268       0.54481390      -0.20267737      -0.08797103      -8.73063363
Si      16.40048519       9.38134174       9.00395909       0.04471001      -0.41609027      -0.44516662       0.20331100       0.38676035       0.04929066      -8.74775021
Si      14.42312559      10.58349759       2.67348102      -0.09700727      -0.64970757      -0.06255581       0.40293251      -0.44433200       0.93492535      -8.72291722
Si      16.35012895      11.62384041       5.89591688      -0.48694539       1.36279208       0.22495584      -0.32145717       0.71717194       0.32434215      -8.69540392
Si      18.38215299      12.84195396       9.03252819       0.38226883      -0.31706577       0.12880516      -0.46942710      -0.96034736      -0.24432602      -8.73268293
Si      14.51389231       3.95165410       2.77028972       0.10714456      -0.00217879       0.86789291      -0.86857349      -0.15305991       0.09849220      -8.71967642
Si      16.39435089       4.94352012       5.89807807       0.48281156       0.46583607       0.03379525       0.01757288       0.35274550       0.43546428      -8.73969084
Si      18.24333647       5.82884165       9.14120418      -0.98778962      -0.04838432       0.29546683       0.09521055       0.32336624       0.58590181      -8.06199867
Si      16.37133693       7.21862473       2.77544290       0.43202843      -0.36945407       0.45771333      -0.36232653       0.21413629      -0.43171929      -8.72607083
Si      18.32551144       8.26932664       5.85298952      -0.25747724       0.09183239      -0.42859977      -0.20777055       0.41359104      -0.42830689      -8.68153850
Si      20.28621281       9.43244056       9.04976498      -0.47598287       0.34303055       0.32735325      -1.23060827      -0.10301697      -0.07587459      -8.67027987
Si      18.19485560      10.71958621       2.31035710       0.13664986      -0.21840694       0.84867100       0.55390058      -0.68708744       0.50623922      -8.00582860
Si      20.23360205      11.67472894       5.87873378      -0.28268660      -0.66646170       0.03950287      -0.08504462      -0.22141370      -0.38845316      -8.65280961
Si      22.26211789      12.89066245       9.14838017       0.23505720       0.51086914       0.48105768       0.15669222       0.21560302       0.03612460      -8.03258590
Si       2.86462485       1.69519282       3.39231656       0.18293666      -0.86534047       0.56810580      -0.32492042      -0.04064530       0.64704902      -8.64585511
Si       4.86907704       2.78679682       6.78809114      -1.33495864      -0.32086002      -0.10220194      -0.62061978      -0.36774501      -0.31824788      -8.73352240
Si       2.80473585       3.81998105       0.44206923       0.30412358      -0.23586247      -0.62915298       0.31102826       0.35643067      -0.37881864      -8.69041084
Si       4.86251118       5.02629279       3.59250785       1.69518137      -0.81960330       0.49114142      -0.05058236      -0.04964457      -0.38097947      -8.78034371
Si       6.69759300       6.09096812       6.79674804      -0.25341973       0.24505641       0.45155329       0.10906528      -0.06534637      -0.41375403      -8.72242452
Si       4.81563055       7.30295440       0.38209513      -0.40002650       0.15981924       0.81458658       0.01869951      -0.22515518       0.49916747      -8.74154898
Si       6.68902549       8.44326902       3.38519786       1.06619186       0.70517949       0.19938992       0.28743803       0.39309018       0.44739081      -8.62601854
Si       8.65913449       9.40844882       6.66009091       1.13080311       0.27039812       0.90403675       0.34415548       0.45967230       0.28206876      -8.75361119
Si       4.85488820       0.50619342       0.31586408      -1.02339814       0.29066405      -1.29796536      -0.77438699       0.37396796       0.39289513      -8.69338173
Si       6.78602421       1.60529121       3.57477440       0.27687880      -0.04174599      -0.34253968      -0.72294689       0.64258963      -0.09565516      -8.73399718
Si       8.54035347       2.78988791       6.73535377       0.04920566       0.58474832       0.03882957       0.99020222       0.07098816      -0.41620502      -8.69161933
Si       6.72734909       3.88133203       0.45203655       0.33923382       0.12873273      -0.06299456      -0.00511082      -0.06821277      -0.19278356      -8.75408122
Si       8.71665220       5.02368645       3.56274675      -0.96709906      -0.18684012      -0.28547370      -0.54456995       0.11442529       0.06922195      -8.73070348
Si      10.56705216       6.15788112       6.72226102       0.23197967      -0.49613671       1.24917042      -0.00270959       0.04263026       0.24029110      -8.75622515
Si       8.64522133       7.11976941       0.28208414      -0.87575105       0.58681184       0.06911335      -0.14661319       0.84141571       0.71017809      -8.68010831
Si      10.53085446       8.42844154       3.54942816      -0.41032777      -0.98330366      -0.06075826      -0.03153711      -0.63589041      -0.29432172      -8.71286777
Si      12.55331240       9.40607528       6.73747891       0.42668480      -0.36578105      -0.18982722      -0.28357885       0.17515291      -0.26704105      -8.76165384
Si       8.70416720       0.64089578       0.38479031       0.70674768       1.10705108      -0.23162233       0.33452669      -0.33029328      -0.42491844      -8.76094447
Si      10.60116523       1.60210131       3.54740795      -1.41351916      -1.42727268      -0.57567517      -0.11656537       0.18141667      -0.51957314      -8.70626664
Si      12.50894635       2.74290528       6.66574588       0.08627325       0.53260944      -0.20344121       0.10871372       0.53355476       0.04357130      -8.75357770
Si      10.60881490       3.83536985       0.38246812       0.34827999      -0.13030346      -0.20388505       0.35215082      -0.09412936       0.07191428      -8.73420029
Si      12.45089737       4.94824035       3.53334119       1.50359824      -0.19619182      -0.21794176       0.59354700       0.35060853       0.26972083      -8.71862978
Si      14.48295750       6.09875641       6.63730318      -0.11609424      -0.52324077      -0.56745510      -0.47343493       0.13057414       0.20928188      -8.73042008
Si      12.50659772       7.24515305       0.44012888       1.02729975      -0.68195244       0.43220550       0.48267788      -0.08759021      -0.34279428      -8.69122303
Si      14.41468176       8.34360375       3.52009795      -0.47568635       0.11477661       0.18475401       0.00058766       0.02039720      -0.05032156      -8.72971625
Si      16.45337475       9.44410793       6.64672749      -1.02936221      -0.65402149       0.02187955      -0.47383397      -0.54890025       0.18061063      -8.76086413
53
Lattice="11.5478352 0.0 0.0 5.773917198490155 10.000722372470358 0.0 5.773916394327279 3.333571176804646 9.428767828939895" Properties=species:S:1:pos:R:3:momenta:R:3:forces:R:3:energies:R:1 spacegroup="_JSON {\"number\": 1, \"setting\": 1}" unit_cell=conventional occupancy="_JSON {\"0\": {\"Si\": 1.0}, \"1\": {\"Si\": 1.0}, \"2\": {\"Si\": 1.0}, \"3\": {\"Si\": 1.0}, \"4\": {\"Si\": 1.0}, \"5\": {\"Si\": 1.0}, \"6\": {\"Si\": 1.0}, \"7\": {\"Si\": 1.0}, \"8\": {\"Si\": 1.0}, \"9\": {\"Si\": 1.0}, \"10\": {\"Si\": 1.0}, \"11\": {\"Si\": 1.0}, \"12\": {\"Si\": 1.0}, \"13\": {\"Si\": 1.0}, \"14\": {\"Si\": 1.0}, \"15\": {\"Si\": 1.0}, \"16\": {\"Si\": 1.0}, \"17\": {\"Si\": 1.0}, \"18\": {\"Si\": 1.0}, \"19\": {\"Si\": 1.0}, \"20\": {\"Si\": 1.0}, \"21\": {\"Si\": 1.0}, \"22\": {\"Si\": 1.0}, \"23\": {\"Si\": 1.0}, \"24\": {\"Si\": 1.0}, \"25\": {\"Si\": 1.0}, \"26\": {\"Si\": 1.0}, \"27\": {\"Si\": 1.0}, \"28\": {\"Si\": 1.0}, \"29\": {\"Si\": 1.0}, \"30\": {\"Si\": 1.0}, \"31\": {\"Si\": 1.0}, \"32\": {\"Si\": 1.0}, \"33\": {\"Si\": 1.0}, \"34\": {\"Si\": 1.0}, \"35\": {\"Si\": 1.0}, \"36\": {\"Si\": 1.0}, \"37\": {\"Si\": 1.0}, \"38\": {\"Si\": 1.0}, \"39\": {\"Si\": 1.0}, \"40\": {\"Si\": 1.0}, \"41\": {\"Si\": 1.0}, \"42\": {\"Si\": 1.0}, \"43\": {\"Si\": 1.0}, \"44\": {\"Si\": 1.0}, \"45\": {\"Si\": 1.0}, \"46\": {\"Si\": 1.0}, \"47\": {\"Si\": 1.0}, \"48\": {\"Si\": 1.0}, \"49\": {\"Si\": 1.0}, \"50\": {\"Si\": 1.0}, \"51\": {\"Si\": 1.0}, \"52\": {\"Si\": 1.0}}" energy=-459.4588016289802 stress="0.009387142395504854 0.001536173799205962 0.0012056711990847343 0.001536173799205962 0.014586551292314029 -0.0023289950914786345 0.0012056711990847343 -0.0023289950914786345 0.013400819208638311" free_energy=-459.4588016289802 pbc="T T T"
Si       6.79186328       3.84789186       2.84662594       1.13988251      -0.78908775       0.38450360       0.06869846      -0.04855545      -0.79204803      -8.75960052
Si       8.61538044       5.03638711       5.92435598       0.03258045      -0.67419482      -0.42716011       0.25191482       0.13596669       0.12175882      -8.71036892
Si      10.53484740       6.12912336       9.10060583      -0.42893107      -0.50249941      -0.25953761       0.58611374      -0.19640124      -0.01634931      -8.76068247
Si       8.61425276       7.24948437       2.69198064       0.99780197      -0.08306526      -0.50753518       0.04879212      -0.17419605      -0.06663950      -8.73870451
Si      10.64504569       8.38686251       5.90263302      -0.16677338      -0.27289754      -0.18683600      -0.36227846      -0.74379016      -0.07408122      -8.74065520
Si      12.41313164       9.45431322       9.03267739       0.28729042       0.94431657       0.04582996       0.33441097      -0.29240213       0.44532194      -8.73442087
Si      10.68545439      10.62539198       2.62453529       1.14358345      -0.40336989      -1.47355620      -1.17975071      -0.72422128       0.45991940      -8.67561792
Si      12.48964415      11.61451164       5.98247885       0.40979524       0.28718481       0.54290948      -0.13915984       0.25482576      -0.62780835      -8.70416544
Si      14.27547068      12.84447630       9.06272494      -0.18994140       0.64468834       0.16293146       0.13513077      -0.31830999       0.27207700      -7.95626485
Si      10.53414646       3.80786134       2.73292163      -0.39887266       0.21953340       0.17347412       0.36153253       0.26250572       0.30532514      -8.67419855
Si      12.46264087       4.99108359       5.86808189       0.12529936      -0.93067787      -1.09028761       0.23537554       0.20842955       0.35374905      -8.74818363
Si      14.39201772       6.24207755       8.96427699      -0.88220548       1.32617636      -0.96649398       0.58011840      -0.69328277       0.18828792      -8.71416368
Si      12.43392937       7.20488835       2.79164718      -0.39319614      -0.26868014      -0.34431250       0.30428088      -0.05655240       0.05218495      -8.75445818
Si      14.50985610       8.33702992       5.89577634       0.89397611      -0.67775448      -0.11374053      -0.63156608      -0.36028095      -0.30987857      -8.75122087
Si      16.40823845       9.37819158       8.98865099       0.19184293       0.34061891      -0.02728279      -0.02964846       0.55621147       0.47321520      -8.69010226
Si      14.42610801      10.53468902       2.69652967       0.02753304      -1.11969700       0.69945994      -0.29711096      -0.07983128      -0.00155456      -8.74792852
Si      16.31491942      11.70719384       5.91652829      -0.75704820       1.49081754       0.45148390       0.07425585      -0.55129313      -0.10253227      -8.66743864
Si      18.38438249      12.79641589       9.03110639      -0.27363264      -1.20396320      -0.15046952      -0.36907109      -0.11356628      -0.11954533      -8.68635859
Si      14.49785576       3.94035052       2.81156861      -0.44670464      -0.51994872       0.54920363       0.18773842      -0.50201293      -0.50955154      -8.70919760
Si      16.41714731       4.97401251       5.91783167       0.30024622       0.54026477       0.68711021      -0.31392924      -0.25861716       0.30383395      -8.74646142
Si      18.20289103       5.83565810       9.17475123      -0.39644456       0.23920944       0.85006742       0.69948347       0.05402843       0.06363976      -8.06685011
Si      16.38360990       7.21005746       2.78794412       0.11957369       0.07567007       0.13820434      -0.03767190       0.33493520       0.03727263      -8.70425755
Si      18.31083275       8.29302434       5.82214096      -0.17572130       0.83582153      -0.56592772       0.28356891       0.49859904       0.28531201      -8.65390758
Si      20.22597789       9.44378784       9.06585182      -1.49376788       0.04138229       0.31143071       0.05496423      -0.29570267       0.01679458      -8.73221699
Si      18.22179983      10.68403438       2.37376912       0.83504091      -1.05327869       1.53987180       0.32863080      -0.34433193       0.38159366      -8.04346467
Si      20.21393130      11.63434518       5.86697035      -0.49782831      -0.79353947      -0.44014770      -0.19694117       0.09112195      -0.19293534      -8.72292721
Si      22.28055689      12.92258749       9.17074486       0.46448925       0.61896613       0.27894634       0.13597524      -0.12300424      -0.32135263      -8.03104387
Si       2.86934119       1.65009424       3.44092413       0.13714165      -0.81909735       1.13060997       0.22134264       0.09720511       0.03223600      -8.65324124
Si       4.78477730       2.75982456       6.77314278      -1.64705384      -0.60969105      -0.40069857       0.28884517       0.01698213      -0.05150484      -8.70593651
Si       2.82383786       3.82306789       0.40562411       0.24751526       0.35907374      -0.54696405      -0.36598834       0.36357451       0.45275800      -8.66196957
Si       4.93835570       4.98602353       3.60287843       0.98324786      -0.62726428      -0.07461976      -0.86665384       0.29128594      -0.29531469      -8.75994367
Si       6.69252205       6.10203487       6.80467288       0.14142632       0.19818992      -0.11383689       0.41777594       0.01948329      -0.27158027      -8.70730114
Si       4.79434764       7.30495545       0.43899337      -0.43377408      -0.03970836       1.20287329      -0.06072337      -0.04763337      -0.09663038      -8.73157507
Si       6.74873048       8.48806998       3.40969552       1.07876042       0.81865432       0.64877585      -0.22770837      -0.32885654       0.11231240      -8.68147765
Si       8.71911550       9.43483579       6.71228018       0.90654712       0.61399129       0.94980924      -0.62153855      -0.02245361      -0.24827303      -8.74498117
Si       4.78300123       0.53043827       0.26353050      -1.45540334       0.49421086      -0.68435439       0.25119009      -0.16991198       0.44098344      -8.71937921
Si       6.78027776       1.62383985       3.56297806      -0.31918192       0.61008331       0.05208448      -0.04445868       0.08750670       0.52088892      -8.74186355
Si       8.57646962       2.82161258       6.72295854       1.17656079       0.57128058      -0.43536540       0.37753190      -0.13541810      -0.11256363      -8.76498943
Si       6.73466721       3.89194132       0.44498724      -0.23285289       0.37642404      -0.13080941      -0.65895888       0.31843890       0.09282589      -8.71101405
Si       8.65586305       5.02086522       3.55164053      -1.09294632       0.12844147      -0.11672128       0.46074397       0.30224035       0.15081564      -8.75326729
Si      10.57693209       6.13620597       6.78161929       0.11751533      -0.30944547       0.69147030      -0.10997096       0.12925524      -1.00384399      -8.70514501
Si       8.60328274       7.18073941       0.30828149      -0.52720422       1.64835125       0.80510118       0.60696615       0.47754415       0.21110679      -8.68654284
Si      10.51365177       8.36516874       3.53282402      -0.12973081      -1.17714653      -0.57943349       0.41514346       0.35400580      -0.31369348      -8.71794971
Si      12.56898679       9.39503009       6.71726435       0.25162419      -0.04588157      -0.56350917       0.02285464       0.21211545      -0.19108154      -8.76344570
Si       8.74534536       0.68733553       0.35877270       0.66646025       0.66342672      -0.66256445      -0.42716060      -0.32669455      -0.05069776      -8.71692507
Si      10.53254431       1.54462438       3.50652808      -0.97394443      -0.56569396      -0.77175506       0.76170513       0.94282228       0.29605283      -8.68647244
Si      12.51776993       2.78325038       6.65759292       0.23817983       0.80071089      -0.09666549       0.05675733      -0.26848436       0.08692876      -8.77372939
Si      10.63003797       3.82872944       0.37488298       0.24251641      -0.02844352      -0.07176298      -0.49069170       0.26854251       0.12317966      -8.74500327
Si      12.53487727       4.94914354       3.52794589       1.33153058       0.19214986      -0.07481863      -0.82909819       0.18884421      -0.07204363      -8.74680875
Si      14.45820352       6.07803047       6.61311219      -0.79768288      -0.24562974      -0.39919684      -0.34594841       0.20968126       0.03722773      -8.71967485
Si      12.56636437       7.20974393       0.44575790       0.95688364      -0.58154996      -0.24789761      -0.67081260       0.25592439      -0.44712738      -8.74435639
Si      14.39282971       8.34396603       3.52765536      -0.30322114      -0.23013390       0.10947149       0.21396692      -0.47973942      -0.03018467      -8.71899644
Si      16.39267336       9.40502746       6.65161258      -1.03078165      -0.50729848       0.11863819       0.51103190       0.72346793       0.00121385      -8.77195162
53
Lattice="11.5478352 0.0 0.0 5.773917198490155 10.000722372470358 0.0 5.773916394327279 3.333571176804646 9.428767828939895" Properties=species:S:1:pos:R:3:momenta:R:3:forces:R:3:energies:R:1 spacegroup="_JSON {\"number\": 1, \"setting\": 1}" unit_cell=conventional occupancy="_JSON {\"0\": {\"Si\": 1.0}, \"1\": {\"Si\": 1.0}, \"2\": {\"Si\": 1.0}, \"3\": {\"Si\": 1.0}, \"4\": {\"Si\": 1.0}, \"5\": {\"Si\": 1.0}, \"6\": {\"Si\": 1.0}, \"7\": {\"Si\": 1.0}, \"8\": {\"Si\": 1.0}, \"9\": {\"Si\": 1.0}, \"10\": {\"Si\": 1.0}, \"11\": {\"Si\": 1.0}, \"12\": {\"Si\": 1.0}, \"13\": {\"Si\": 1.0}, \"14\": {\"Si\": 1.0}, \"15\": {\"Si\": 1.0}, \"16\": {\"Si\": 1.0}, \"17\": {\"Si\": 1.0}, \"18\": {\"Si\": 1.0}, \"19\": {\"Si\": 1.0}, \"20\": {\"Si\": 1.0}, \"21\": {\"Si\": 1.0}, \"22\": {\"Si\": 1.0}, \"23\": {\"Si\": 1.0}, \"24\": {\"Si\": 1.0}, \"25\": {\"Si\": 1.0}, \"26\": {\"Si\": 1.0}, \"27\": {\"Si\": 1.0}, \"28\": {\"Si\": 1.0}, \"29\": {\"Si\": 1.0}, \"30\": {\"Si\": 1.0}, \"31\": {\"Si\": 1.0}, \"32\": {\"Si\": 1.0}, \"33\": {\"Si\": 1.0}, \"34\": {\"Si\": 1.0}, \"35\": {\"Si\": 1.0}, \"36\": {\"Si\": 1.0}, \"37\": {\"Si\": 1.0}, \"38\": {\"Si\": 1.0}, \"39\": {\"Si\": 1.0}, \"40\": {\"Si\": 1.0}, \"41\": {\"Si\": 1.0}, \"42\": {\"Si\": 1.0}, \"43\": {\"Si\": 1.0}, \"44\": {\"Si\": 1.0}, \"45\": {\"Si\": 1.0}, \"46\": {\"Si\": 1.0}, \"47\": {\"Si\": 1.0}, \"48\": {\"Si\": 1.0}, \"49\": {\"Si\": 1.0}, \"50\": {\"Si\": 1.0}, \"51\": {\"Si\": 1.0}, \"52\": {\"Si\": 1.0}}" energy=-459.0216627854902 stress="0.011927714961602902 0.0010478206420925034 0.00024472275772729845 0.0010478206420925034 0.011502030990094355 -0.0003438854481763802 0.00024472275772729845 -0.0003438854481763802 0.012581343780291538" free_energy=-459.0216627854902 pbc="T T T"
Si       6.84363882       3.81069478       2.83121274       0.63740418      -0.49098848      -0.99018990      -0.68594944       0.47873368      -0.83984069      -8.75953527
Si       8.62580778       5.01490026       5.90833051       0.33708702      -0.01404793      -0.16851688       0.13734518       0.63540078       0.18213319      -8.72158522
Si      10.53537086       6.10384145       9.08858871       0.39022784      -0.29168264      -0.19421012       0.35587276       0.45390598      -0.00125764      -8.75609588
Si       8.65763029       7.23971304       2.66924402       0.48815435      -0.24645452      -0.22941440      -0.59657689      -0.00081798       0.43474834      -8.74348959
Si      10.62607660       8.34700170       5.89116847      -0.47717415      -1.12068910      -0.23632960      -0.04798145      -0.23874804      -0.02108850      -8.74115464
Si      12.43631461       9.49208824       9.04981520       0.51703514       0.51353978       0.53663060       0.01910687      -0.22337554       0.16235290      -8.72245525
Si      10.69637723      10.57900202       2.57469036      -0.70313934      -1.26000156      -0.24628547      -1.07719307      -0.30410073       1.14768501      -8.63226959
Si      12.50258936      11.64084861       5.98622749       0.04599723       0.72117821      -0.37296630      -0.28593131       0.26118716      -0.51145107      -8.69835937
Si      14.26483110      12.86903966       9.07666375      -0.31657580       0.36764703       0.26229547      -0.25645820      -0.01606852      -0.14017921      -7.98735424
Si      10.52838559       3.82892203       2.75171032       0.17904689       0.57460855       0.48093520       0.35676814       0.22104114       0.05838920      -8.65836074
Si      12.47489583       4.95901671       5.83018526       0.26604959      -0.17112107      -0.28412146      -0.06292492       0.66475134       0.62043959      -8.74480818
Si      14.37046942       6.28108520       8.92541770       0.02842331       0.12778134      -0.41758392       0.45326475      -0.81888560       0.56281244      -8.70066718
Si      12.43065734       7.18805447       2.77464408       0.34967471      -0.36955148      -0.34155262       0.61020932      -0.04001911      -0.08914316      -8.74510723
Si      14.52352503       8.29009499       5.87753905      -0.43882557      -0.99816017      -0.54658803      -0.87672056       0.09373680      -0.16434880      -8.75869593
Si      16.41341334       9.41564274       9.00591392      -0.07472113       1.02695084       0.65034521      -0.34743345       0.31037283       0.32760417      -8.66263377
Si      14.41110268      10.48084892       2.72365571      -0.60819321      -0.76645886       0.21242715      -0.32364102       0.56195425      -0.47989839      -8.72483278
Si      16.28750138      11.75381583       5.92942725      -0.10405893       0.13520332      -0.07638434       0.77023122      -1.12829762      -0.54929858      -8.64272243
Si      18.35894046      12.74108760       9.01983762      -0.63104012      -0.68407629      -0.25868056      -0.10893749       0.74961254      -0.03440647      -8.63400565
Si      14.49081105       3.89372594       2.81780653       0.26587083      -1.19861947      -0.32208744       0.52402829      -0.25903377      -0.54101042      -8.70060723
Si      16.41702297       4.98770189       5.95872188      -0.34696895      -0.07271959       0.72930181      -0.46330531      -0.46399649      -0.25145389      -8.72812654
Si      18.21147552       5.84865557       9.21409308       0.70590842       0.25198310       0.51540329       0.61384113       0.03603011      -0.46226294      -8.04049228
Si      16.39212840       7.22488428       2.80239109       0.25847288       0.42646244       0.48800246       0.17080407       0.08218545       0.32009665      -8.69380137
Si      18.31494526       8.35272005       5.81153926       0.34821026       1.33991724       0.29173380       0.33884851       0.09723483       0.78273484      -8.64946614
Si      20.16776125       9.43351442       9.08173863      -0.44495327      -0.41906866       0.26695773       1.12311852      -0.21919648      -0.07799205      -8.73277219
Si      18.27384774      10.62359207       2.46679034       1.05277058      -1.07235316       1.93273096      -0.05553376       0.35329908       0.08604448      -8.04745497
Si      20.18040466      11.60015309       5.84192633      -0.74259344      -0.43570821      -0.39339479      -0.03938625       0.37918501       0.27954443      -8.75414895
Si      22.30852716      12.94606953       9.17014271       0.54707632       0.20592973      -0.33511605      -0.08322642      -0.39467785      -0.44478691      -8.00000826
Si       2.88812993       1.61077734       3.49233465       0.60516169      -0.68288910       0.65442304       0.32149815       0.08703537      -0.64363056      -8.67857320
Si       4.71958924       2.73301684       6.75387262      -0.67238332      -0.33781207      -0.26762219       0.92800563       0.30528417       0.20631016      -8.65868874
Si       2.82062177       3.85033130       0.39900967      -0.34242869       0.53313618       0.33575007      -0.25555862      -0.21122668       0.60727979      -8.67657562
Si       4.95453417       4.96515403       3.59200494      -0.34651001      -0.17240386      -0.25460750      -0.78098375       0.27490176       0.03898366      -8.72324246
Si       6.71708222       6.11498405       6.79277574       0.77036212       0.32278294      -0.25434344       0.30828135       0.12292811       0.06336162      -8.67402231
Si       4.76951419       7.30315427       0.48910191      -0.48227227       0.00966955       0.54502105       0.06248093       0.10390916      -0.71894596      -8.69000550
Si       6.79452732       8.50823966       3.44447660       0.63626346      -0.22961782       0.62832231      -0.35274537      -1.01807650      -0.07712198      -8.70653291
Si       8.73759784       9.46034416       6.74769540      -0.24063668       0.24926548       0.32231166      -0.76283473      -0.44805360      -0.54867403      -8.72537422
Si       4.72662284       0.54287674       0.24442045      -0.52634244      -0.12392570      -0.04602970       0.90200767      -0.56285827       0.42542460      -8.71852808
Si       6.76652942       1.64733829       3.58514882      -0.16851678       0.07325549       0.71362503       0.10659512      -0.72047285       0.19951215      -8.73888165
Si       8.63934672       2.84374491       6.70338754       0.95213728       0.23205310      -0.16995858      -0.65917748      -0.29049934       0.42492271      -8.76879456
Si       6.69917880       3.92287134       0.44203863      -0.99475682       0.73719571      -0.01183025      -0.16841821       0.06469447      -0.02612890      -8.72019451
Si       8.62649788       5.03936255       3.55116864       0.10668057       0.53860475       0.08268972       0.96278540       0.13885133       0.08291677      -8.74474000
Si      10.57973222       6.12234635       6.77178890       0.01316750      -0.27381555      -1.09877013      -0.01558075      -0.08316746      -1.10692663      -8.69746720
Si       8.60295108       7.27713194       0.35054697       0.53499291       1.82564328       0.64919481       0.67752650      -0.31666898      -0.39978230      -8.70401766
Si      10.52585325       8.32384205       3.49452285       0.61402489      -0.31555080      -0.77490351       0.47900671       0.66682764       0.10305583      -8.72622179
Si      12.58323095       9.39933234       6.68340485       0.25240780       0.18050921      -0.65095322      -0.12822309       0.09735444       0.11050332      -8.74404873
Si       8.75731421       0.70774099       0.32807132      -0.29108553       0.06553631      -0.40680968      -0.73484127      -0.51011100       0.34471526      -8.65162578
Si      10.51636980       1.55308051       3.48372212       0.38396332       0.84538508      -0.03065283       0.85353485       0.75964416       0.55564316      -8.66804815
Si      12.52972736       2.80493723       6.65554659       0.15318856      -0.12188317       0.00547538      -0.19448129      -0.82843589       0.03116815      -8.76258921
Si      10.61906268       3.84094906       0.37656587      -0.67793573       0.52093055       0.14183207      -0.54721192       0.36500726       0.14294077      -8.73430402
Si      12.56413001       4.96343688       3.51807364      -0.28026563       0.26142888      -0.34443009      -1.06346610      -0.17658312      -0.23442135      -8.74405385
Si      14.40900941       6.07159652       6.59318436      -0.93554468      -0.04043404      -0.34008426       0.21454047       0.05079388       0.12024931      -8.73559963
Si      12.57834563       7.19315531       0.42113672      -0.65240155       0.00601601      -0.56529125      -1.22203610       0.46147648       0.03284208      -8.76693092
Si      14.38624956       8.31010600       3.53255032       0.06846446      -1.06932695       0.06756701       0.27589846      -0.49364663      -0.07122170      -8.73138553
Si      16.36453755       9.41376446       6.65789390      -0.00890009       0.88674611       0.11673267       0.63115823       0.88967882      -0.01914246      -8.75020568
53
Lattice="11.5478352 0.0 0.0 5.773917198490155 10.000722372470358 0.0 5.773916394327279 3.333571176804646 9.428767828939895" Properties=species:S:1:pos:R:3:momenta:R:3:forces:R:3:energies:R:1 spacegroup="_JSON {\"number\": 1, \"setting\": 1}" unit_cell=conventional occupancy="_JSON {\"0\": {\"Si\": 1.0}, \"1\": {\"Si\": 1.0}, \"2\": {\"Si\": 1.0}, \"3\": {\"Si\": 1.0}, \"4\": {\"Si\": 1.0}, \"5\": {\"Si\": 1.0}, \"6\": {\"Si\": 1.0}, \"7\": {\"Si\": 1.0}, \"8\": {\"Si\": 1.0}, \"9\": {\"Si\": 1.0}, \"10\": {\"Si\": 1.0}, \"11\": {\"Si\": 1.0}, \"12\": {\"Si\": 1.0}, \"13\": {\"Si\": 1.0}, \"14\": {\"Si\": 1.0}, \"15\": {\"Si\": 1.0}, \"16\": {\"Si\": 1.0}, \"17\": {\"Si\": 1.0}, \"18\": {\"Si\": 1.0}, \"19\": {\"Si\": 1.0}, \"20\": {\"Si\": 1.0}, \"21\": {\"Si\": 1.0}, \"22\": {\"Si\": 1.0}, \"23\": {\"Si\": 1.0}, \"24\": {\"Si\": 1.0}, \"25\": {\"Si\": 1.0}, \"26\": {\"Si\": 1.0}, \"27\": {\"Si\": 1.0}, \"28\": {\"Si\": 1.0}, \"29\": {\"Si\": 1.0}, \"30\": {\"Si\": 1.0}, \"31\": {\"Si\": 1.0}, \"32\": {\"Si\": 1.0}, \"33\": {\"Si\": 1.0}, \"34\": {\"Si\": 1.0}, \"35\": {\"Si\": 1.0}, \"36\": {\"Si\": 1.0}, \"37\": {\"Si\": 1.0}, \"38\": {\"Si\": 1.0}, \"39\": {\"Si\": 1.0}, \"40\": {\"Si\": 1.0}, \"41\": {\"Si\": 1.0}, \"42\": {\"Si\": 1.0}, \"43\": {\"Si\": 1.0}, \"44\": {\"Si\": 1.0}, \"45\": {\"Si\": 1.0}, \"46\": {\"Si\": 1.0}, \"47\": {\"Si\": 1.0}, \"48\": {\"Si\": 1.0}, \"49\": {\"Si\": 1.0}, \"50\": {\"Si\": 1.0}, \"51\": {\"Si\": 1.0}, \"52\": {\"Si\": 1.0}}" energy=-459.4805942352462 stress="0.013919135918768533 -0.0004273605597476169 -0.0007428269381492723 -0.0004273605597476169 0.010048283448465811 0.001011705511982147 -0.0007428269381492723 0.001011705511982147 0.012079913261937724" free_energy=-459.4805942352462 pbc="T T T"
Si       6.84883580       3.80648750       2.75860291      -0.42891045       0.34427770      -1.48139812      -0.64395861       0.52657972       0.31789281      -8.74240939
Si       8.64628874       5.03548068       5.90483051       0.38106988       0.67127600      -0.00441503      -0.11331387       0.13313107       0.02594145      -8.75841834
Si      10.56083276       6.10755047       9.07363129       0.40876091       0.39489974      -0.46525408      -0.31122676       0.30188885      -0.33777490      -8.70641659
Si       8.66310346       7.23054991       2.67625558      -0.16366196      -0.03353508       0.49025869      -0.14322151       0.25982644       0.39922015      -8.74164115
Si      10.60224630       8.29069908       5.87649572      -0.37682122      -0.79053060      -0.35460322       0.16823045       0.67128173      -0.13588941      -8.71669324
Si      12.46359117       9.51451988       9.07913774       0.52155192       0.41429010       0.47629825       0.00830953       0.05787039      -0.25064437      -8.68575913
Si      10.62976565      10.51003942       2.60636320      -1.55721808      -1.18315488       1.37048402       0.03635251       0.42299493       0.79462383      -8.68339690
Si      12.49586895      11.68530112       5.95324609      -0.24806975       0.87780331      -0.74203999      -0.07097492      -0.11622990       0.04517373      -8.72902770
Si      14.23726451      12.89327271       9.08239050      -0.71680483       0.64771663      -0.06219516      -0.18325457       0.33189909      -0.20617828      -8.02175207
Si      10.54812820       3.86692829       2.77443794       0.48528541       0.83524323       0.28408825       0.00368165       0.05380300      -0.33963462      -8.73119682
Si      12.48334797       4.97023599       5.83483623       0.01443841       0.43185060       0.34022033      -0.21720911       0.01372133       0.14301947      -8.75198007
Si      14.38006281       6.25988093       8.92742459       0.15534777      -0.85220954       0.50895145      -0.25227672      -0.47932836       0.61145589      -8.70152216
Si      12.47014899       7.16864109       2.75046793       1.06292236      -0.33988513      -0.61797624       0.23988246       0.07379742      -0.22978680      -8.75171021
Si      14.47701552       8.25196555       5.84851351      -1.10457771      -0.25907209      -0.43876915       0.01814395       0.84294588       0.30438701      -8.74547568
Si      16.39148181       9.47642696       9.04577617      -0.83800312       1.16728955       0.70907965      -0.62670163      -0.17935030      -0.30085812      -8.70749041
Si      14.37630034      10.46520604       2.71991292      -0.51197084       0.17268703      -0.25178629       0.47727240       0.56453471      -0.07858285      -8.70111875
Si      16.31164408      11.72241208       5.90441575       0.92788045      -1.14347590      -0.82489784       0.38538088      -0.37378465      -0.33950097      -8.72741083
Si      18.32386999      12.73711513       9.00565282      -0.66142391       0.52654963      -0.26484491       0.07098450       0.70937648       0.03276613      -8.67696059
Si      14.51710450       3.82920162       2.78621252       0.55241800      -1.08765179      -0.73137295      -0.18684950       0.41333146       0.05629072      -8.70404250
Si      16.38538270       4.96974938       5.98310623      -0.73463142      -0.50690123       0.13773703       0.02603416      -0.05146253      -0.49455387      -8.70640967
Si      18.26297892       5.86623109       9.22125819       1.04890681       0.46963330      -0.26160116      -0.20387734       0.22974655      -0.53391716      -8.00434214
Si      16.41182661       7.24510973       2.83626401       0.45922135       0.22963124       0.67059806       0.03746846      -0.36871426      -0.19701767      -8.71395349
Si      18.34171207       8.41941781       5.85606106       0.53618574       1.03290147       1.32303678      -0.20616126      -0.57417576       0.44549958      -8.69010233
Si      20.18216533       9.41030796       9.09337779       0.78831202      -0.31244156       0.19141646       0.33024627       0.35913067      -0.02991339      -8.73519078
Si      18.32304360      10.58590398       2.56842357       0.74321416      -0.32234976       1.87483413      -0.36845504       0.50413077      -0.17860117      -8.01228530
Si      20.14624861      11.59281378       5.83592621      -0.40940881       0.15094933       0.20308445       0.54373214       0.35135830       0.42207271      -8.73679290
Si      22.32949040      12.94158106       9.13746945       0.15952714      -0.35899519      -0.84311312      -0.44030248      -0.31802644      -0.17189200      -7.97643000
Si       2.92934674       1.57803189       3.50042366       0.87251414      -0.54702414      -0.30054936      -0.05687534       0.16695381      -0.44896745      -8.74335284
Si       4.71927922       2.72669937       6.74828816       0.59348979       0.06937232       0.04603437       0.65410230       0.19708488       0.16914471      -8.68056000
Si       2.80123744       3.86302287       0.43489635      -0.22105750      -0.14622119       0.88862758       0.42561821      -0.57507142       0.03273055      -8.72948834
Si       4.91373429       4.96430090       3.58225506      -1.04464230       0.09246848      -0.09126562      -0.12973343       0.08606944       0.14142547      -8.70768179
Si       6.76225236       6.13662607       6.78391143       0.78563038       0.48971902      -0.05723531      -0.33837376       0.07186280       0.16691314      -8.65104039
Si       4.75079137       7.30867323       0.49029864      -0.13681151       0.21235625      -0.43916122       0.42921747       0.14724259      -0.47896090      -8.68430603
Si       6.81425408       8.45641218       3.47702160       0.11350116      -1.66126495       0.67912615      -0.35466114      -0.65858746       0.18071367      -8.74394878
Si       8.70325353       9.45448600       6.74453275      -0.86178749      -0.46132643      -0.38342839       0.06125163      -0.38772513      -0.30307250      -8.75021454
Si       4.73331073       0.51787594       0.25790014       0.71040575      -0.70601201       0.55069143       0.60443897      -0.07514724       0.38352978      -8.73106866
Si       6.75770932       1.62398702       3.61881361      -0.25558234      -0.86698203       0.32478123      -0.23226284      -0.34416028      -0.74557322      -8.73815730
Si       8.65980854       2.84503107       6.71091131      -0.16749545      -0.16968836       0.39689460      -0.63894867      -0.23232004       0.18839652      -8.73614734
Si       6.65199699       3.95894424       0.43483132      -0.58976256       0.54792903      -0.37635820       0.66210715      -0.28547410      -0.46192835      -8.76584022
Si       8.66292122       5.06568976       3.55608621       1.09543735       0.31276739       0.05188129       0.22802709      -0.44307546      -0.12020415      -8.74988327
Si      10.58163814       6.10304449       6.68522334       0.09399063      -0.46662311      -1.87221160       0.11692258      -0.09083373       0.18107516      -8.75019934
Si       8.65047079       7.35221438       0.36681547       1.10171515       0.90084583      -0.02624043      -0.02224031      -0.82878420      -0.38225965      -8.71725061
Si      10.57193588       8.32665212       3.46365779       1.02767468       0.24059702      -0.28624671       0.02885575      -0.04959775       0.55286061      -8.74380500
Si      12.58578995       9.41227943       6.65742724      -0.26781428       0.31753462      -0.26556133      -0.55916702       0.11251691       0.39577111      -8.70514209
Si       8.71744908       0.68949460       0.32078894      -1.11148386      -0.78077048       0.12264995      -0.26589890      -0.57152800       0.31580817      -8.65796695
Si      10.56080366       1.61604340       3.49890311       1.12104041       1.32741096       0.48584225       0.10932639      -0.13180954       0.06486036      -8.69081980
Si      12.52726568       2.77081346       6.65514867      -0.29279452      -1.02364044      -0.05769285      -0.36565610      -0.21654083      -0.10900071      -8.76278761
Si      10.57094007       3.87864377       0.38867082      -0.96145187       0.82369690       0.29615537       0.21146562       0.00155212       0.04673876      -8.70285327
Si      12.52034694       4.96385351       3.49292031      -1.09708970      -0.34015573      -0.54118615       0.08735583      -0.52413733       0.05380509      -8.74062198
Si      14.37492838       6.06969674       6.58445399      -0.24682812      -0.04842326       0.10507057       0.66158525      -0.01064876       0.49177144      -8.76309012
Si      12.50975424       7.20821333       0.39554683      -1.60557296       0.49237296      -0.38059317       0.16060143       0.17380285       0.15514925      -8.78028779
Si      14.40068441       8.24338823       3.53072906       0.48126343      -1.25527571      -0.18633144       0.26723294       0.36222471      -0.25232357      -8.75610825
Si      16.37908492       9.48318299       6.66291980       0.36997137       1.46954093       0.08048670      -0.12222713      -0.25414543       0.00799883      -8.73804281
53
Lattice="11.5478352 0.0 0.0 5.773917198490155 10.000722372470358 0.0 5.773916394327279 3.333571176804646 9.428767828939895" Properties=species:S:1:pos:R:3:momenta:R:3:forces:R:3:energies:R:1 spacegroup="_JSON {\"number\": 1, \"setting\": 1}" unit_cell=conventional occupancy="_JSON {\"0\": {\"Si\": 1.0}, \"1\": {\"Si\": 1.0}, \"2\": {\"Si\": 1.0}, \"3\": {\"Si\": 1.0}, \"4\": {\"Si\": 1.0}, \"5\": {\"Si\": 1.0}, \"6\": {\"Si\": 1.0}, \"7\": {\"Si\": 1.0}, \"8\": {\"Si\": 1.0}, \"9\": {\"Si\": 1.0}, \"10\": {\"Si\": 1.0}, \"11\": {\"Si\": 1.0}, \"12\": {\"Si\": 1.0}, \"13\": {\"Si\": 1.0}, \"14\": {\"Si\": 1.0}, \"15\": {\"Si\": 1.0}, \"16\": {\"Si\": 1.0}, \"17\": {\"Si\": 1.0}, \"18\": {\"Si\": 1.0}, \"19\": {\"Si\": 1.0}, \"20\": {\"Si\": 1.0}, \"21\": {\"Si\": 1.0}, \"22\": {\"Si\": 1.0}, \"23\": {\"Si\": 1.0}, \"24\": {\"Si\": 1.0}, \"25\": {\"Si\": 1.0}, \"26\": {\"Si\": 1.0}, \"27\": {\"Si\": 1.0}, \"28\": {\"Si\": 1.0}, \"29\": {\"Si\": 1.0}, \"30\": {\"Si\": 1.0}, \"31\": {\"Si\": 1.0}, \"32\": {\"Si\": 1.0}, \"33\": {\"Si\": 1.0}, \"34\": {\"Si\": 1.0}, \"35\": {\"Si\": 1.0}, \"36\": {\"Si\": 1.0}, \"37\": {\"Si\": 1.0}, \"38\": {\"Si\": 1.0}, \"39\": {\"Si\": 1.0}, \"40\": {\"Si\": 1.0}, \"41\": {\"Si\": 1.0}, \"42\": {\"Si\": 1.0}, \"43\": {\"Si\": 1.0}, \"44\": {\"Si\": 1.0}, \"45\": {\"Si\": 1.0}, \"46\": {\"Si\": 1.0}, \"47\": {\"Si\": 1.0}, \"48\": {\"Si\": 1.0}, \"49\": {\"Si\": 1.0}, \"50\": {\"Si\": 1.0}, \"51\": {\"Si\": 1.0}, \"52\": {\"Si\": 1.0}}" energy=-459.21069708407913 stress="0.008819599356565063 -0.0007673674788712683 -0.0007688330473655541 -0.0007673674788712683 0.010639465198686 -0.0007849928002291462 -0.0007688330473655541 -0.0007849928002291462 0.010572793471784645" free_energy=-459.21069708407913 pbc="T T T"
Si       6.80600713       3.84014839       2.70587879      -1.10338089       0.82987213      -0.35389513      -0.23884071       0.09296698       0.98067553      -8.68208764
Si       8.65797693       5.06533757       5.90347441      -0.00654183       0.27863806      -0.08030901      -0.38122982      -0.59245795      -0.10069777      -8.75249653
Si      10.56700285       6.13180408       9.03519772      -0.18259050       0.37159298      -0.97913285      -0.33742777      -0.31146019      -0.24973817      -8.65535755
Si       8.65896737       7.23796831       2.71097147       0.18118555       0.26422426       0.69783691       0.52745188       0.05768058      -0.12320928      -8.72801788
Si      10.59011014       8.27942895       5.85297304      -0.06808014       0.37287597      -0.49988206       0.23618261       0.70637492       0.03721959      -8.71439302
Si      12.49217558       9.53958592       9.09083261       0.57397256       0.53230386      -0.08617580       0.02608052       0.02069768      -0.46320566      -8.67686060
Si      10.56509019      10.46862233       2.69428649      -0.62012440      -0.36386140       1.66790079       1.14005019       0.53638000      -0.42312040      -8.71160048
Si      12.48386233      11.72121191       5.92008681      -0.13972416       0.37953898      -0.48881859       0.20003487      -0.54880347       0.17168940      -8.74359085
Si      14.19731332      12.93987109       9.07534602      -0.69735620       1.08219825      -0.10884648       0.24038287       0.15055364       0.16893366      -8.02657243
Si      10.56832735       3.90705901       2.77220766       0.19575529       0.56166384      -0.42673652      -0.32844675      -0.45409281      -0.55037292      -8.77266819
Si      12.47902751       4.98308310       5.85103089      -0.07639336      -0.10615233       0.16135644       0.18174772      -0.61564175      -0.30474943      -8.73302217
Si      14.37507682       6.20071212       8.97481678      -0.35179779      -1.31982764       1.22096184      -0.26976004      -0.14072989       0.29925960      -8.71767253
Si      12.52806035       7.15301566       2.71071188       1.01016364      -0.27627661      -0.83177278      -0.28278465       0.00017902       0.03360921      -8.75405051
Si      14.42761362       8.27215685       5.84005152      -0.66004866       0.98754918       0.14720223       0.48391451       0.67108029       0.42339814      -8.71282315
Si      16.32642748       9.52460891       9.06459031      -1.49023363       0.55657101      -0.09227326      -0.01881007      -0.61241472      -0.68039197      -8.74294386
Si      14.37481940      10.48971347       2.70963243       0.54953209       0.62768720      -0.03953333       0.83169131       0.04077520       0.31350576      -8.67248214
Si      16.36239119      11.66376261       5.85452102       0.75283444      -0.81095422      -0.93826668      -0.60446841       0.70673156       0.21075002      -8.74164689
Si      18.29327133      12.78257622       8.99309745      -0.48023282       0.98436437      -0.22094190       0.16205968      -0.15910964       0.00456128      -8.74605807
Si      14.53199340       3.79198055       2.75815686      -0.08546187      -0.28472400      -0.19651388      -0.57769255       0.59323461       0.59703967      -8.69051488
Si      16.35515804       4.94758591       5.97200002      -0.28646077      -0.22086367      -0.52032470       0.53412914       0.40569762      -0.32283760      -8.69067199
Si      18.30181188       5.90036504       9.18879973       0.29743780       0.82739776      -0.91779171      -0.72262093       0.21299760      -0.29348104      -7.96961072
Si      16.43363685       7.23828252       2.85498763       0.29650547      -0.55244059      -0.11271687      -0.25213772      -0.59644858      -0.79485682      -8.72076645
Si      18.35092387       8.44326908       5.93305855      -0.37638417      -0.25783365       1.41698690      -0.91504216      -1.06897629      -0.30973979      -8.69895797
Si      20.22293957       9.40959239       9.10164254       0.54599835       0.27405559       0.10114861      -0.52764692       0.32129033      -0.11275245      -8.68669118
Si      18.34558038      10.58081787       2.65923074       0.08224909      -0.04811834       1.56320947      -0.49067330      -0.18145069      -0.27289533      -7.95426620
Si      20.15192383      11.61074342       5.85951391       0.70231579       0.45532990       0.61897869       0.82000687       0.04957263       0.12286603      -8.68989150
Si      22.31834115      12.91374850       9.09221376      -0.61183985      -0.62194197      -0.75913316      -0.53819592       0.00235700       0.30966177      -7.96290113
Si       2.96449295       1.56035436       3.47926658       0.29164420      -0.02071692      -0.25564391      -0.72499768       0.56259298       0.51782911      -8.76433635
Si       4.76729461       2.73538097       6.75420497       1.06339191       0.22230626       0.10918512      -0.02957789       0.04524612      -0.10749756      -8.73657611
Si       2.81141034       3.83730686       0.47246911       0.66775170      -0.70989178       0.34365531       0.64253082      -0.09106380      -0.73722242      -8.75884581
Si       4.86037677       4.97058746       3.58200870      -0.88037330       0.11296839       0.05571239       0.29939520      -0.05131713       0.03790475      -8.72666672
Si       6.78396185       6.16330823       6.78623151      -0.05458406       0.47303806       0.10581121      -0.70775331      -0.14893107       0.00562906      -8.65698643
Si       4.76391055       7.32457323       0.45616877       0.68265542       0.35592247      -0.71777668       0.59199743      -0.00910231       0.08792229      -8.70617283
Si       6.80742160       8.35878872       3.52438860      -0.34726323      -1.73981386       1.19821368      -0.24156802       0.58215633       0.44673428      -8.74930367
Si       8.67414945       9.42275876       6.72012704      -0.01237628      -0.58065691      -0.40259612       0.94486069       0.25512914       0.25079216      -8.75390623
Si       4.78209067       0.48860980       0.30174371       0.88540322      -0.20346636       1.11282088      -0.42503442       0.72269732       0.33701010      -8.68693147
Si       6.73234698       1.57610001       3.60091277      -0.73147945      -0.74107039      -1.04115590      -0.29297472       0.51026607      -0.86022012      -8.72688217
Si       8.63533215       2.82932296       6.73088555      -0.58132136      -0.37512611       0.21143622       0.08420012      -0.01834020      -0.40213466      -8.68439319
Si       6.64975902       3.97586150       0.39455847       0.50704876       0.09399030      -1.15451695       0.65861311      -0.29557645      -0.42443750      -8.79139547
Si       8.71678939       5.06241111       3.55318463       0.71731139      -0.43776119      -0.16567266      -0.71567152      -0.43936493      -0.13222065      -8.73783926
Si      10.59128565       6.07990321       6.60765827       0.25502767      -0.29492461      -0.86751157       0.03879939       0.36924580       1.02287098      -8.76057644
Si       8.69504844       7.37209493       0.35732405       0.34376769       0.01057450      -0.19074802      -1.00285943      -0.22612541       0.18247479      -8.72094832
Si      10.62258108       8.32571110       3.47259307       0.83284586      -0.45624613       0.63330199      -0.24698762      -0.73073237       0.55602266      -8.73321162
Si      12.54810871       9.43486298       6.65977311      -1.15936558       0.57030902       0.35144379      -0.50542014       0.21141395       0.37196937      -8.69581840
Si       8.65772147       0.62925381       0.33665571      -0.97973031      -1.42841630       0.42419955       0.46401317      -0.22114238       0.08786391      -8.70229805
Si      10.61637687       1.67358858       3.51851103       0.86117011       0.76212328       0.10050150      -0.43176704      -0.54197944      -0.55962346      -8.70128581
Si      12.49925323       2.72049237       6.64760934      -0.70489652      -0.67919344      -0.22110084      -0.07838123       0.62007742      -0.07591737      -8.75138367
Si      10.53523350       3.91737077       0.40372129      -0.30993370       0.56058278       0.21673177       0.55937403      -0.36096705      -0.19567558      -8.65345219
Si      12.48192490       4.93001971       3.47203281      -0.09463898      -0.81605786      -0.16074741       1.13326092      -0.00969359       0.41230742      -8.69839677
Si      14.38691507       6.06884857       6.61130793       0.64110369       0.06716262       0.92443436       0.40642320       0.18306729       0.50217710      -8.77886495
Si      12.44854475       7.23848337       0.37936434      -0.48588101       0.61500353      -0.29770710       1.09398875      -0.02501516      -0.08797478      -8.73372579
Si      14.43539061       8.20253687       3.51203327       0.80764005      -0.11541247      -0.47744572       0.12507679       1.07868641      -0.05910858      -8.75378888
Si      16.38718733       9.53474818       6.66982035      -0.16621694       0.23190422       0.22265794      -0.53749506      -1.25821119       0.15140365      -8.69809401
53
Lattice="11.5478352 0.0 0.0 5.773917198490155 10.000722372470358 0.0 5.773916394327279 3.333571176804646 9.428767828939895" Properties=species:S:1:pos:R:3:momenta:R:3:forces:R:3:energies:R:1 spacegroup="_JSON {\"number\": 1, \"setting\": 1}" unit_cell=conventional occupancy="_JSON {\"0\": {\"Si\": 1.0}, \"1\": {\"Si\": 1.0}, \"2\": {\"Si\": 1.0}, \"3\": {\"Si\": 1.0}, \"4\": {\"Si\": 1.0}, \"5\": {\"Si\": 1.0}, \"6\": {\"Si\": 1.0}, \"7\": {\"Si\": 1.0}, \"8\": {\"Si\": 1.0}, \"9\": {\"Si\": 1.0}, \"10\": {\"Si\": 1.0}, \"11\": {\"Si\": 1.0}, \"12\": {\"Si\": 1.0}, \"13\": {\"Si\": 1.0}, \"14\": {\"Si\": 1.0}, \"15\": {\"Si\": 1.0}, \"16\": {\"Si\": 1.0}, \"17\": {\"Si\": 1.0}, \"18\": {\"Si\": 1.0}, \"19\": {\"Si\": 1.0}, \"20\": {\"Si\": 1.0}, \"21\": {\"Si\": 1.0}, \"22\": {\"Si\": 1.0}, \"23\": {\"Si\": 1.0}, \"24\": {\"Si\": 1.0}, \"25\": {\"Si\": 1.0}, \"26\": {\"Si\": 1.0}, \"27\": {\"Si\": 1.0}, \"28\": {\"Si\": 1.0}, \"29\": {\"Si\": 1.0}, \"30\": {\"Si\": 1.0}, \"31\": {\"Si\": 1.0}, \"32\": {\"Si\": 1.0}, \"33\": {\"Si\": 1.0}, \"34\": {\"Si\": 1.0}, \"35\": {\"Si\": 1.0}, \"36\": {\"Si\": 1.0}, \"37\": {\"Si\": 1.0}, \"38\": {\"Si\": 1.0}, \"39\": {\"Si\": 1.0}, \"40\": {\"Si\": 1.0}, \"41\": {\"Si\": 1.0}, \"42\": {\"Si\": 1.0}, \"43\": {\"Si\": 1.0}, \"44\": {\"Si\": 1.0}, \"45\": {\"Si\": 1.0}, \"46\": {\"Si\": 1.0}, \"47\": {\"Si\": 1.0}, \"48\": {\"Si\": 1.0}, \"49\": {\"Si\": 1.0}, \"50\": {\"Si\": 1.0}, \"51\": {\"Si\": 1.0}, \"52\": {\"Si\": 1.0}}" energy=-459.5924566677484 stress="0.007891440098981586 9.611175027172821e-05 9.196652782893531e-05 9.611175027172821e-05 0.012582417466782033 -0.0014453603398536681 9.196652782893531e-05 -0.0014453603398536681 0.008117413664915252" free_energy=-459.5924566677484 pbc="T T T"
Si       6.74370152       3.88197525       2.71803676      -1.16767748       0.66006700       0.60751663       0.17568706      -0.31798220       0.15993189      -8.67695564
Si       8.64333269       5.05580104       5.89577997      -0.51018128      -0.60749034      -0.19207111      -0.21454192      -0.45039002      -0.02083426      -8.72988267
Si      10.55212794       6.13580759       8.97931341      -0.20222656      -0.25270670      -1.02189454       0.36971793      -0.43935951       0.26214395      -8.68955246
Si       8.68840085       7.24956557       2.74039785       0.84618370       0.10071382       0.41239204       0.14968828      -0.24320467      -0.17073046      -8.72006686
Si      10.59548693       8.31736110       5.83453703       0.26297015       0.86926125      -0.06706955       0.19025177      -0.09394872       0.55531747      -8.75007174
Si      12.52177256       9.56454701       9.06911173       0.50333359       0.32658379      -0.70249347      -0.17282975      -0.33958702      -0.29867247      -8.72435851
Si      10.57569685      10.46370363       2.75760651       0.86339582       0.04259001       0.65908991       0.49693216       0.01690464      -0.76215143      -8.74945643
Si      12.48510260      11.71785559       5.89578848       0.18102860      -0.50843345      -0.54493957       0.17500042      -0.53264890      -0.23712197      -8.73636320
Si      14.17371413      12.99830520       9.07938081      -0.14907185       1.06075477       0.29514588       0.44287679      -0.18287629       0.29186097      -7.97994117
Si      10.56908850       3.91633589       2.73162622      -0.05835505      -0.20978384      -1.00877317       0.08303098      -0.45262575      -0.10686409      -8.77536144
Si      12.48812406       4.95579391       5.84863095       0.50451573      -0.81676047      -0.19244359       0.48754250      -0.14595488      -0.06834440      -8.73714822
Si      14.35422003       6.12852248       9.04566165      -0.25416819      -1.38034946       1.36860867       0.46206454       0.06961469      -0.14358232      -8.73789569
Si      12.56915584       7.13819828       2.67429333       0.56794086      -0.27304470      -0.43825496      -0.23837530       0.06274868       0.48509720      -8.74337837
Si      14.40991262       8.34105061       5.86237114      -0.09223658       1.43478818       0.65094404       0.17021422      -0.13982916       0.20667279      -8.71219406
Si      16.26072808       9.53017517       9.03669916      -0.79430320      -0.29872544      -0.84565429       0.81585607      -0.42056768      -0.17630426      -8.73917425
Si      14.43198378      10.52050352       2.72029751       1.48895118       0.50076367       0.42229969       0.26354542      -0.13935841       0.21195634      -8.69705046
Si      16.37193734      11.64869227       5.81897512      -0.46240087       0.15998431      -0.32284661      -0.87465067       0.41925410       0.56702865      -8.70974601
Si      18.27240147      12.81973212       8.98065962      -0.37378626       0.31983699      -0.25597173      -0.06454673      -0.58991234       0.00196088      -8.75890270
Si      14.50678742       3.79731358       2.76936731      -0.79256868       0.41229537       0.51837998      -0.23529869       0.28132736       0.17462457      -8.73644780
Si      16.36193246       4.95399211       5.93782257       0.52279249       0.48545540      -0.65509500       0.43383459       0.47761324       0.17637130      -8.70361827
Si      18.29017081       5.95139509       9.13438549      -0.68202401       1.09320918      -1.04070063      -0.47770527       0.10664049       0.16183423      -7.96805187
Si      16.43876179       7.19026000       2.81758827      -0.08738609      -1.13877999      -1.26284593      -0.19650722      -0.04013426      -0.57764231      -8.73951449
Si      18.30027664       8.39273861       5.99269274      -1.36031614      -1.49722684       0.83740427      -0.16672780      -0.38733665      -0.39317555      -8.73626985
Si      20.23123715       9.43244188       9.10160054      -0.16098378       0.51679264      -0.11786453      -0.25566690       0.00037257      -0.17120043      -8.66195134
Si      18.33276042      10.56352286       2.73077541      -0.51096561      -0.72389947       1.15469606      -0.24602421      -0.61422105      -0.30510704      -7.90446176
Si      20.21472337      11.63430994       5.89463496       1.51496545       0.41031548       0.68724949       0.11967317      -0.08371377      -0.01264474      -8.67470229
Si      22.26751468      12.88562586       9.06821525      -1.25340949      -0.36954828      -0.10788272      -0.23875416       0.31033423       0.48576396      -7.96233145
Si       2.95050421       1.58138749       3.49241989      -0.76359192       0.75802235       0.81460993      -0.47800623       0.29921644       0.73582145      -8.76921803
Si       4.81717175       2.74992874       6.75242848       0.77885363       0.36923525      -0.22542270      -0.26050456       0.18410144      -0.28948044      -8.76931321
Si       2.86603315       3.80393542       0.45959710       1.25217783      -0.42358497      -0.80722127      -0.00368113       0.45606260      -0.61919004      -8.75710892
Si       4.82579024       4.97342747       3.58454714      -0.46177687      -0.02097504       0.00737909       0.20454104      -0.11208794      -0.09284142      -8.76970870
Si       6.75536318       6.17697767       6.78783313      -0.96221145      -0.07651485      -0.12679549      -0.40539618      -0.63031835      -0.30735822      -8.71707294
Si       4.81901339       7.33824939       0.42532009       1.29932697       0.06474890      -0.41796046       0.11735794      -0.39378570       0.24403362      -8.73149552
Si       6.78245149       8.29724428       3.60287351      -0.54680387      -0.54108880       1.69388213      -0.01205129       0.83200909       0.04296718      -8.73460790
Si       8.70503247       9.40603305       6.71022213       0.96986072      -0.02618843       0.01899830       0.09469722       0.38118350       0.23624588      -8.76432296
Si       4.80314736       0.50977234       0.37021717      -0.18998379       1.02020905       1.39487290      -0.83222589       0.74372606      -0.07700268      -8.64580182
Si       6.69005210       1.56417569       3.52283950      -0.66597493       0.39926491      -1.69638794       0.54681493       0.93899625       0.07785773      -8.72712188
Si       8.61412845       2.81150075       6.72447166      -0.14017544      -0.26270906      -0.44533611       0.42079831       0.14236756      -0.35387857      -8.67266717
Si       6.69326110       3.97131664       0.32610341       0.94401142      -0.21895258      -1.24570593      -0.15342043      -0.10270438       0.38993040      -8.76610779
Si       8.72072678       5.02751347       3.54066283      -0.62528092      -0.78728948      -0.28691755      -0.92111172      -0.02639470      -0.03683218      -8.74195192
Si      10.60286795       6.08190171       6.59939136       0.12461568       0.37866074       0.43266736      -0.19546523       0.38565709       0.53955035      -8.76584748
Si       8.66970618       7.37490619       0.35946199      -1.28321809       0.26686864       0.33208761      -0.86452851       0.43184815       0.40941143      -8.72315691
Si      10.65766362       8.27679811       3.51937035       0.53812470      -1.26944684       0.95157511      -0.11393994      -0.18912758      -0.21652864      -8.74603907
Si      12.47528956       9.47306427       6.68852783      -1.41931804       0.86449624       0.63987354       0.27257191       0.11946965      -0.04519283      -8.72754277
Si       8.63020854       0.55105020       0.36103644       0.00830733      -1.44434094       0.49249599       0.74702573       0.20672923       0.03371543      -8.73573654
Si      10.64186164       1.69367859       3.49933990       0.07354254       0.04112695      -0.82536627      -0.56278365      -0.39065608      -0.51851829      -8.74725086
Si      12.46726683       2.71125631       6.63440237      -0.35131069       0.31190112      -0.25594406       0.54576072       0.54795357       0.02846541      -8.75629466
Si      10.53803866       3.93008426       0.40311950       0.34040357      -0.11277003      -0.32246571       0.25566393      -0.49356113      -0.50754744      -8.66680443
Si      12.51933342       4.89362636       3.47868435       1.36413875      -0.45683817       0.35968995       0.50424300       0.44748009       0.19868433      -8.72402033
Si      14.42849416       6.08113773       6.67430476       0.79023192       0.41410433       1.34828784      -0.19462133       0.22735662      -0.00933168      -8.74293428
Si      12.46030231       7.26619028       0.35584904       0.76670211       0.35901792      -0.66075047       0.43660282      -0.34220057      -0.31467629      -8.72495202
Si      14.47953010       8.23803221       3.48934824       0.80617163       1.39217919      -0.29687163      -0.14344878       0.75515015       0.29355041      -8.75439674
Si      16.35644662       9.50161548       6.68524406      -0.99083922      -1.31579926       0.28980057      -0.45917994      -0.54962982      -0.13804335      -8.75613284
53
Lattice="11.5478352 0.0 0.0 5.773917198490155 10.000722372470358 0.0 5.773916394327279 3.333571176804646 9.428767828939895" Properties=species:S:1:pos:R:3:momenta:R:3:forces:R:3:energies:R:1 spacegroup="_JSON {\"number\": 1, \"setting\": 1}" unit_cell=conventional occupancy="_JSON {\"0\": {\"Si\": 1.0}, \"1\": {\"Si\": 1.0}, \"2\": {\"Si\": 1.0}, \"3\": {\"Si\": 1.0}, \"4\": {\"Si\": 1.0}, \"5\": {\"Si\": 1.0}, \"6\": {\"Si\": 1.0}, \"7\": {\"Si\": 1.0}, \"8\": {\"Si\": 1.0}, \"9\": {\"Si\": 1.0}, \"10\": {\"Si\": 1.0}, \"11\": {\"Si\": 1.0}, \"12\": {\"Si\": 1.0}, \"13\": {\"Si\": 1.0}, \"14\": {\"Si\": 1.0}, \"15\": {\"Si\": 1.0}, \"16\": {\"Si\": 1.0}, \"17\": {\"Si\": 1.0}, \"18\": {\"Si\": 1.0}, \"19\": {\"Si\": 1.0}, \"20\": {\"Si\": 1.0}, \"21\": {\"Si\": 1.0}, \"22\": {\"Si\": 1.0}, \"23\": {\"Si\": 1.0}, \"24\": {\"Si\": 1.0}, \"25\": {\"Si\": 1.0}, \"26\": {\"Si\": 1.0}, \"27\": {\"Si\": 1.0}, \"28\": {\"Si\": 1.0}, \"29\": {\"Si\": 1.0}, \"30\": {\"Si\": 1.0}, \"31\": {\"Si\": 1.0}, \"32\": {\"Si\": 1.0}, \"33\": {\"Si\": 1.0}, \"34\": {\"Si\": 1.0}, \"35\": {\"Si\": 1.0}, \"36\": {\"Si\": 1.0}, \"37\": {\"Si\": 1.0}, \"38\": {\"Si\": 1.0}, \"39\": {\"Si\": 1.0}, \"40\": {\"Si\": 1.0}, \"41\": {\"Si\": 1.0}, \"42\": {\"Si\": 1.0}, \"43\": {\"Si\": 1.0}, \"44\": {\"Si\": 1.0}, \"45\": {\"Si\": 1.0}, \"46\": {\"Si\": 1.0}, \"47\": {\"Si\": 1.0}, \"48\": {\"Si\": 1.0}, \"49\": {\"Si\": 1.0}, \"50\": {\"Si\": 1.0}, \"51\": {\"Si\": 1.0}, \"52\": {\"Si\": 1.0}}" energy=-459.3730976955964 stress="0.009618053168902818 -0.000437248958545582 -0.00041146196109560627 -0.000437248958545582 0.010656001157982292 0.0004240079300595919 -0.00041146196109560627 0.0004240079300595919 0.006019181617074686" free_energy=-459.3730976955964 pbc="T T T"
Si       6.69251905       3.90228072       2.74283464      -0.73107999       0.10493947       0.10557005       0.37347494      -0.34021878      -0.74431415      -8.70997592
Si       8.61296574       5.01426654       5.88596135      -0.55113618      -0.81139016      -0.17267195       0.16454453       0.19133696       0.01355325      -8.70821379
Si      10.56295976       6.10921089       8.94276700       0.69586548      -0.65147537      -0.24461193       0.66579383       0.00284128       0.74001511      -8.74452737
Si       8.72628315       7.24434816       2.75928744       0.35891880      -0.30503465       0.38105666      -0.76800126      -0.25920568       0.11204264      -8.70413781
Si      10.61467495       8.35089908       5.85483284       0.41315911       0.27640164       0.82487545      -0.03282705      -0.60720171       0.47889154      -8.75881237
Si      12.53880135       9.56437423       9.02566285       0.11121824      -0.39266483      -0.83565695      -0.29439779      -0.55711409       0.16881599      -8.75063578
Si      10.62108979      10.46305494       2.76891081       0.54855504      -0.09004987      -0.07406187      -0.72188661      -0.06407692      -0.15272274      -8.72470588
Si      12.49911509      11.67825239       5.85531984       0.31281708      -0.80249428      -1.01076978       0.01909108       0.24958131      -0.28316230      -8.71611554
Si      14.18125499      13.04504523       9.10351971       0.37802130       0.68595749       0.55357455       0.20602017      -0.32007174       0.00966352      -7.94528471
Si      10.57458073       3.89418375       2.68270640       0.32802980      -0.49470858      -0.71094965       0.31549584       0.09595951       0.45307115      -8.73222897
Si      12.53083072       4.92036565       5.84205832       1.03781119      -0.27406258       0.05111398       0.14920262       0.85256415       0.35156377      -8.72907561
Si      14.36572792       6.06034115       9.10745213       0.76515215      -1.16389731       0.90082129       0.72417789       0.28884094      -0.47822231      -8.72664362
Si      12.59438134       7.12935125       2.67087702       0.48148835       0.00242889       0.27968744       0.10351740       0.31874211       0.36619752      -8.72193786
Si      14.40191041       8.40085258       5.89975968      -0.40835350       0.65262692       0.66439128      -0.57907425      -0.88443540      -0.22426272      -8.68792378
Si      16.24831410       9.50587831       8.99699168       0.22775579      -0.47641079      -0.45251961       0.45567528       0.16795390       0.65091851      -8.68280204
Si      14.50750693      10.54354937       2.74474156       1.11837868       0.42494962       0.37612883      -0.79555486       0.03858452      -0.30448614      -8.72155884
Si      16.32088619      11.66477454       5.82246159      -1.27673709       0.30400716       0.38736301      -0.05252914      -0.17012876       0.29341197      -8.68250831
Si      18.24655412      12.81791007       8.97032694      -0.65616722      -0.27309318      -0.06624536      -0.23333939      -0.14014339       0.27393269      -8.72628223
Si      14.46663564       3.82237249       2.79102557      -0.52207033       0.38260665       0.07333757       0.58437871      -0.34087959      -0.72399373      -8.74688568
Si      16.39790742       4.99488645       5.91440888       0.64076012       0.97888844      -0.19588518      -0.38977146       0.09468313       0.32656640      -8.72680028
Si      18.24445109       6.01044184       9.08951842      -0.86551463       1.08332642      -0.62583301       0.29456111      -0.18875704       0.32674883      -7.95460204
Si      16.42982376       7.13990387       2.73995190      -0.19347157      -0.57372527      -1.43596445       0.03631899       0.75805685       0.44467857      -8.72587870
Si      18.23521961       8.31318507       6.02433911      -0.90846759      -1.27162440       0.41993507       0.65938076       0.63638785      -0.18784774      -8.69938637
Si      20.22305480       9.45618279       9.08852095       0.04487012       0.32389775      -0.38106249       0.49798183      -0.24805487      -0.16661501      -8.66967446
Si      18.30173929      10.50344752       2.78050116      -0.56293659      -1.47202451       0.75149219       0.17980006      -0.23245802      -0.26085246      -7.89744563
Si      20.28722972      11.65266953       5.93014804       1.03030314       0.29237012       0.66378470      -0.72863823      -0.07094173      -0.02237032      -8.69067486
Si      22.19999478      12.87738637       9.07744864      -1.13311311      -0.00162515       0.35335731       0.50075072       0.08218086       0.06579722      -7.95915882
Si       2.90194366       1.62272958       3.55762423      -0.90320533       0.61923780       1.50956975       0.24244157      -0.47324574       0.09279186      -8.75067655
Si       4.85142039       2.77891897       6.73097366       0.60107900       0.76577907      -0.53554565       0.02071908       0.29024527      -0.06633815      -8.76342770
Si       2.92034339       3.80309390       0.40229739       0.61573633       0.43549406      -1.19310478      -0.77704293       0.61180468       0.09780504      -8.70965800
Si       4.80504387       4.96883508       3.58081294      -0.40566074      -0.12344520      -0.15160709      -0.08841577       0.01006783      -0.10084511      -8.77932681
Si       6.69789433       6.14384941       6.76841158      -1.02029584      -1.22264508      -0.58900829       0.42172377      -0.73771046      -0.20178942      -8.76843709
Si       4.88282777       7.32439046       0.40955513       0.95144987      -0.59060502      -0.26869471      -0.59100567      -0.37536310      -0.09045751      -8.73827158
Si       6.75550431       8.29276678       3.68311774      -0.43880217       0.18055914       1.15002702       0.15262646       0.08355299      -0.78335081      -8.72095031
Si       8.74333070       9.41648313       6.71773978       0.22055977       0.35854788       0.21511200      -0.94769271       0.11447805       0.02199046      -8.72366804
Si       4.76670276       0.58323786       0.43239142      -1.04755347       1.55691377       0.81732924      -0.23556754      -0.13919761      -0.67750890      -8.68045087
Si       6.68810736       1.61911131       3.44702896       0.74424606       1.56391166      -1.02788379       1.10245446       0.39433543       0.71949150      -8.71765559
Si       8.62076578       2.80265848       6.69399978       0.30827934      -0.09548158      -0.56342642       0.08337241       0.06232052       0.24586816      -8.70706279
Si       6.72852552       3.95792731       0.28419502       0.29368112      -0.27239832      -0.22308738      -0.55624877      -0.03195843       0.88345714      -8.68862062
Si       8.66022613       4.98806537       3.52408993      -1.46695016      -0.66835052      -0.34950861      -0.07581241       0.16782016      -0.05003350      -8.75416456
Si      10.60174354       6.10911978       6.62927867      -0.15022751       0.48501999       0.44531472      -0.12758994      -0.29129950      -0.46903961      -8.73233783
Si       8.58560632       7.40516437       0.38979065      -1.56594766       0.83068507       0.74611017       0.51483926       0.21181327       0.10503985      -8.71611378
Si      10.68503119       8.21320421       3.55312972       0.55329157      -0.95833894       0.23582391       0.06407612       0.57942503      -0.59611317      -8.75149621
Si      12.42176593       9.51940114       6.71395382      -0.43879351       0.80650252       0.20748630       0.96986471      -0.25538709      -0.51694109      -8.73799155
Si       8.65318552       0.48555908       0.38923548       0.67807273      -1.00743236       0.59579003      -0.00111962       0.38385949       0.07934845      -8.75113977
Si      10.62842037       1.68467719       3.44504630      -0.45279690      -0.30276325      -1.02697639      -0.03122243      -0.06440100       0.33034686      -8.78280959
Si      12.47220616       2.73931337       6.62289016       0.52816512       0.54759324      -0.16338815       0.49341237      -0.26537603       0.10748353      -8.76283653
Si      10.56014991       3.90787758       0.36651496       0.39146178      -0.64528857      -1.02070400      -0.18231098      -0.13757490      -0.28706114      -8.73030797
Si      12.59089040       4.89019144       3.50056610       0.98177253       0.38303611       0.39562535      -0.96525374       0.65303291      -0.11244770      -8.74234840
Si      14.45882976       6.10951157       6.73794025       0.31838869       0.60988557       0.94849739      -0.38337015       0.00044661      -0.51005711      -8.67948298
Si      12.50518046       7.26907716       0.31228953       0.71512823      -0.28473396      -0.88488623      -0.45923138      -0.47354578       0.13429234      -8.73724458
Si      14.51449574       8.32728700       3.48751962       0.49391960       1.71125002       0.26099816      -0.27363827      -0.41767066       0.42077765      -8.71946101
Si      16.29418408       9.42846390       6.69113873      -1.18905504      -1.14105275      -0.11011970       0.29584638       0.74550240      -0.30372868      -8.78327972
53
Lattice="11.5478352 0.0 0.0 5.773917198490155 10.000722372470358 0.0 5.773916394327279 3.333571176804646 9.428767828939895" Properties=species:S:1:pos:R:3:momenta:R:3:forces:R:3:energies:R:1 spacegroup="_JSON {\"number\": 1, \"setting\": 1}" unit_cell=conventional occupancy="_JSON {\"0\": {\"Si\": 1.0}, \"1\": {\"Si\": 1.0}, \"2\": {\"Si\": 1.0}, \"3\": {\"Si\": 1.0}, \"4\": {\"Si\": 1.0}, \"5\": {\"Si\": 1.0}, \"6\": {\"Si\": 1.0}, \"7\": {\"Si\": 1.0}, \"8\": {\"Si\": 1.0}, \"9\": {\"Si\": 1.0}, \"10\": {\"Si\": 1.0}, \"11\": {\"Si\": 1.0}, \"12\": {\"Si\": 1.0}, \"13\": {\"Si\": 1.0}, \"14\": {\"Si\": 1.0}, \"15\": {\"Si\": 1.0}, \"16\": {\"Si\": 1.0}, \"17\": {\"Si\": 1.0}, \"18\": {\"Si\": 1.0}, \"19\": {\"Si\": 1.0}, \"20\": {\"Si\": 1.0}, \"21\": {\"Si\": 1.0}, \"22\": {\"Si\": 1.0}, \"23\": {\"Si\": 1.0}, \"24\": {\"Si\": 1.0}, \"25\": {\"Si\": 1.0}, \"26\": {\"Si\": 1.0}, \"27\": {\"Si\": 1.0}, \"28\": {\"Si\": 1.0}, \"29\": {\"Si\": 1.0}, \"30\": {\"Si\": 1.0}, \"31\": {\"Si\": 1.0}, \"32\": {\"Si\": 1.0}, \"33\": {\"Si\": 1.0}, \"34\": {\"Si\": 1.0}, \"35\": {\"Si\": 1.0}, \"36\": {\"Si\": 1.0}, \"37\": {\"Si\": 1.0}, \"38\": {\"Si\": 1.0}, \"39\": {\"Si\": 1.0}, \"40\": {\"Si\": 1.0}, \"41\": {\"Si\": 1.0}, \"42\": {\"Si\": 1.0}, \"43\": {\"Si\": 1.0}, \"44\": {\"Si\": 1.0}, \"45\": {\"Si\": 1.0}, \"46\": {\"Si\": 1.0}, \"47\": {\"Si\": 1.0}, \"48\": {\"Si\": 1.0}, \"49\": {\"Si\": 1.0}, \"50\": {\"Si\": 1.0}, \"51\": {\"Si\": 1.0}, \"52\": {\"Si\": 1.0}}" energy=-458.87594248240407 stress="0.009672051415930414 -0.0015791125544760217 -0.001285428771216708 -0.0015791125544760217 0.007376987802593957 0.0025386243444510486 -0.001285428771216708 0.0025386243444510486 0.006864878235970005" free_energy=-458.87594248240407 pbc="T T T"
Si       6.66659246       3.90043896       2.71685958      -0.30694672      -0.04491191      -1.07169423       0.18285658       0.15722101      -0.62463214      -8.75828160
Si       8.59386340       4.98346365       5.87548410      -0.11160147      -0.31896606      -0.27175507       0.42251113       0.35602754      -0.15848451      -8.70682908
Si      10.61822748       6.08442357       8.95709321       1.20895656      -0.11282856       0.69591509      -0.13029524       0.68945993       0.35976879      -8.76105610
Si       8.71216301       7.22073821       2.78544203      -0.88071716      -0.52679585       0.62436626      -0.68751132       0.01231258       0.13895527      -8.70486039
Si      10.63078978       8.34345470       5.90830927       0.11436444      -0.48170336       1.02629141      -0.36702490      -0.29463170      -0.25535207      -8.74799824
Si      12.53689968       9.52509828       8.99386251      -0.08932963      -1.00621668      -0.28494789       0.07048294      -0.16515010       0.51703281      -8.74429248
Si      10.62289362      10.46182795       2.76785295      -0.39191767       0.17273153       0.16821749      -0.39237286       0.42358641       0.36698545      -8.67062459
Si      12.51623445      11.65673908       5.79528232       0.34356416       0.16085357      -1.16063936       0.02759445       0.92775319       0.18658768      -8.70130549
Si      14.20352993      13.06836499       9.12870293       0.35226255       0.19337059       0.32468138      -0.26283298      -0.35419922      -0.30828978      -7.94348168
Si      10.60087197       3.87739805       2.66359785       0.58674851      -0.06147175      -0.03286578      -0.02862364       0.41945141       0.39401887      -8.68128555
Si      12.58502638       4.94300013       5.85923188       0.89436609       1.11656471       0.58433753      -0.38299848       0.74981193       0.26774645      -8.72950233
Si      14.42626846       6.01381682       9.13492240       1.33299272      -0.54569874       0.12671497      -0.10127880       0.52528850      -0.54797809      -8.70033115
Si      12.62609577       7.14413017       2.69305150       0.73897956       0.58939510       0.42552043       0.13864919       0.41981432      -0.18147990      -8.71728940
Si      14.35587031       8.39819944       5.92207127      -1.27218792      -0.74613641       0.13619883      -0.26186432      -0.83455791      -0.41467982      -8.70125629
Si      16.27032484       9.49111488       9.00036998       0.46274517      -0.04042765       0.55521511      -0.13869676       0.34862938       0.54419963      -8.63093300
Si      14.52763370      10.56839076       2.74886210      -0.42471438       0.51196941      -0.24404138      -1.04808425      -0.00570025      -0.38719083      -8.73375571
Si      16.26621234      11.67099598       5.84747539      -0.54125196      -0.09789930       0.43995840       0.97431974      -0.28309774      -0.19844047      -8.64554878
Si      18.20466543      12.80363131       8.97953511      -0.88812768      -0.19868116       0.43451735      -0.02555912       0.14216122       0.33487211      -8.66462043
Si      14.46219899       3.82517711       2.76395561       0.25579973      -0.30287481      -1.07945224       0.20703990      -0.44251073      -0.61099876      -8.74012637
Si      16.40366589       5.04251553       5.91103520      -0.63265601       0.69723490      -0.06348803      -1.16999794      -0.43532680      -0.16849876      -8.71888138
Si      18.21986074       6.05533778       9.06598770       0.08703796       0.53448415      -0.34403921       0.89850162      -0.54620955       0.04868704      -7.92190494
Si      16.42184046       7.14197421       2.69282884      -0.11134254       0.65568194      -0.19605626       0.03412279       0.75733842       1.06455464      -8.68804853
Si      18.21415812       8.27438176       6.04115836       0.08753544      -0.20145767       0.24169638       0.58136829       0.65988356      -0.10909967      -8.66177089
Si      20.24733607       9.46343049       9.06319268       0.85144447      -0.02451664      -0.54915911       0.36714446      -0.15453155      -0.02672416      -8.70866582
Si      18.28238905      10.42749161       2.81028766      -0.12530579      -1.20031058       0.37658210       0.37289408       0.63542516      -0.28541159      -7.88649090
Si      20.31044367      11.66637528       5.96516283      -0.14133607       0.25076690       0.68529370      -0.70113415       0.00663795       0.02579278      -8.72188301
Si      22.16950234      12.87383337       9.09216167       0.12315556      -0.24572540       0.10426217       1.06790958      -0.34069610      -0.33057245      -7.92205291
Si       2.86734975       1.63198959       3.63043209      -0.37020300      -0.32176410       1.06534730       0.42380723      -0.68009332      -0.68954625      -8.71382923
Si       4.88534720       2.82793537       6.70405613       0.67872307       1.01516394      -0.42365848      -0.03528142      -0.06001711       0.19528420      -8.72929482
Si       2.92284277       3.84514671       0.34769716      -0.44857330       1.03521043      -0.83050054      -0.49016681       0.08618925       0.33215708      -8.69537025
Si       4.78004960       4.96549540       3.56908376      -0.52086705       0.04772066      -0.30012362       0.00900798       0.20811399      -0.12051428      -8.76092954
Si       6.67222341       6.06116043       6.73582139       0.23388476      -1.66470020      -0.52668953       1.12959550       0.28925981       0.27925808      -8.76695468
Si       4.90541718       7.28385714       0.38721918      -0.13796592      -0.84428820      -0.63637494      -0.76044754       0.05782629      -0.28269753      -8.74823506
Si       6.73914983       8.29558942       3.70961063      -0.17344459      -0.23928637      -0.14925591       0.19396950      -0.55957918      -0.80472136      -8.72542319
Si       8.71776735       9.43551502       6.72654458      -1.12521366       0.28089349       0.04968673      -0.66258493      -0.22088352      -0.25217810      -8.71454436
Si       4.71086015       0.64751942       0.44883563      -0.92540333       0.67435612      -0.13971760       0.38194212      -0.98267481      -0.47309885      -8.71711750
Si       6.76024025       1.70001927       3.41987020       1.73486428       1.19054406      -0.06087339       0.03894601      -0.86696513       0.50557837      -8.73060834
Si       8.63285562       2.79892975       6.68091109       0.02599377      -0.05687677       0.17526042      -0.39656881       0.02049536       0.66649644      -8.70268624
Si       6.72870764       3.93963938       0.30462054      -0.11599558      -0.47583044       0.90961674       0.10863198      -0.21613840       0.50056599      -8.69754731
Si       8.59255607       4.95995301       3.50367399      -0.88881802      -0.39696218      -0.42311593       0.79744025       0.18904278      -0.02754143      -8.73226949
Si      10.59163596       6.11610884       6.63156150      -0.17586821      -0.32664348      -0.32678251       0.10633128      -0.70100448      -0.34571833      -8.70919346
Si       8.53273255       7.44999694       0.42939787      -0.33280408       0.71885127       0.69619669       0.97398344      -0.41547038      -0.16317352      -8.66644396
Si      10.71384483       8.18952722       3.54697182       0.44971409       0.10531515      -0.35307978      -0.30459891       0.76496632      -0.13716664      -8.74899477
Si      12.43587120       9.54712125       6.70278439       0.89951536       0.17289791      -0.63402016       0.64669589      -0.54289076      -0.50437156      -8.75397633
Si       8.67628536       0.44780314       0.42217426       0.00422507      -0.43009415       0.59381967      -0.75369185       0.37996837      -0.19137963      -8.74029958
Si      10.61312260       1.66957529       3.41326131       0.02699144      -0.22664498      -0.04015232       0.56237803       0.11371703       0.88311162      -8.75577294
Si      12.51193750       2.75228200       6.61988221       0.82526424      -0.08597752       0.07996593      -0.14465118      -0.38383767       0.22803040      -8.74688172
Si      10.57074897       3.87603397       0.31088193      -0.00722647      -0.42182762      -0.89876817      -0.24428378       0.43202974       0.49561770      -8.76961436
Si      12.60073593       4.93308569       3.51555152      -0.56245031       1.14656686       0.15085852      -0.78841178       0.23169383      -0.20734753      -8.76026419
Si      14.46179126       6.13871259       6.76659802      -0.17609038       0.45151329       0.14691621      -0.26272611      -0.20166752      -0.48871117      -8.69331687
Si      12.52107318       7.23763549       0.27897595      -0.11943711      -0.85150791      -0.23958238      -0.48823108      -0.21706436       0.69568269      -8.73454642
Si      14.52917621       8.38949361       3.51645475       0.05121489       0.49532807       0.79569492      -0.32398051      -1.04472090       0.22652397      -8.68132502
Si      16.25085709       9.40446020       6.67721723      -0.37254785       0.28161239      -0.33229786       0.63577552       0.94551392       0.03849112      -8.76742582
53
Lattice="11.5478352 0.0 0.0 5.773917198490155 10.000722372470358 0.0 5.773916394327279 3.333571176804646 9.428767828939895" Properties=species:S:1:pos:R:3:momenta:R:3:forces:R:3:energies:R:1 spacegroup="_JSON {\"number\": 1, \"setting\": 1}" unit_cell=conventional occupancy="_JSON {\"0\": {\"Si\": 1.0}, \"1\": {\"Si\": 1.0}, \"2\": {\"Si\": 1.0}, \"3\": {\"Si\": 1.0}, \"4\": {\"Si\": 1.0}, \"5\": {\"Si\": 1.0}, \"6\": {\"Si\": 1.0}, \"7\": {\"Si\": 1.0}, \"8\": {\"Si\": 1.0}, \"9\": {\"Si\": 1.0}, \"10\": {\"Si\": 1.0}, \"11\": {\"Si\": 1.0}, \"12\": {\"Si\": 1.0}, \"13\": {\"Si\": 1.0}, \"14\": {\"Si\": 1.0}, \"15\": {\"Si\": 1.0}, \"16\": {\"Si\": 1.0}, \"17\": {\"Si\": 1.0}, \"18\": {\"Si\": 1.0}, \"19\": {\"Si\": 1.0}, \"20\": {\"Si\": 1.0}, \"21\": {\"Si\": 1.0}, \"22\": {\"Si\": 1.0}, \"23\": {\"Si\": 1.0}, \"24\": {\"Si\": 1.0}, \"25\": {\"Si\": 1.0}, \"26\": {\"Si\": 1.0}, \"27\": {\"Si\": 1.0}, \"28\": {\"Si\": 1.0}, \"29\": {\"Si\": 1.0}, \"30\": {\"Si\": 1.0}, \"31\": {\"Si\": 1.0}, \"32\": {\"Si\": 1.0}, \"33\": {\"Si\": 1.0}, \"34\": {\"Si\": 1.0}, \"35\": {\"Si\": 1.0}, \"36\": {\"Si\": 1.0}, \"37\": {\"Si\": 1.0}, \"38\": {\"Si\": 1.0}, \"39\": {\"Si\": 1.0}, \"40\": {\"Si\": 1.0}, \"41\": {\"Si\": 1.0}, \"42\": {\"Si\": 1.0}, \"43\": {\"Si\": 1.0}, \"44\": {\"Si\": 1.0}, \"45\": {\"Si\": 1.0}, \"46\": {\"Si\": 1.0}, \"47\": {\"Si\": 1.0}, \"48\": {\"Si\": 1.0}, \"49\": {\"Si\": 1.0}, \"50\": {\"Si\": 1.0}, \"51\": {\"Si\": 1.0}, \"52\": {\"Si\": 1.0}}" energy=-459.0637203360343 stress="0.010056925477147708 -0.0019451624873476387 -0.0010679586138262313 -0.0019451624873476387 0.008350514696549736 0.001708237641008922 -0.0010679586138262313 0.001708237641008922 0.008653076932161115" free_energy=-459.0637203360343 pbc="T T T"
Si       6.65580173       3.90679997       2.65024061      -0.10954355       0.28644820      -1.12048143       0.15952018       0.15714901       0.72981495      -8.76130764
Si       8.60667744       4.97498418       5.85309675       0.63436572      -0.13589020      -0.60171913       0.53886418      -0.15178199      -0.22682910      -8.72686146
Si      10.66396144       6.10558980       8.99786653       0.30422512       0.84159193       0.68324414      -1.01213073       0.37479688      -0.32214281      -8.71556987
Si       8.65048828       7.19750708       2.82028142      -1.20523017      -0.29420996       0.60944492       0.35844515       0.25738135      -0.23184818      -8.71670397
Si      10.62073875       8.31409361       5.94525691      -0.50755340      -0.50707809       0.26877953      -0.39642326       0.21293112      -0.69270158      -8.70686069
Si      12.53936666       9.47284127       8.99755268       0.24637733      -0.85179259       0.36733149       0.31278408       0.35942097       0.28420586      -8.71890863
Si      10.59517623      10.48967192       2.78987467      -0.50829571       0.88364885       0.60404204       0.23095421       0.39364875       0.10032209      -8.66087031
Si      12.53545853      11.69905135       5.75008770       0.38040798       1.33625051      -0.38970728      -0.00967313       0.46084711       0.84491842      -8.71437631
Si      14.20684681      13.06459663       9.13270063      -0.30452865      -0.34171552      -0.16458182      -0.55867364      -0.36326947      -0.26565506      -7.99444619
Si      10.62546605       3.88924298       2.67387067       0.25901583       0.45610664       0.36424063      -0.38053486       0.18887412       0.15232881      -8.68891907
Si      12.61092221       5.01667906       5.89451022      -0.02031577       1.37335840       0.62153706      -0.80691022      -0.49473429      -0.27580755      -8.73566106
Si      14.48074713       6.00418310       9.12177534       0.54862464       0.13542986      -0.58251929      -0.84530146       0.35522713      -0.35360792      -8.67574363
Si      12.66510228       7.18937966       2.70411888       0.60166494       1.06456192      -0.05234174      -0.43557326       0.13114955      -0.36330694      -8.74366117
Si      14.29637023       8.33548680       5.91502001      -0.63599496      -1.43680621      -0.35805911       1.11600094      -0.00405060      -0.22219032      -8.72950556
Si      16.28326432       9.50091173       9.04297341      -0.06569719       0.36907031       0.90845226      -0.50133046       0.16820462      -0.08793785      -8.65754365
Si      14.47756679      10.59065929       2.72800312      -1.15429715       0.22741189      -0.39573180       0.23628296      -0.42807654       0.20698803      -8.75177229
Si      16.27803421      11.65973680       5.86112744       0.95809165      -0.19911107       0.08223666       0.82606767       0.22981496      -0.18804848      -8.67761953
Si      18.16021112      12.79599898       9.01292936      -0.73548529      -0.17092787       0.77342848       0.25599738      -0.16005270       0.07422827      -8.65953830
Si      14.47119682       3.79701863       2.69383345      -0.12347939      -0.65992244      -1.36295982      -0.60479385      -0.00458458       0.29762254      -8.69879469
Si      16.33230504       5.06280015       5.89841212      -1.80876541       0.11803900      -0.42641189      -0.08126020      -0.28604229      -0.21062439      -8.73147918
Si      18.25781701       6.06141290       9.04777839       1.26353322      -0.29670109      -0.35876906       0.50801900      -0.51512867       0.01227679      -7.93133587
Si      16.41470881       7.19853997       2.71820601      -0.22522554       1.31944138       0.97870334      -0.21835331       0.03312241       0.33127393      -8.69901621
Si      18.23454949       8.28263256       6.04771424       0.53102644       0.37251042      -0.04596739      -0.05191890       0.08873701      -0.31389174      -8.66088730
Si      20.29419061       9.45970695       9.03468103       0.65853143      -0.05988599      -0.52117962      -0.70469063       0.06589182       0.03874857      -8.73148023
Si      18.29013006      10.39470386       2.81825627       0.40573504       0.00060415      -0.08580820       0.30545331       0.81349582      -0.32815782      -7.87677635
Si      20.28399603      11.67972570       6.00098271      -0.68842148       0.23840489       0.62393122      -0.00077124      -0.06978593      -0.19669440      -8.72412131
Si      22.21337258      12.84865442       9.08573979       1.40730213      -0.65220854      -0.30003262       0.50486505      -0.10016383      -0.14165740      -7.91689773
Si       2.86314884       1.59334735       3.65567372       0.17375824      -1.01410012      -0.13090578       0.27035030      -0.12676330      -0.78027839      -8.73220893
Si       4.91457566       2.87213998       6.69001144       0.32241705       0.53854195      -0.10950415      -0.46943520      -0.56385054       0.20268058      -8.71849943
Si       2.89007104       3.89455034       0.31588746      -0.60694816       0.69839879      -0.40406887       0.26986700      -0.49464334       0.24342230      -8.72205506
Si       4.75505304       4.97684451       3.54653115      -0.40726152       0.38332582      -0.60310981       0.10190415       0.19705814      -0.28061725      -8.73503067
Si       6.72104010       5.99575782       6.71927055       1.36649439      -0.66152372      -0.14721720       0.12046336       0.94343309       0.11506274      -8.75905020
Si       4.87509211       7.24570738       0.34809299      -0.84070238      -0.53750394      -0.70530497      -0.05510739       0.34374496       0.29735668      -8.76458232
Si       6.73671990       8.26179060       3.67913395       0.05754886      -0.95241074      -0.81908177       0.09753425      -0.16298431      -0.03979370      -8.77286361
Si       8.64462269       9.43997028       6.71756865      -1.40287787      -0.11408729      -0.40028302       0.36638393      -0.22478522      -0.27681718      -8.74057916
Si       4.68087175       0.64461095       0.43101269      -0.16860219      -0.70809281      -0.39301360       0.56013662      -0.66449143       0.10404646      -8.74714705
Si       6.83598879       1.72636778       3.42997427       0.82139304      -0.12725608       0.32617538      -1.25171272      -0.63839011       0.03571665      -8.71868557
Si       8.62052725       2.79713846       6.71412085      -0.40026385      -0.00484855       1.00057170      -0.02026127       0.04503912       0.30066333      -8.69695793
Si       6.73675454       3.90707530       0.35951196       0.57901108      -0.71733178       0.89633892       0.70137252      -0.02880673      -0.62245441      -8.73741111
Si       8.57988585       4.94494233       3.48067872       0.41820143      -0.20617084      -0.44520976       0.83160838       0.06943856       0.00785595      -8.72327867
Si      10.58895049       6.07469509       6.61112154       0.10516841      -1.12870301      -0.25357767       0.21996824      -0.20198748       0.42568921      -8.72526085
Si       8.54900621       7.46478347       0.45851483       0.84203143      -0.26291457       0.39694108       0.52053107      -0.81939255      -0.22878495      -8.64766493
Si      10.71953606       8.22160590       3.52929474      -0.33144263       1.03339506      -0.21626429      -0.67558147       0.42136064       0.27310598      -8.70611232
Si      12.49532120       9.53783254       6.65615084       1.08454844      -0.43428607      -0.99078358      -0.45476111      -0.17823828       0.09679172      -8.75911706
Si       8.65072363       0.43726964       0.43794378      -0.83584229      -0.02552549      -0.15468792      -0.19517579       0.16805953      -0.79837233      -8.73840204
Si      10.63346139       1.66079802       3.44314888       0.63234829      -0.13528977       1.08004590       0.11578312       0.01645122       0.47845515      -8.75767553
Si      12.54194455       2.74184506       6.63462639       0.18073367      -0.11438742       0.51298498      -0.67330282       0.37655025       0.34023688      -8.72532996
Si      10.56779528       3.87342109       0.28935900       0.05699552       0.32967120       0.16347856       0.37301515       0.44648486       0.81501691      -8.76533193
Si      12.55536288       4.99433702       3.51611595      -0.87686799       1.04863612      -0.10252129       0.34669433      -0.31599719      -0.10146388      -8.74249231
Si      14.44472795       6.15420718       6.76092866      -0.42685971       0.13603358      -0.23890513      -0.07299550      -0.21630693      -0.00151285      -8.74775490
Si      12.50470059       7.19043762       0.29521927      -0.31258838      -0.81426226       0.85432961       0.25333317       0.30584586       0.65891202      -8.71617454
Si      14.51985000       8.38069810       3.56173197      -0.38330611      -0.65841520       0.81014415      -0.22279634      -0.36388236      -0.24605914      -8.71131179
Si      16.25053935       9.44554706       6.66535142       0.24684543       1.03247832      -0.04567303       0.19726904      -0.04596816       0.32951480      -8.74608423
53
Lattice="11.5478352 0.0 0.0 5.773917198490155 10.000722372470358 0.0 5.773916394327279 3.333571176804646 9.428767828939895" Properties=species:S:1:pos:R:3:momenta:R:3:forces:R:3:energies:R:1 spacegroup="_JSON {\"number\": 1, \"setting\": 1}" unit_cell=conventional occupancy="_JSON {\"0\": {\"Si\": 1.0}, \"1\": {\"Si\": 1.0}, \"2\": {\"Si\": 1.0}, \"3\": {\"Si\": 1.0}, \"4\": {\"Si\": 1.0}, \"5\": {\"Si\": 1.0}, \"6\": {\"Si\": 1.0}, \"7\": {\"Si\": 1.0}, \"8\": {\"Si\": 1.0}, \"9\": {\"Si\": 1.0}, \"10\": {\"Si\": 1.0}, \"11\": {\"Si\": 1.0}, \"12\": {\"Si\": 1.0}, \"13\": {\"Si\": 1.0}, \"14\": {\"Si\": 1.0}, \"15\": {\"Si\": 1.0}, \"16\": {\"Si\": 1.0}, \"17\": {\"Si\": 1.0}, \"18\": {\"Si\": 1.0}, \"19\": {\"Si\": 1.0}, \"20\": {\"Si\": 1.0}, \"21\": {\"Si\": 1.0}, \"22\": {\"Si\": 1.0}, \"23\": {\"Si\": 1.0}, \"24\": {\"Si\": 1.0}, \"25\": {\"Si\": 1.0}, \"26\": {\"Si\": 1.0}, \"27\": {\"Si\": 1.0}, \"28\": {\"Si\": 1.0}, \"29\": {\"Si\": 1.0}, \"30\": {\"Si\": 1.0}, \"31\": {\"Si\": 1.0}, \"32\": {\"Si\": 1.0}, \"33\": {\"Si\": 1.0}, \"34\": {\"Si\": 1.0}, \"35\": {\"Si\": 1.0}, \"36\": {\"Si\": 1.0}, \"37\": {\"Si\": 1.0}, \"38\": {\"Si\": 1.0}, \"39\": {\"Si\": 1.0}, \"40\": {\"Si\": 1.0}, \"41\": {\"Si\": 1.0}, \"42\": {\"Si\": 1.0}, \"43\": {\"Si\": 1.0}, \"44\": {\"Si\": 1.0}, \"45\": {\"Si\": 1.0}, \"46\": {\"Si\": 1.0}, \"47\": {\"Si\": 1.0}, \"48\": {\"Si\": 1.0}, \"49\": {\"Si\": 1.0}, \"50\": {\"Si\": 1.0}, \"51\": {\"Si\": 1.0}, \"52\": {\"Si\": 1.0}}" energy=-459.00457262135694 stress="0.009126294215270375 -0.0013100509953296916 -0.0002516609763510545 -0.0013100509953296916 0.011170610830510037 -0.000531522384891207 -0.0002516609763510545 -0.000531522384891207 0.007950676402501796" free_energy=-459.00457262135694 pbc="T T T"
Si       6.65876591       3.92367998       2.63328685       0.27445357       0.27524554       0.60716565       0.35184513      -0.16183290       1.20454284      -8.73097174
Si       8.65828633       4.95698144       5.81540069       1.23401434      -0.59601876      -0.74603459       0.13834661      -0.31804045       0.12741313      -8.72919951
Si      10.64061323       6.15307304       9.01932587      -1.09569643       0.74810003       0.13204953      -0.59947794      -0.48698220      -0.33245396      -8.68801684
Si       8.61374111       7.19075790       2.83786238       0.01024988      -0.00288321      -0.03095852       1.13338355       0.10855248      -0.57395887      -8.70909187
Si      10.58211387       8.29684987       5.93334564      -0.87297152      -0.15213990      -0.66908954      -0.02763006       0.20894210      -0.46542856      -8.69185966
Si      12.56338199       9.44434862       9.02249430       0.62105775      -0.21227677       0.47632618       0.11717529       0.43851383      -0.14047792      -8.68891004
Si      10.58306166      10.54524390       2.81811354       0.12890750       1.08862575       0.31911944       0.53228134      -0.18117628      -0.49467173      -8.70636385
Si      12.55347272      11.77515227       5.76439574       0.26179551       1.31329539       0.91194623      -0.18523489      -0.52922771       0.73431156      -8.71851422
Si      14.17054236      13.03292284       9.11965551      -1.01411846      -0.84852605      -0.19190473      -0.29372173      -0.28568666       0.28213662      -8.04677491
Si      10.62482063       3.91427325       2.69738882      -0.22891081       0.36661276       0.50837652      -0.15410471      -0.32629192       0.05131492      -8.73203908
Si      12.58004574       5.05800790       5.91073783      -1.06068733       0.03724152      -0.08424765      -0.41301564      -1.12003865      -0.58040469      -8.72256598
Si      14.47970703       6.02225279       9.08266044      -0.44761616       0.50095423      -0.79032224      -0.28236086       0.13309415       0.11191712      -8.71475650
Si      12.67059449       7.24487951       2.69197278      -0.55408485       0.94046751      -0.27099580      -1.04402610      -0.29795055       0.19291591      -8.75090454
Si      14.31269308       8.27174780       5.89196532       1.27389118      -0.75090161      -0.41213637       1.15470286       0.93332895       0.20836580      -8.72515732
Si      16.26340445       9.52346866       9.08210647      -0.56195867       0.41383304       0.50253605       0.01801709      -0.14338413      -0.40452657      -8.71562298
Si      14.44026746      10.58228353       2.71875017      -0.08708414      -0.56721857       0.06886859       0.91968892      -0.48335002       0.30957253      -8.71897487
Si      16.34935334      11.66436252       5.86350082       1.51415106       0.44337600       0.12855478      -0.15082522       0.47516535       0.27887934      -8.70738896
Si      18.13441176      12.77611845       9.05283989      -0.18881505      -0.65212254       0.67784368       0.48024170      -0.39894316      -0.19910956      -8.70309928
Si      14.43996670       3.76726664       2.64304354      -1.03408089      -0.37756002      -0.41906067      -0.46669336       0.37483664       0.88754866      -8.64497854
Si      16.25339005       5.05979348       5.87014508      -0.86894047      -0.21661840      -0.60356916       1.19924350      -0.20711381      -0.01737721      -8.68622322
Si      18.33363868       6.02851235       9.03146627       1.41649839      -0.90183779      -0.22125597      -0.32038657      -0.28554275       0.16776866      -7.94408262
Si      16.39092149       7.25909202       2.76850102      -0.71832044       0.80598478       0.67889317      -0.34113177      -0.67363647      -0.68123723      -8.69540761
Si      18.25177040       8.29927124       6.03058143      -0.01474519       0.16403400      -0.63574778      -0.58076220      -0.28522466      -0.40982096      -8.66342670
Si      20.29182540       9.45901600       9.00800939      -0.85282524       0.02639943      -0.49290719      -1.07590421       0.04554838       0.05835497      -8.72407883
Si      18.32019334      10.41859045       2.80140716       0.65776069       0.73517604      -0.54654948      -0.02615011       0.12848679      -0.28246290      -7.88615709
Si      20.25349281      11.68787673       6.02131949      -0.41169049       0.05157780       0.05992596       0.24089238      -0.14353601      -0.54253029      -8.68926509
Si      22.29692926      12.81593908       9.06824441       1.58485565      -0.48908793      -0.30229496      -0.26213702       0.31371778       0.11276081      -7.91464245
Si       2.87843248       1.54612155       3.62590831       0.31582900      -0.56171477      -0.83111860      -0.09329118       0.74415854      -0.09944118      -8.75259789
Si       4.90993616       2.87724134       6.69071258      -0.53698577      -0.33754682       0.10759895      -0.60095196      -0.52917939       0.08782837      -8.74328101
Si       2.87377198       3.91099003       0.30247819       0.04050665      -0.05832002      -0.12504216       0.47174543      -0.43482943       0.17335449      -8.76338935
Si       4.73540718       5.00252611       3.50331684      -0.38841310       0.54115948      -1.02266187      -0.07462899      -0.02214795      -0.18428897      -8.72288874
Si       6.78230865       5.99684010       6.70949808       0.73939693       0.64424593      -0.34750397      -0.77554220       0.68982315      -0.35690700      -8.71397037
Si       4.83966380       7.23152871       0.32998825      -0.33423538      -0.01145413       0.12606806       0.61461153       0.29792228       0.71474767      -8.73633728
Si       6.74110255       8.21941044       3.64284215       0.05920727      -0.39060685      -0.44027971      -0.09672540       0.87498791       0.43352366      -8.76850823
Si       8.59592217       9.42959397       6.68888097      -0.28563290      -0.19162738      -0.62543097       0.99722839       0.11862678      -0.01308664      -8.75427043
Si       4.68894670       0.59392342       0.41816261       0.34211846      -0.98041706      -0.04529453       0.03105940       0.28925596       0.30454873      -8.72312204
Si       6.82419438       1.70675780       3.44657856      -1.27583514      -0.41923829       0.30613967      -1.21716939       0.14719610       0.02994603      -8.74236742
Si       8.60840875       2.79864440       6.76899053       0.12037627       0.06066375       0.89766705       0.68023838       0.03561511      -0.45322223      -8.68340156
Si       6.79136137       3.87184765       0.37207401       1.34507141      -0.55128779      -0.50943529       0.06433636       0.26894239      -0.93985218      -8.76970381
Si       8.62747643       4.93610673       3.45827270       1.23402221      -0.12322879      -0.37957077       0.18138601       0.09914068       0.12706019      -8.74560284
Si      10.59985612       6.01968841       6.61919604       0.21381585      -0.72258917       0.61048658      -0.15837662       0.74959281       0.60448646      -8.73795809
Si       8.60424179       7.42160182       0.47113585       1.06288138      -1.27852795       0.09608247      -0.27707743      -0.39122390      -0.17813531      -8.68034956
Si      10.67686371       8.28668647       3.52946807      -1.23694625       1.33040547       0.21261197      -0.43294006      -0.04741886       0.22586061      -8.67682441
Si      12.52604901       9.51402432       6.61443157      -0.00873113      -0.38381003      -0.49386986      -0.81441373       0.17264971       0.50723688      -8.71011711
Si       8.61097783       0.44091349       0.39826945      -0.45264389       0.14975594      -1.28931197       0.69150040       0.10339252      -0.51302557      -8.70027280
Si      10.66365543       1.65466627       3.50822828       0.39608818      -0.07915973       1.18331365      -0.36208882       0.08492193      -0.37664908      -8.74417214
Si      12.52568441       2.75645611       6.67473925      -0.72834308       0.72941576       0.98812920      -0.37229163       0.58991993       0.21884627      -8.73287018
Si      10.58962132       3.90072373       0.32538113       0.79893247       0.53767627       1.08196351       0.46084455      -0.22965242       0.30020108      -8.72991657
Si      12.53005471       5.03572078       3.50869364      -0.00624124       0.50757671      -0.15227747       0.65652175      -0.40243770       0.00973965      -8.70271898
Si      14.42045961       6.15238989       6.75260896      -0.48733345      -0.23173018      -0.04170531      -0.02342633      -0.31135342       0.12977733      -8.76642256
Si      12.50288910       7.16395001       0.35851734       0.26859705      -0.13519103       1.36786662       0.34157421       0.53171511      -0.10241267      -8.71056613
Si      14.49383918       8.34383768       3.58989316      -0.55272094      -0.53606298       0.17685304      -0.00739529       0.45942117      -0.57710146      -8.74223654
Si      16.26820769       9.48637672       6.67707864       0.39212974       0.34788141       0.49419058       0.05301662      -0.72126712       0.32362247      -8.70223227
53
Lattice="11.5478352 0.0 0.0 5.773917198490155 10.000722372470358 0.0 5.773916394327279 3.333571176804646 9.428767828939895" Properties=species:S:1:pos:R:3:momenta:R:3:forces:R:3:energies:R:1 spacegroup="_JSON {\"number\": 1, \"setting\": 1}" unit_cell=conventional occupancy="_JSON {\"0\": {\"Si\": 1.0}, \"1\": {\"Si\": 1.0}, \"2\": {\"Si\": 1.0}, \"3\": {\"Si\": 1.0}, \"4\": {\"Si\": 1.0}, \"5\": {\"Si\": 1.0}, \"6\": {\"Si\": 1.0}, \"7\": {\"Si\": 1.0}, \"8\": {\"Si\": 1.0}, \"9\": {\"Si\": 1.0}, \"10\": {\"Si\": 1.0}, \"11\": {\"Si\": 1.0}, \"12\": {\"Si\": 1.0}, \"13\": {\"Si\": 1.0}, \"14\": {\"Si\": 1.0}, \"15\": {\"Si\": 1.0}, \"16\": {\"Si\": 1.0}, \"17\": {\"Si\": 1.0}, \"18\": {\"Si\": 1.0}, \"19\": {\"Si\": 1.0}, \"20\": {\"Si\": 1.0}, \"21\": {\"Si\": 1.0}, \"22\": {\"Si\": 1.0}, \"23\": {\"Si\": 1.0}, \"24\": {\"Si\": 1.0}, \"25\": {\"Si\": 1.0}, \"26\": {\"Si\": 1.0}, \"27\": {\"Si\": 1.0}, \"28\": {\"Si\": 1.0}, \"29\": {\"Si\": 1.0}, \"30\": {\"Si\": 1.0}, \"31\": {\"Si\": 1.0}, \"32\": {\"Si\": 1.0}, \"33\": {\"Si\": 1.0}, \"34\": {\"Si\": 1.0}, \"35\": {\"Si\": 1.0}, \"36\": {\"Si\": 1.0}, \"37\": {\"Si\": 1.0}, \"38\": {\"Si\": 1.0}, \"39\": {\"Si\": 1.0}, \"40\": {\"Si\": 1.0}, \"41\": {\"Si\": 1.0}, \"42\": {\"Si\": 1.0}, \"43\": {\"Si\": 1.0}, \"44\": {\"Si\": 1.0}, \"45\": {\"Si\": 1.0}, \"46\": {\"Si\": 1.0}, \"47\": {\"Si\": 1.0}, \"48\": {\"Si\": 1.0}, \"49\": {\"Si\": 1.0}, \"50\": {\"Si\": 1.0}, \"51\": {\"Si\": 1.0}, \"52\": {\"Si\": 1.0}}" energy=-459.22484342139404 stress="0.010969520143104745 -0.0007757301520036584 5.904662770277824e-05 -0.0007757301520036584 0.011887179440195378 -0.0004872503653609047 5.904662770277824e-05 -0.0004872503653609047 0.00700000864314307" free_energy=-459.22484342139404 pbc="T T T"
Si       6.68712021       3.93011804       2.69636381       0.77509954      -0.04581783       1.44003314       0.21444958      -0.21880015      -0.18077696      -8.72326116
Si       8.72030763       4.91920231       5.78750919       0.96349632      -0.68532459      -0.19783726      -0.51139915       0.30237328       0.58271918      -8.70720512
Si      10.57655156       6.16741746       9.01774619      -0.99779900      -0.28704606      -0.09332334       0.74669493      -0.80631350       0.06331450      -8.69377695
Si       8.65359785       7.19364302       2.81577709       1.31381918       0.10748457      -0.73246642       0.35431170       0.07859058      -0.26049813      -8.73264849
Si      10.54111207       8.29456593       5.88794452      -0.56675234       0.02150150      -0.88352228       0.45218080       0.03820630       0.23637955      -8.72304406
Si      12.59520289       9.44662447       9.03838151       0.46494525       0.21331127       0.06884915      -0.38329653       0.09765096      -0.37218897      -8.69420577
Si      10.60460610      10.58934219       2.81128551       0.49805006       0.49007093      -0.62823000      -0.22570906      -0.56979842      -0.66751882      -8.75024534
Si      12.55719576      11.81485264       5.83224548      -0.16959972       0.05898407       1.49136726      -0.36636008      -1.06315250       0.01434395      -8.70468970
Si      14.11167377      12.97893530       9.12625964      -1.10805089      -1.15940909       0.51084837       0.18883070      -0.07947988       0.52804112      -8.04149756
Si      10.61532791       3.91603752       2.72558598       0.03605606      -0.37182375       0.54637358       0.48913655      -0.59492488      -0.03163130      -8.74720065
Si      12.51850471       5.02236880       5.88697303      -1.10063060      -1.19975231      -0.71918185       0.30043848      -0.33165075      -0.17199859      -8.74234035
Si      14.46022149       6.05018004       9.04956440      -0.01494119       0.48485411      -0.41273820       0.78908492      -0.16581027       0.33718013      -8.74057905
Si      12.60089957       7.28129216       2.69620033      -2.03613382       0.43378481       0.62061149      -0.75849131      -0.35220961       0.89346263      -8.72885985
Si      14.41121748       8.27289680       5.88383411       2.16339114       0.79785154       0.17618189      -0.11231561       0.91713536       0.47760552      -8.75059590
Si      16.24755904       9.53443373       9.09339430       0.19818001      -0.10128598      -0.04258431       0.92801023      -0.54187120      -0.27718925      -8.71423285
Si      14.46268624      10.54219406       2.73035542       0.71766807      -0.75414228       0.27266528       0.05186635       0.32418514      -0.09025329      -8.68987976
Si      16.41254813      11.69946204       5.88558349       0.71271918       0.71960260       0.75514844      -0.84990364      -0.20447761       0.42625630      -8.70478135
Si      18.14383425      12.73004333       9.08024740       0.54482237      -0.96451902       0.37158203       0.45680982       0.16076063      -0.17905567      -8.73355298
Si      14.37537857       3.76432181       2.65389957      -1.23747846       0.29588006       0.74513173       0.28864528       0.48486821       0.52580310      -8.66573418
Si      16.25585256       5.04097300       5.83980284       0.91322391      -0.47608702      -0.50896653       0.98577460      -0.10746755       0.15240447      -8.66779373
Si      18.38953480       5.97240756       9.02575988       0.61591663      -1.17894813      -0.02861634      -0.70057930      -0.04767983       0.03919905      -7.94866933
Si      16.34495354       7.27421054       2.77320161      -0.89576793      -0.20539671      -0.52598156       0.19158401      -0.56756951      -0.76509092      -8.72555601
Si      18.23151255       8.29938611       5.98446520      -0.63297880      -0.06691755      -1.02645509      -0.09307942       0.07267649      -0.03274263      -8.71480057
Si      20.21636893       9.46221168       8.98711998      -1.72452074       0.08917047      -0.24147003       0.09843554       0.01242231       0.28849066      -8.72286040
Si      18.34853666      10.45582031       2.76222926       0.32557881       0.59501476      -0.92801916      -0.39743922      -0.22000762      -0.19954934      -7.90788761
Si      20.23623835      11.68688866       6.00249678      -0.36002416      -0.04454101      -0.77002626      -0.19587010       0.02858109      -0.50057981      -8.67099027
Si      22.36507351      12.80479316       9.05754394       0.92815922       0.09079364      -0.09733512      -0.59037889       0.40852421       0.14625409      -7.93961127
Si       2.88881070       1.55105356       3.58568049       0.05334537       0.79858467      -0.58998134      -0.19831980       0.91125211       0.33876558      -8.75152427
Si       4.86229098       2.84349178       6.69862107      -1.16319652      -0.84519361       0.17445799      -0.13549805      -0.11255418       0.00884052      -8.76438947
Si       2.88787258       3.89642380       0.30419039       0.32930732      -0.38303535       0.23674770      -0.17987836       0.01121433       0.34294822      -8.77953524
Si       4.71114883       5.02642198       3.44732682      -0.52157425       0.28715537      -0.98881037      -0.00877041      -0.34389225       0.29771204      -8.72958776
Si       6.79257927       6.04752874       6.67510820      -0.27721642       1.06112847      -0.95729780      -0.49389221      -0.20719315      -0.32016504      -8.69265238
Si       4.84374976       7.23790817       0.36122582       0.39759468       0.16312131       0.94863526       0.25596847      -0.05479538       0.24382380      -8.71827745
Si       6.73949877       8.23532616       3.63204000      -0.12190923       0.95830080      -0.11804338      -0.10357828       0.71214644      -0.13638780      -8.75308191
Si       8.61423735       9.42556827       6.65701417       0.80121037       0.04352106      -0.56341853       0.27615043       0.14494848       0.09722876      -8.77260843
Si       4.70029177       0.55938720       0.42591448      -0.02876422      -0.27517369       0.27930930      -0.42674153       0.52009090       0.05467919      -8.66429797
Si       6.73053948       1.69328082       3.46873677      -1.80553206      -0.05932441       0.64534276       0.68376670       0.29102197       0.43645837      -8.76029970
Si       8.64383234       2.80211592       6.79403886       1.21362298       0.03713102       0.01764327       0.58939051      -0.10187875      -0.59202966      -8.69007349
Si       6.84740040       3.85691455       0.32349845       0.45914847       0.04857181      -1.00972358      -1.19407346       0.50590839       0.34197160      -8.74368835
Si       8.69050766       4.93618189       3.44639659       1.00759016       0.18136808      -0.00485583      -0.44113129       0.30398844       0.38432231      -8.76496101
Si      10.59927002       6.01629921       6.66891745      -0.30891627       0.63731593       1.11055044      -0.42509996       0.89955117      -0.09090352      -8.74757854
Si       8.64101872       7.34947913       0.47003706       0.21225594      -1.26390336      -0.13204522      -0.74788108       0.41046009      -0.15651448      -8.71069717
Si      10.60167719       8.35101767       3.54475959      -1.47495425       1.05409279       0.26493492       0.17768264      -0.31043749      -0.18295186      -8.71008872
Si      12.50126679       9.50031100       6.60787262      -0.75335693      -0.15165240       0.22060558      -0.09422573       0.12444339       0.40924019      -8.66520383
Si       8.62022713       0.45307261       0.32212416       0.88268960       0.31250435      -1.36397411       0.97417844       0.09268322       0.46419730      -8.64112689
Si      10.67032823       1.65425656       3.54915192      -0.11696599       0.05713288       0.29290112      -0.26258234       0.05421418      -0.68834064      -8.73501585
Si      12.48402790       2.81136546       6.73112505      -0.63441028       1.18659846       1.06482445       0.49846601      -0.11362082      -0.16096176      -8.75493593
Si      10.64444728       3.91283127       0.38429410       1.17637297      -0.18668623       0.97286820       0.00962339      -0.65622900      -0.44695772      -8.66227941
Si      12.54856123       5.04729455       3.50109147       0.53244277      -0.05238285      -0.13293039      -0.05210259      -0.33233745       0.03469449      -8.71969879
Si      14.39445839       6.12716170       6.74846853      -0.46518085      -0.71824330      -0.28210361       0.13607784      -0.25032116      -0.49959741      -8.76779840
Si      12.52207466       7.17469226       0.41544707       0.27820146       0.46688446       0.62300860      -0.37135566       0.21922390      -0.77186049      -8.73595723
Si      14.46471016       8.33608163       3.57702263      -0.56345626       0.23714173      -0.62219001      -0.02189619       0.43792804      -0.38098353      -8.77731727
Si      16.29229408       9.48024166       6.71199182       0.56520333      -0.45225101       0.75150596       0.20429134      -0.21057667      -0.00960902      -8.72566772
53
Lattice="11.5478352 0.0 0.0 5.773917198490155 10.000722372470358 0.0 5.773916394327279 3.333571176804646 9.428767828939895" Properties=species:S:1:pos:R:3:momenta:R:3:forces:R:3:energies:R:1 spacegroup="_JSON {\"number\": 1, \"setting\": 1}" unit_cell=conventional occupancy="_JSON {\"0\": {\"Si\": 1.0}, \"1\": {\"Si\": 1.0}, \"2\": {\"Si\": 1.0}, \"3\": {\"Si\": 1.0}, \"4\": {\"Si\": 1.0}, \"5\": {\"Si\": 1.0}, \"6\": {\"Si\": 1.0}, \"7\": {\"Si\": 1.0}, \"8\": {\"Si\": 1.0}, \"9\": {\"Si\": 1.0}, \"10\": {\"Si\": 1.0}, \"11\": {\"Si\": 1.0}, \"12\": {\"Si\": 1.0}, \"13\": {\"Si\": 1.0}, \"14\": {\"Si\": 1.0}, \"15\": {\"Si\": 1.0}, \"16\": {\"Si\": 1.0}, \"17\": {\"Si\": 1.0}, \"18\": {\"Si\": 1.0}, \"19\": {\"Si\": 1.0}, \"20\": {\"Si\": 1.0}, \"21\": {\"Si\": 1.0}, \"22\": {\"Si\": 1.0}, \"23\": {\"Si\": 1.0}, \"24\": {\"Si\": 1.0}, \"25\": {\"Si\": 1.0}, \"26\": {\"Si\": 1.0}, \"27\": {\"Si\": 1.0}, \"28\": {\"Si\": 1.0}, \"29\": {\"Si\": 1.0}, \"30\": {\"Si\": 1.0}, \"31\": {\"Si\": 1.0}, \"32\": {\"Si\": 1.0}, \"33\": {\"Si\": 1.0}, \"34\": {\"Si\": 1.0}, \"35\": {\"Si\": 1.0}, \"36\": {\"Si\": 1.0}, \"37\": {\"Si\": 1.0}, \"38\": {\"Si\": 1.0}, \"39\": {\"Si\": 1.0}, \"40\": {\"Si\": 1.0}, \"41\": {\"Si\": 1.0}, \"42\": {\"Si\": 1.0}, \"43\": {\"Si\": 1.0}, \"44\": {\"Si\": 1.0}, \"45\": {\"Si\": 1.0}, \"46\": {\"Si\": 1.0}, \"47\": {\"Si\": 1.0}, \"48\": {\"Si\": 1.0}, \"49\": {\"Si\": 1.0}, \"50\": {\"Si\": 1.0}, \"51\": {\"Si\": 1.0}, \"52\": {\"Si\": 1.0}}" energy=-459.160517323829 stress="0.0152159190349274 -0.0013444534797365333 -0.0010030487944618794 -0.0013444534797365333 0.009266188661089787 0.001643799917523496 -0.0010030487944618794 0.001643799917523496 0.0073735544994104375" free_energy=-459.160517323829 pbc="T T T"
Si       6.73005371       3.92166710       2.75221966       0.72880175      -0.21698494       0.49685312      -0.29581000       0.01231391      -0.92858953      -8.69449696
Si       8.74674364       4.90363507       5.80082685      -0.02129676       0.23589781       0.69440593      -0.75688038       0.84369286       0.52872175      -8.69550413
Si      10.56018588       6.12513552       9.02132673       0.40617756      -1.18148487       0.33073407       0.85649575      -0.22895040       0.43764874      -8.73630051
Si       8.71868335       7.20252670       2.77365247       0.82619432       0.22404093      -0.75454020      -0.97007343       0.05017903       0.20367675      -8.71564417
Si      10.53215253       8.29697064       5.85789025       0.26279343       0.09398270      -0.15622822       0.58353300       0.13710211       0.63568811      -8.74849119
Si      12.59811135       9.45692898       9.02805008      -0.46833602       0.10043410      -0.42774337      -0.80910510      -0.21123158      -0.22415458      -8.72936537
Si      10.61108714      10.59579828       2.75794630      -0.37439700      -0.12632929      -1.22948864      -0.68294381      -0.09772938       0.03501536      -8.75891438
Si      12.53549553      11.77882941       5.90598601      -0.59598268      -1.33214893       1.23617926      -0.11959933      -0.64802112      -0.31882242      -8.70736065
Si      14.06486873      12.91843027       9.16868927      -0.59753190      -1.05770073       0.96986400       0.49311187       0.27224629      -0.00873572      -8.02139886
Si      10.63769320       3.87605372       2.75134801       0.77107391      -1.05042178       0.39015331       0.30225746      -0.18582991      -0.21067776      -8.75429513
Si      12.47331004       4.96292146       5.84993419      -0.62829958      -0.75462723      -0.55181691       0.28518370       0.87000573       0.38156888      -8.73353592
Si      14.49133842       6.06935411       9.03897688       1.11089356       0.28329142      -0.05014534       0.42974797      -0.02826297       0.09703684      -8.75250735
Si      12.47523247       7.29173046       2.76019557      -2.48740491      -0.01874322       1.65391638       0.30223428      -0.27985779       0.24429584      -8.71552417
Si      14.50360270       8.33848632       5.90699461       1.04289375       1.43532143       0.57638772      -1.32282220      -0.12663052      -0.02613628      -8.71116301
Si      16.29437969       9.50666871       9.08550975       1.49415576      -0.94922717      -0.14747416       0.55336219      -0.50529982       0.15125368      -8.70361302
Si      14.49209948      10.52482738       2.73535995       0.23985264       0.24559439      -0.17534716      -0.58946957       0.90276421      -0.44149797      -8.65045665
Si      16.41841720      11.72087551       5.93647301      -0.39024286      -0.04040309       1.04336776      -0.44617865      -0.73127775      -0.12653453      -8.70732070
Si      18.18799398      12.69863692       9.09527166       1.08849844       0.02267407       0.24557414       0.25298276       1.12956320      -0.00232771      -8.69909211
Si      14.33134867       3.79733821       2.70285724      -0.26737129       0.92578143       0.90621045       0.94421776       0.33626535      -0.31264365      -8.71118370
Si      16.32992920       5.01294493       5.81909195       1.63865897      -0.57969239      -0.29162808      -0.09342354      -0.05900573       0.10660868      -8.68608881
Si      18.39543308       5.91149565       9.02216378      -0.35792904      -1.07633221      -0.17362290      -0.55607702       0.21153004      -0.21148328      -7.95945997
Si      16.31068953       7.24837032       2.72502085      -0.33714613      -0.63641311      -1.07801877       0.47274643      -0.00467300       0.15171296      -8.75198477
Si      18.20465481       8.30478642       5.93386831      -0.20612721       0.35639462      -0.83184553       0.62482361       0.38452886       0.23594006      -8.73313035
Si      20.14551256       9.46534784       8.98627872      -0.70532248      -0.00723764       0.20869014       1.14099516      -0.12423407       0.28606987      -8.67653254
Si      18.34983034      10.48142617       2.70686664      -0.25585928       0.46414400      -1.15110701      -0.31272520       0.10052197      -0.07431960      -7.95035239
Si      20.20539909      11.68736387       5.94664423      -0.85793500       0.08459559      -1.24917060      -0.34992818       0.11275031      -0.05704356      -8.68610071
Si      22.39167034      12.82260190       9.05764368       0.11670775       0.51220750       0.09114431      -0.45412875       0.10489939       0.10212069      -8.00234733
Si       2.88488212       1.62053550       3.56624913      -0.19130962       1.64364610      -0.21312952      -0.15126490       0.09307893       0.09167091      -8.75335657
Si       4.80359875       2.79978991       6.70763599      -0.92729992      -0.72572654       0.15721871       0.43383399       0.25827309      -0.04016201      -8.74652269
Si       2.89066803       3.87953579       0.33100044      -0.31153500      -0.24607869       0.76756075      -0.51409538       0.06708935       0.25884661      -8.75046634
Si       4.68880736       5.02525012       3.41267716      -0.19685701      -0.36488558      -0.22674779       0.50813900      -0.45589773       0.69770835      -8.71927129
Si       6.76618559       6.08540773       6.61880192      -0.58005116       0.23403716      -1.03551023       0.09725182      -0.76794845       0.27945717      -8.69478757
Si       4.86740979       7.24275143       0.40861613       0.37242915       0.01541212       0.59790284      -0.26599874      -0.08105554      -0.76738206      -8.67800909
Si       6.73032388       8.30265095       3.61025965      -0.20484245       1.37997097      -0.86994393      -0.01298290      -0.18692170      -0.73343384      -8.70754034
Si       8.65372820       9.43239174       6.63248630       0.47242889       0.19916019      -0.33361970      -0.62186326       0.07284593       0.24104220      -8.75366609
Si       4.68346812       0.55909145       0.43608847      -0.55448507       0.11383000      -0.02953226      -0.19715137      -0.06978628      -0.47726763      -8.65386199
Si       6.67983084       1.69952829       3.52227069       0.08509009       0.21891565       1.37747597       1.48853735      -0.02564141       0.34158078      -8.71922381
Si       8.71866082       2.79740351       6.77907436       1.34027747      -0.25590684      -0.41742889      -0.58146731      -0.23974193       0.07683555      -8.69428753
Si       6.82447134       3.87557965       0.29423465      -1.21253808       0.53512197       0.03368357      -0.70960841       0.00596527       0.88801231      -8.70574164
Si       8.72644696       4.95754465       3.46218244       0.40579823       0.60034350       0.60078455      -0.27531938       0.16880051       0.35127604      -8.77227701
Si      10.57070734       6.07659265       6.71181455      -0.66676135       1.45805835       0.32297019       0.01484731       0.09486475      -0.84757685      -8.74095962
Si       8.62868338       7.30184198       0.45509851      -0.51089961      -0.54936515      -0.48219176      -0.08039009       0.41470921      -0.31884117      -8.72423000
Si      10.53687578       8.39511978       3.54852840      -0.90341270       0.64978046      -0.13973009       0.52307489      -0.21960296      -0.24410470      -8.75419692
Si      12.46783958       9.49529109       6.63205234      -0.34934158      -0.08774626       0.62999594       0.57346327      -0.07243021       0.12153702      -8.66808231
Si       8.70015703       0.47222982       0.27732219       2.02432230       0.40217564      -0.19730415       0.40395221       0.03769106       1.02605541      -8.63456094
Si      10.65779972       1.65612736       3.54351985      -0.28685841      -0.06517732      -0.36163479       0.02755043      -0.25457213      -0.11412545      -8.73661109
Si      12.47481142       2.85763738       6.77689185       0.31733657       0.35833382       0.59802722       0.62140477      -0.94767857      -0.48074695      -8.73801627
Si      10.70287000       3.87777574       0.41347763       0.98325227      -1.11384746       0.08364487      -0.25690022      -0.50121270      -0.65450511      -8.65638757
Si      12.56295457       5.03500803       3.49736952      -0.18776937      -0.33707828       0.03999274      -0.83134903      -0.02235609       0.21966026      -8.73142803
Si      14.38070947       6.08473307       6.70954163       0.05896161      -0.77784039      -1.22083710       0.58459853       0.22458511      -0.55867646      -8.72511346
Si      12.51607916       7.20219534       0.42399896      -0.57285370       0.47602206      -0.11140622      -0.60854981      -0.18951212      -0.05751554      -8.77027839
Si      14.43360790       8.35841691       3.53729559      -0.61840869       0.46386488      -0.72970490      -0.00727201      -0.14301663       0.24928916      -8.78110610
Si      16.33324396       9.45874851       6.74829102       1.03980741      -0.18163375       0.58416028       0.35503243       0.50211203      -0.20302562      -8.75836982
53
Lattice="11.5478352 0.0 0.0 5.773917198490155 10.000722372470358 0.0 5.773916394327279 3.333571176804646 9.428767828939895" Properties=species:S:1:pos:R:3:momenta:R:3:forces:R:3:energies:R:1 spacegroup="_JSON {\"number\": 1, \"setting\": 1}" unit_cell=conventional occupancy="_JSON {\"0\": {\"Si\": 1.0}, \"1\": {\"Si\": 1.0}, \"2\": {\"Si\": 1.0}, \"3\": {\"Si\": 1.0}, \"4\": {\"Si\": 1.0}, \"5\": {\"Si\": 1.0}, \"6\": {\"Si\": 1.0}, \"7\": {\"Si\": 1.0}, \"8\": {\"Si\": 1.0}, \"9\": {\"Si\": 1.0}, \"10\": {\"Si\": 1.0}, \"11\": {\"Si\": 1.0}, \"12\": {\"Si\": 1.0}, \"13\": {\"Si\": 1.0}, \"14\": {\"Si\": 1.0}, \"15\": {\"Si\": 1.0}, \"16\": {\"Si\": 1.0}, \"17\": {\"Si\": 1.0}, \"18\": {\"Si\": 1.0}, \"19\": {\"Si\": 1.0}, \"20\": {\"Si\": 1.0}, \"21\": {\"Si\": 1.0}, \"22\": {\"Si\": 1.0}, \"23\": {\"Si\": 1.0}, \"24\": {\"Si\": 1.0}, \"25\": {\"Si\": 1.0}, \"26\": {\"Si\": 1.0}, \"27\": {\"Si\": 1.0}, \"28\": {\"Si\": 1.0}, \"29\": {\"Si\": 1.0}, \"30\": {\"Si\": 1.0}, \"31\": {\"Si\": 1.0}, \"32\": {\"Si\": 1.0}, \"33\": {\"Si\": 1.0}, \"34\": {\"Si\": 1.0}, \"35\": {\"Si\": 1.0}, \"36\": {\"Si\": 1.0}, \"37\": {\"Si\": 1.0}, \"38\": {\"Si\": 1.0}, \"39\": {\"Si\": 1.0}, \"40\": {\"Si\": 1.0}, \"41\": {\"Si\": 1.0}, \"42\": {\"Si\": 1.0}, \"43\": {\"Si\": 1.0}, \"44\": {\"Si\": 1.0}, \"45\": {\"Si\": 1.0}, \"46\": {\"Si\": 1.0}, \"47\": {\"Si\": 1.0}, \"48\": {\"Si\": 1.0}, \"49\": {\"Si\": 1.0}, \"50\": {\"Si\": 1.0}, \"51\": {\"Si\": 1.0}, \"52\": {\"Si\": 1.0}}" energy=-459.2814519991484 stress="0.01610700523719422 -0.0015485046395424247 -0.0015915108678189551 -0.0015485046395424247 0.008379803237301427 0.0023923284686980283 -0.0015915108678189551 0.0023923284686980283 0.00917124134410411" free_energy=-459.2814519991484 pbc="T T T"
Si       6.75451999       3.91287380       2.74522115       0.19887091      -0.09693765      -0.63436004      -0.30605560       0.09163612      -0.40182227      -8.71674240
Si       8.71817507       4.94629494       5.85340511      -0.99214987       1.26526559       1.20179743      -0.43624272       0.33727396       0.09301258      -8.74231090
Si      10.60212767       6.06615830       9.05280371       0.90985067      -0.84001764       0.75017138      -0.25048127       0.64381986      -0.02275448      -8.74593678
Si       8.71755701       7.21559208       2.74341949      -0.91997507       0.26644727      -0.38676631      -1.14433365       0.01844925       0.24597048      -8.71360691
Si      10.56441585       8.31291043       5.87091573       0.84767611       0.63085722       0.54616683       0.10521192       0.57341882       0.21661421      -8.75006168
Si      12.54360922       9.45302672       9.00245675      -1.51179779      -0.25703505      -0.41815154      -0.40782077      -0.24392613       0.28337337      -8.75771961
Si      10.57330950      10.59662893       2.70727605      -0.86735557       0.34466000      -0.48778855       0.08537487       0.61304533       0.84686160      -8.72285397
Si      12.50504153      11.69511258       5.95862836      -0.45743970      -1.61072347       0.76764587       0.29820155       0.32744104      -0.32959620      -8.71920307
Si      14.05363520      12.87722754       9.21150230       0.17705884      -0.44766033       0.51584508       0.51238901       0.51206426      -0.57835059      -8.01437844
Si      10.67988351       3.82171771       2.76103825       0.62287550      -0.87642491      -0.07095871      -0.53212355       0.36878144      -0.39599745      -8.73933449
Si      12.44916602       4.96057057       5.83986998      -0.31416465       0.64307200       0.23636623       0.19866330       0.77300849       0.63709919      -8.72522012
Si      14.55201085       6.08615841       9.03430114       0.91710037       0.38327823      -0.24008726      -0.67822126       0.07142891      -0.33463389      -8.69870586
Si      12.36979715       7.28004984       2.84263864      -1.28054323      -0.42002964       1.22428703       1.26091931      -0.23829461      -0.78305874      -8.68304974
Si      14.50613323       8.39988115       5.93023593      -0.84770777       0.76722781       0.21903415      -0.90794964      -0.67089413      -0.38306236      -8.67864441
Si      16.38079504       9.43999188       9.08655779       1.51818610      -1.52709742       0.20513920      -0.54379235      -0.23333918       0.21609754      -8.69011781
Si      14.48133297      10.56946459       2.71126665      -0.61635112       1.31226357      -0.64339036      -0.44259106       0.32662488      -0.04233558      -8.70067269
Si      16.39298486      11.69121843       5.97954228      -0.35836649      -1.01056622       0.48192847       0.39552018      -0.39359088      -0.57282051      -8.70784133
Si      18.25326020      12.74556327       9.11006402       1.35387893       1.69344849       0.34564972       0.06304317       0.82106872       0.09792626      -8.65703768
Si      14.35196412       3.85820481       2.73338942       0.93312819       1.37532436       0.21237044       0.46041688       0.24394822      -0.48337288      -8.75327103
Si      16.40046943       4.97828204       5.80557048       0.84835410      -0.77324862      -0.25657597      -0.86812725      -0.16962740      -0.01295642      -8.71403931
Si      18.36013521       5.86413680       9.00383933      -0.86713547      -0.71878295      -0.52228903      -0.07029009       0.24636129      -0.19513447      -7.97287707
Si      16.30902218       7.21901015       2.68569360       0.21336551      -0.42204628      -0.25520604       0.23195649       0.23755949       0.77795089      -8.73858493
Si      18.22145892       8.33467350       5.89649647       0.86166638       0.66377187      -0.66674142       0.66252535      -0.07910743      -0.04930663      -8.73141690
Si      20.15191917       9.46116230       9.00760517       0.84637348      -0.11542052       0.58709780       0.71772339       0.01306245       0.20674900      -8.67448108
Si      18.32809679      10.51500571       2.64377325      -0.49527938       0.88482726      -1.24376627      -0.00715455       0.35594962      -0.03071578      -7.97721943
Si      20.15138024      11.69510104       5.88582416      -1.06062538       0.17133261      -0.93245161       0.20602065      -0.04443371       0.46693783      -8.72394638
Si      22.38584390      12.84859103       9.06508461      -0.21444646       0.38265531       0.15840816       0.03608284      -0.26724795      -0.03312321      -8.05178477
Si       2.86834906       1.69962678       3.55215656      -0.45020635       1.18286572      -0.44067325      -0.18882002      -0.63362932      -0.35550444      -8.73752355
Si       4.77342587       2.77260128       6.71349112      -0.21879652      -0.31229109       0.04699117       0.44384343       0.24710436      -0.11171634      -8.71305308
Si       2.85936886       3.86484545       0.37522523      -0.75082106      -0.39436080       0.77296343      -0.00407837      -0.23455872      -0.30879095      -8.70992099
Si       4.70502872       4.99264078       3.42798884       0.92726470      -0.75874236       0.77430570       0.92403954       0.01422607       0.53637000      -8.72938157
Si       6.74468740       6.07286000       6.58158137      -0.17173154      -0.54740860      -0.27431867       0.34607776      -0.11939409       0.69710950      -8.72276296
Si       4.87253298       7.24278406       0.40239678      -0.24846077       0.03657970      -0.89635326      -0.53955129       0.11688438      -0.96921173      -8.68421442
Si       6.71934773       8.35998186       3.53793679      -0.21066095       0.68399144      -1.78518241      -0.00085614      -0.65048826      -0.32928449      -8.70008549
Si       8.65322973       9.44526568       6.62580706      -0.44485742       0.28375772       0.10623321      -0.42939632       0.04287634       0.34473872      -8.74755488
Si       4.65212397       0.55392768       0.41280490      -0.52308323      -0.44325947      -0.86212717       0.26779692      -0.57208294      -0.47262992      -8.67390611
Si       6.73103935       1.70336416       3.59736926       1.58572710      -0.16569336       1.23940514       0.37525803      -0.37059984      -0.60677539      -8.72087562
Si       8.75157694       2.77749427       6.76817551      -0.32000512      -0.42041449       0.12254642      -1.45902504       0.07484263       0.53777175      -8.63604905
Si       6.75121649       3.89533803       0.32768382      -1.22612784       0.08480957       1.14140194       0.67098344      -0.50655008       0.47347460      -8.72357464
Si       8.74191605       4.99076696       3.50346837       0.24578718       0.56407038       0.87781393      -0.03512621      -0.22665224      -0.02623361      -8.74836969
Si      10.54209056       6.14624050       6.70004083      -0.31933543       1.00443035      -0.60596882       0.42182452      -0.64841136      -0.20259973      -8.73529980
Si       8.60867289       7.28116105       0.41667042      -0.10126908      -0.40297242      -0.96746987       0.50298102      -0.22240261      -0.25096218      -8.68686455
Si      10.50591505       8.42330419       3.53723674      -0.38131508       0.45873161      -0.17089491       0.11854302      -0.08628040       0.21286675      -8.76846914
Si      12.47353136       9.48301149       6.66648274       0.55734503      -0.47733283       0.61708678       0.52622060      -0.43776353      -0.13401347      -8.74058700
Si       8.81048390       0.49699667       0.30630848       1.92024111       0.60396384       1.24249664      -0.61916095       0.27519737       0.76354323      -8.69257287
Si      10.64556974       1.63889462       3.52834099      -0.16005627      -0.64078629      -0.07625520       0.10252800      -0.42900326       0.43446052      -8.71982275
Si      12.50849891       2.83932835       6.78727182       0.79067295      -0.97235933      -0.23258984      -0.07622307      -0.59912291      -0.57520515      -8.75556819
Si      10.74406572       3.80538950       0.39657537       0.57347271      -1.50472942      -0.61796927      -0.31146718       0.05973984      -0.21506091      -8.71829948
Si      12.52103964       5.01937536       3.50961435      -1.31173207      -0.22097182       0.43998098      -0.43085668       0.12769203       0.26742767      -8.74871401
Si      14.40942674       6.05806738       6.63148728       1.04694381      -0.14107367      -1.56919526       0.60575660       0.59833770       0.16747001      -8.67928565
Si      12.47032006       7.21973443       0.42684168      -0.94726809       0.23828394       0.38220591       0.26779282      -0.01039846       0.57379529      -8.76247289
Si      14.40164745       8.37417077       3.51255549      -0.57825796       0.12127944      -0.17027142       0.07738200      -0.20611882       0.41583586      -8.73566743
Si      16.39758775       9.46855040       6.76993441       1.27148304       0.47119138       0.21246343      -0.19533158       0.16207542      -0.30642704      -8.78949736
53
Lattice="11.5478352 0.0 0.0 5.773917198490155 10.000722372470358 0.0 5.773916394327279 3.333571176804646 9.428767828939895" Properties=species:S:1:pos:R:3:momenta:R:3:forces:R:3:energies:R:1 spacegroup="_JSON {\"number\": 1, \"setting\": 1}" unit_cell=conventional occupancy="_JSON {\"0\": {\"Si\": 1.0}, \"1\": {\"Si\": 1.0}, \"2\": {\"Si\": 1.0}, \"3\": {\"Si\": 1.0}, \"4\": {\"Si\": 1.0}, \"5\": {\"Si\": 1.0}, \"6\": {\"Si\": 1.0}, \"7\": {\"Si\": 1.0}, \"8\": {\"Si\": 1.0}, \"9\": {\"Si\": 1.0}, \"10\": {\"Si\": 1.0}, \"11\": {\"Si\": 1.0}, \"12\": {\"Si\": 1.0}, \"13\": {\"Si\": 1.0}, \"14\": {\"Si\": 1.0}, \"15\": {\"Si\": 1.0}, \"16\": {\"Si\": 1.0}, \"17\": {\"Si\": 1.0}, \"18\": {\"Si\": 1.0}, \"19\": {\"Si\": 1.0}, \"20\": {\"Si\": 1.0}, \"21\": {\"Si\": 1.0}, \"22\": {\"Si\": 1.0}, \"23\": {\"Si\": 1.0}, \"24\": {\"Si\": 1.0}, \"25\": {\"Si\": 1.0}, \"26\": {\"Si\": 1.0}, \"27\": {\"Si\": 1.0}, \"28\": {\"Si\": 1.0}, \"29\": {\"Si\": 1.0}, \"30\": {\"Si\": 1.0}, \"31\": {\"Si\": 1.0}, \"32\": {\"Si\": 1.0}, \"33\": {\"Si\": 1.0}, \"34\": {\"Si\": 1.0}, \"35\": {\"Si\": 1.0}, \"36\": {\"Si\": 1.0}, \"37\": {\"Si\": 1.0}, \"38\": {\"Si\": 1.0}, \"39\": {\"Si\": 1.0}, \"40\": {\"Si\": 1.0}, \"41\": {\"Si\": 1.0}, \"42\": {\"Si\": 1.0}, \"43\": {\"Si\": 1.0}, \"44\": {\"Si\": 1.0}, \"45\": {\"Si\": 1.0}, \"46\": {\"Si\": 1.0}, \"47\": {\"Si\": 1.0}, \"48\": {\"Si\": 1.0}, \"49\": {\"Si\": 1.0}, \"50\": {\"Si\": 1.0}, \"51\": {\"Si\": 1.0}, \"52\": {\"Si\": 1.0}}" energy=-459.18174377809515 stress="0.012776497056650815 -0.0003400370424777399 -0.0002722965073106359 -0.0003400370424777399 0.011367971973625775 -0.00021899423234755092 -0.0002722965073106359 -0.00021899423234755092 0.011023797791526709" free_energy=-459.18174377809515 pbc="T T T"
Si       6.75990199       3.90870258       2.71144419       0.16273982      -0.12595767      -0.34573627       0.30435014      -0.15500081       0.78422682      -8.73473753
Si       8.65917652       5.01227513       5.91385060      -1.02430585       0.97209329       0.97142251       0.46776008      -0.73793277      -0.41587268      -8.74757268
Si      10.62879635       6.04894697       9.08337920      -0.06414103       0.15920059       0.28842385      -0.90339113       0.54390871      -0.51121095      -8.70009762
Si       8.63584736       7.22995867       2.72969720      -1.90777970       0.25374837      -0.20631215      -0.00481839      -0.09587940      -0.03220523      -8.74198868
Si      10.60427018       8.36858458       5.90123973       0.49624076       1.41649266       0.49396610      -0.57590720       0.26661013      -0.23749831      -8.73395342
Si      12.46010275       9.42996774       8.99694685      -1.41926079      -0.62253397       0.28646315       0.57339394      -0.23600702       0.57878599      -8.73408849
Si      10.53913536      10.63752089       2.71235646      -0.30095563       1.12147414       0.57092194       0.60810753       0.24580187       0.41344219      -8.67313265
Si      12.49470694      11.63100059       5.98630166       0.08019772      -0.73014001       0.27352503       0.35463244       0.71790683      -0.37743635      -8.73065202
Si      14.08042861      12.87066988       9.21348395       0.78484015       0.10109687      -0.45994509       0.27163666       0.12668696      -0.63958788      -8.05509104
Si      10.68485322       3.78978155       2.74261578      -0.52641357      -0.37339009      -0.58432062      -0.87703149       0.24973077      -0.19966999      -8.70405349
Si      12.44237957       5.01292056       5.87583264       0.11769508       1.10926715       1.07118090       0.43260708      -0.18067834       0.37610788      -8.72298561
Si      14.56702323       6.10695703       9.00637240      -0.41696710       0.36617554      -0.83031738      -0.94328803      -0.09021362      -0.34867906      -8.63196128
Si      12.35118790       7.25204791       2.87258038       0.48740250      -0.55163811      -0.10003149       0.91598429       0.13621524      -0.83282843      -8.72042014
Si      14.44601913       8.41386142       5.92618356      -1.02888868      -0.22973216      -0.38227656       0.70992416      -0.64048992      -0.41089177      -8.69069552
Si      16.43306130       9.35542082       9.10177889       0.41902289      -1.55756261       0.29299498      -0.74748545       0.32264476      -0.09978403      -8.69064197
Si      14.43984607      10.63740926       2.68619634      -0.77386987       1.00147639      -0.10273845       0.30891930      -0.75195800       0.76437678      -8.73134068
Si      16.38861606      11.63575707       5.98337713       0.09766974      -0.82869751      -0.28497375       0.03819511       0.65926572      -0.36269118      -8.71900702
Si      18.32406990      12.85093388       9.13025655       1.27032505       1.98929992       0.36111166      -0.23158043      -0.48707899      -0.14569923      -8.62797928
Si      14.40626027       3.93774179       2.73144713       0.90684284       1.57828474      -0.16043655      -0.43071348      -0.06726724       0.00537502      -8.74457944
Si      16.41338071       4.93239486       5.79407916      -0.24883239      -0.91007466      -0.09668108      -0.44438757       0.09009612       0.31281736      -8.75373133
Si      18.31906186       5.83343307       8.97213211      -0.55917343      -0.49752355      -0.59393662       0.46858031       0.06830566       0.17413485      -7.99598456
Si      16.32479524       7.20568041       2.69717958       0.29479461      -0.09767433       0.53858391      -0.13896573       0.19138987       0.17939558      -8.70756129
Si      18.28450184       8.35916657       5.85491145       1.34077312       0.14628393      -0.98138865      -0.12209189      -0.55199159      -0.28771884      -8.70007496
Si      20.20869728       9.45657248       9.04418483       0.98205983      -0.06592404       0.74160704      -0.60103777      -0.01389003      -0.05306260      -8.68128757
Si      18.30393946      10.57204942       2.57661153      -0.39714044       1.17664663      -1.31779352       0.10261587      -0.08502305      -0.03474071      -7.98822437
Si      20.11342371      11.69850535       5.85518462      -0.20329757      -0.11396875      -0.27045947       0.89768779      -0.31437621       0.33027603      -8.72728545
Si      22.38068204      12.85724114       9.07033381       0.07001960      -0.03884552       0.01706985       0.23421354      -0.20333279      -0.12489583      -8.06212181
Si       2.83740785       1.73816574       3.51401722      -0.71294067       0.35503022      -0.98611156      -0.11647787      -0.36236650      -0.24316118      -8.74616168
Si       4.77482979       2.76203617       6.71140065       0.18235232      -0.17239335      -0.12178856       0.08952756      -0.07529452      -0.08894325      -8.69373114
Si       2.82621044       3.83490018       0.39776145      -0.40238488      -0.71044002      -0.00846582       0.42589725      -0.08826620      -0.66353543      -8.67323099
Si       4.78765887       4.96017694       3.48128644       2.10502415      -0.35886150       1.06021624       0.44017947       0.48051967      -0.23829192      -8.76518601
Si       6.74304018       6.05169006       6.59396014      -0.05847610      -0.04435301       0.70199715      -0.29262866       0.71148308       0.50575672      -8.72733442
Si       4.83842972       7.25149068       0.33115631      -1.00960983       0.32998255      -1.49214084      -0.35381562       0.24611746       0.30289366      -8.73962994
Si       6.70752564       8.37457116       3.44013804      -0.25964586       0.00208713      -1.75722950      -0.07954735      -0.13482453       0.40084173      -8.74052309
Si       8.62371025       9.46254158       6.64568390      -0.46268124       0.39104858       0.66584929       0.41144350       0.09948541       0.38874405      -8.75004787
Si       4.64077949       0.51114911       0.35785177       0.20101876      -1.05994241      -1.02730918       0.69043101      -0.06788943       0.32591437      -8.68315329
Si       6.81179239       1.68455967       3.63156450       1.15075126      -0.42448064      -0.01448394      -0.96860326       0.11891727      -0.89367559      -8.68652888
Si       8.68389286       2.76161562       6.79315309      -2.04182915      -0.13473565       0.73593722      -0.59138857       0.27690270       0.16644608      -8.63091376
Si       6.72142888       3.88097103       0.39467318       0.18489490      -0.58854059       1.15386685       1.02294099      -0.33647591      -0.53475474      -8.73923542
Si       8.75150684       5.00933408       3.54405073       0.05868997       0.12193210       0.58629549      -0.26426426      -0.30766907      -0.34687561      -8.69702553
Si      10.54246414       6.17397196       6.67270109       0.31302135       0.11910300      -0.22798704       0.33004809      -0.38299070       0.60688975      -8.74184906
Si       8.62141732       7.24584662       0.35984982       0.51496527      -0.99821689      -1.10299729       0.21839026      -0.42988162       0.12658254      -8.62641937
Si      10.48515185       8.44356016       3.53892065      -0.46782758       0.28579302       0.24160033      -0.10646003      -0.18647058       0.23559226      -8.75384440
Si      12.51651995       9.44051859       6.69340358       0.92075707      -1.08450649       0.42474617      -0.10617312      -0.19807348      -0.07024542      -8.78870005
Si       8.87890280       0.54323042       0.38988726       0.57111079       1.19805816       1.66504256      -1.05591235       0.41370751      -0.33600481      -8.72661775
Si      10.63955404       1.59255825       3.54263316      -0.10569063      -1.00264175       0.60991681      -0.03650786       0.05391712       0.38210000      -8.71103505
Si      12.53715226       2.77967846       6.75793586       0.13137213      -0.99369064      -0.74069782      -0.72161877       0.59667718      -0.00877387      -8.75198829
Si      10.76103219       3.73567189       0.36278746       0.03279454      -1.02526012      -0.54332776      -0.46269157       0.54946520       0.27853218      -8.75232761
Si      12.44896901       5.01185882       3.54192912      -1.16946725      -0.08710394       0.75975134       0.59657530       0.04202463       0.13393070      -8.76331589
Si      14.48038208       6.07428250       6.56307146       1.45792279       0.73350503      -0.90415879      -0.18003140       0.48166355       0.69048826      -8.68271925
Si      12.44305055       7.23786463       0.46788586       0.08958790       0.53504320       1.09070972       0.95887274       0.29548058       0.20056794      -8.70545587
Si      14.37499998       8.37625514       3.51682759      -0.41396256       0.02443016       0.26241883       0.17138926       0.04809044       0.13372995      -8.68882722
Si      16.44876359       9.48632916       6.76937800       0.55065492      -0.05872339      -0.22157318      -0.68748445      -0.85169212      -0.25921382      -8.76469204
53
Lattice="11.5478352 0.0 0.0 5.773917198490155 10.000722372470358 0.0 5.773916394327279 3.333571176804646 9.428767828939895" Properties=species:S:1:pos:R:3:momenta:R:3:forces:R:3:energies:R:1 spacegroup="_JSON {\"number\": 1, \"setting\": 1}" unit_cell=conventional occupancy="_JSON {\"0\": {\"Si\": 1.0}, \"1\": {\"Si\": 1.0}, \"2\": {\"Si\": 1.0}, \"3\": {\"Si\": 1.0}, \"4\": {\"Si\": 1.0}, \"5\": {\"Si\": 1.0}, \"6\": {\"Si\": 1.0}, \"7\": {\"Si\": 1.0}, \"8\": {\"Si\": 1.0}, \"9\": {\"Si\": 1.0}, \"10\": {\"Si\": 1.0}, \"11\": {\"Si\": 1.0}, \"12\": {\"Si\": 1.0}, \"13\": {\"Si\": 1.0}, \"14\": {\"Si\": 1.0}, \"15\": {\"Si\": 1.0}, \"16\": {\"Si\": 1.0}, \"17\": {\"Si\": 1.0}, \"18\": {\"Si\": 1.0}, \"19\": {\"Si\": 1.0}, \"20\": {\"Si\": 1.0}, \"21\": {\"Si\": 1.0}, \"22\": {\"Si\": 1.0}, \"23\": {\"Si\": 1.0}, \"24\": {\"Si\": 1.0}, \"25\": {\"Si\": 1.0}, \"26\": {\"Si\": 1.0}, \"27\": {\"Si\": 1.0}, \"28\": {\"Si\": 1.0}, \"29\": {\"Si\": 1.0}, \"30\": {\"Si\": 1.0}, \"31\": {\"Si\": 1.0}, \"32\": {\"Si\": 1.0}, \"33\": {\"Si\": 1.0}, \"34\": {\"Si\": 1.0}, \"35\": {\"Si\": 1.0}, \"36\": {\"Si\": 1.0}, \"37\": {\"Si\": 1.0}, \"38\": {\"Si\": 1.0}, \"39\": {\"Si\": 1.0}, \"40\": {\"Si\": 1.0}, \"41\": {\"Si\": 1.0}, \"42\": {\"Si\": 1.0}, \"43\": {\"Si\": 1.0}, \"44\": {\"Si\": 1.0}, \"45\": {\"Si\": 1.0}, \"46\": {\"Si\": 1.0}, \"47\": {\"Si\": 1.0}, \"48\": {\"Si\": 1.0}, \"49\": {\"Si\": 1.0}, \"50\": {\"Si\": 1.0}, \"51\": {\"Si\": 1.0}, \"52\": {\"Si\": 1.0}}" energy=-458.83100264571624 stress="0.011864772823131366 0.0007175591568398347 0.000861981876570454 0.0007175591568398347 0.015053443266102825 -0.001395041557406441 0.000861981876570454 -0.001395041557406441 0.011294919235571325" free_energy=-458.83100264571624 pbc="T T T"
Si       6.78749986       3.89303104       2.72906885       0.98433644      -0.51081145       0.99756214       0.65171094      -0.29747677       0.68420216      -8.75678312
Si       8.63051165       5.02904013       5.94630327      -0.00984740      -0.35983769       0.25050944       0.68437718      -0.82410617      -0.46816802      -8.71356723
Si      10.59444935       6.07075970       9.07964414      -1.08434630       0.51920947      -0.37671221      -0.26061270      -0.06150014      -0.29422962      -8.71067084
Si       8.55232501       7.23570310       2.71318479      -0.97551437      -0.10470887      -0.49058048       1.14936938      -0.35093332      -0.28490947      -8.71447562
Si      10.60402482       8.44208178       5.91689466      -0.53194468       1.15222467       0.10564265      -0.66028538      -0.63841896      -0.22420746      -8.72593823
Si      12.41493558       9.38949113       9.03254294      -0.21304094      -0.86629106       1.00311941       0.91111019      -0.01673566       0.30704593      -8.70665643
Si      10.54664949      10.69558418       2.74815816       0.52540107       0.88211160       0.60280913       0.34491622      -0.57246149      -0.33833449      -8.65787520
Si      12.50852036      11.61503654       5.98457993       0.33856634      -0.01506009      -0.36907165      -0.06943323       0.18440729      -0.48086402      -8.72740639
Si      14.12948375      12.87253468       9.17000672       1.04435089      -0.18129736      -1.04734591       0.11157583      -0.45942020      -0.03958300      -8.06763691
Si      10.62796980       3.77701062       2.71107014      -1.49579353      -0.14737618      -0.46582330      -0.29481063       0.11221701       0.39255183      -8.68851608
Si      12.46821442       5.05600052       5.93990324       0.88816239       0.41838829       1.22926165       0.49136956      -0.62158950      -0.18288384      -8.71736308
Si      14.51574164       6.12297301       8.95372156      -1.34473201       0.26071709      -1.06771704      -0.17473572      -0.03010378       0.07899679      -8.65689422
Si      12.39949873       7.23340130       2.84459301       1.09907844      -0.08445254      -0.73836028      -0.09189800       0.42075339       0.06635757      -8.76166522
Si      14.43211816       8.38084049       5.89161387       0.62909280      -0.91328056      -0.87546968       1.19012829      -0.16805000      -0.16047846      -8.72881408
Si      16.43427776       9.29531697       9.11111848      -0.19484401      -0.56181650       0.02899788      -0.05174826       0.97341484      -0.23723598      -8.70293862
Si      14.41967708      10.65298355       2.71477756       0.12009996      -0.50184145       1.20179052       0.73111191      -1.09150253       0.77750405      -8.72809470
Si      16.38561366      11.62249461       5.96225374      -0.38032913       0.32403547      -0.34248938      -0.60986358       0.65983016       0.33372397      -8.70042165
Si      18.37868943      12.92469231       9.13939871       0.75246798       0.62826867      -0.08499020      -0.45528931      -1.23802304      -0.42309734      -8.61975707
Si      14.43451981       4.01284457       2.72734880       0.16647936       1.17019549       0.04707842      -0.44582434      -0.51337066       0.17258479      -8.68600844
Si      16.39323025       4.89384170       5.80600911      -0.34644784      -0.44277040       0.60704928       0.23211351       0.54031264       0.51029738      -8.74223772
Si      18.30967939       5.80885100       8.95479313       0.19594186      -0.43752602       0.07601888       0.43793827       0.07475367       0.71900550      -8.02747238
Si      16.33069372       7.20723372       2.72362562      -0.13610372       0.15198476       0.32018916      -0.38729124       0.17080132      -0.40777465      -8.65734618
Si      18.34177310       8.34637268       5.79386033       0.71842254      -0.56251255      -1.26607947      -0.60301630      -0.26168938       0.03049713      -8.66592865
Si      20.22410857       9.44939699       9.07764259      -0.56837920      -0.26031842       0.47677399      -1.24698413      -0.20646220      -0.27118319      -8.68293305
Si      18.28525008      10.62359811       2.50562632      -0.36052525       0.66679607      -1.37689724      -0.06977654      -0.55134742       0.01541182      -7.98600972
Si      20.13659473      11.68140974       5.84882344       0.97647110      -0.47106985      -0.05039800       0.45261775      -0.05201716       0.01958303      -8.72260618
Si      22.38968723      12.85320619       9.06745130       0.18050504       0.00874593      -0.09896081      -0.12434021       0.27370587      -0.01674164      -8.04459802
Si       2.79868434       1.75073513       3.45880875      -0.67394976       0.25726907      -0.98851726       0.23435140       0.15293094       0.26199920      -8.73948337
Si       4.78491485       2.74612571       6.70322597       0.16925396      -0.48885853      -0.15147936      -0.03863245      -0.28044072       0.06091487      -8.70503825
Si       2.82166859       3.79948372       0.37447620       0.19104904      -0.52070516      -0.77006440       0.26473407       0.37718159      -0.22437284      -8.67634876
Si       4.90160729       4.96165065       3.51953277       1.94128645       0.42770849       0.28866166      -0.71958141       0.51971204      -0.64966520      -8.75895532
Si       6.72297137       6.07822717       6.64212293      -0.72262959       1.00128508       0.94291510      -0.34235908       0.48363308      -0.23979195      -8.71234442
Si       4.78019774       7.27703978       0.27841140      -1.02316968       0.57973960      -0.30068742       0.36555655      -0.01608381       1.14675478      -8.72238759
Si       6.68907907       8.38031017       3.36890507      -0.46048107       0.39850590      -0.87176763      -0.12997472       0.55735560       0.72675513      -8.74509801
Si       8.61971044       9.48634982       6.69410368       0.31764680       0.47580435       1.10918655       0.43042675      -0.06288009       0.09788295      -8.76064246
Si       4.67977651       0.46433228       0.32477483       1.26842330      -0.50915978      -0.10430390       0.60013258       0.76437842       0.82330283      -8.64656894
Si       6.82462135       1.67346429       3.60417506      -0.76722807       0.08653385      -0.83613737      -1.33408231       0.43082345      -0.13638007      -8.70325642
Si       8.57190705       2.76645743       6.82960909      -1.86373846       0.33907708       0.47246135       0.83280341       0.34240100      -0.54480440      -8.64819233
Si       6.76224697       3.84020838       0.42628324       1.13797885      -0.89973915      -0.02470465       0.09641173      -0.06633598      -0.80690520      -8.75091879
Si       8.74173824       5.00643444       3.56101383      -0.45412694      -0.17115113       0.07474826      -0.33926579      -0.06384147      -0.28248896      -8.69589410
Si      10.56575689       6.17473599       6.68561053       0.45145524       0.06907028       0.68569148      -0.14717160       0.22955513       0.45869334      -8.73748662
Si       8.65004588       7.18095134       0.31154427       0.44359544      -1.35384098      -0.64691489      -0.29847439       0.05100047       0.48000770      -8.59963770
Si      10.45921088       8.45027352       3.55613934      -0.44665253      -0.04068878       0.30966213       0.18025494      -0.22530967      -0.17514463      -8.70016246
Si      12.55405003       9.38494353       6.71627950       0.41911891      -0.86015015       0.48900597      -0.45102762       0.46771287       0.07926115      -8.76903959
Si       8.87309604       0.61835857       0.45107388      -0.66203206       1.54587841       0.46898324      -0.53852656      -0.06356882      -1.08310012      -8.71515804
Si      10.63171888       1.54992472       3.58382776      -0.18895573      -0.47276568       0.82593155      -0.01775327       0.63601528      -0.14636215      -8.70151719
Si      12.51861206       2.75897364       6.72586971      -0.70450929       0.29029547      -0.37554586      -0.19736821       0.91849864       0.40540278      -8.73308414
Si      10.74259865       3.70293688       0.34646284      -0.75884276      -0.25157629      -0.07793101      -0.53563338       0.43647131       0.28385882      -8.75211478
Si      12.41495682       5.00741023       3.58427332      -0.10186499      -0.10447763       0.78075200       0.69263730      -0.04030400      -0.15764772      -8.75256018
Si      14.53981399       6.12458394       6.54338452       0.63905386       1.00834844       0.14766114      -0.82679643      -0.21670456       0.65400496      -8.71139078
Si      12.48166836       7.27448343       0.52088247       1.25840550       0.77102818       0.66741006       0.46158170      -0.05050293      -0.81312085      -8.66682695
Si      14.36179127       8.37964159       3.53130769      -0.04576615       0.08190601       0.20175770       0.33607210      -0.04326362      -0.21114976      -8.69405122
Si      16.45255679       9.44656351       6.74775298      -0.34084810      -1.42104347      -0.61268135      -0.42074480      -0.69342193      -0.28597541      -8.73222921
53
Lattice="11.5478352 0.0 0.0 5.773917198490155 10.000722372470358 0.0 5.773916394327279 3.333571176804646 9.428767828939895" Properties=species:S:1:pos:R:3:momenta:R:3:forces:R:3:energies:R:1 spacegroup="_JSON {\"number\": 1, \"setting\": 1}" unit_cell=conventional occupancy="_JSON {\"0\": {\"Si\": 1.0}, \"1\": {\"Si\": 1.0}, \"2\": {\"Si\": 1.0}, \"3\": {\"Si\": 1.0}, \"4\": {\"Si\": 1.0}, \"5\": {\"Si\": 1.0}, \"6\": {\"Si\": 1.0}, \"7\": {\"Si\": 1.0}, \"8\": {\"Si\": 1.0}, \"9\": {\"Si\": 1.0}, \"10\": {\"Si\": 1.0}, \"11\": {\"Si\": 1.0}, \"12\": {\"Si\": 1.0}, \"13\": {\"Si\": 1.0}, \"14\": {\"Si\": 1.0}, \"15\": {\"Si\": 1.0}, \"16\": {\"Si\": 1.0}, \"17\": {\"Si\": 1.0}, \"18\": {\"Si\": 1.0}, \"19\": {\"Si\": 1.0}, \"20\": {\"Si\": 1.0}, \"21\": {\"Si\": 1.0}, \"22\": {\"Si\": 1.0}, \"23\": {\"Si\": 1.0}, \"24\": {\"Si\": 1.0}, \"25\": {\"Si\": 1.0}, \"26\": {\"Si\": 1.0}, \"27\": {\"Si\": 1.0}, \"28\": {\"Si\": 1.0}, \"29\": {\"Si\": 1.0}, \"30\": {\"Si\": 1.0}, \"31\": {\"Si\": 1.0}, \"32\": {\"Si\": 1.0}, \"33\": {\"Si\": 1.0}, \"34\": {\"Si\": 1.0}, \"35\": {\"Si\": 1.0}, \"36\": {\"Si\": 1.0}, \"37\": {\"Si\": 1.0}, \"38\": {\"Si\": 1.0}, \"39\": {\"Si\": 1.0}, \"40\": {\"Si\": 1.0}, \"41\": {\"Si\": 1.0}, \"42\": {\"Si\": 1.0}, \"43\": {\"Si\": 1.0}, \"44\": {\"Si\": 1.0}, \"45\": {\"Si\": 1.0}, \"46\": {\"Si\": 1.0}, \"47\": {\"Si\": 1.0}, \"48\": {\"Si\": 1.0}, \"49\": {\"Si\": 1.0}, \"50\": {\"Si\": 1.0}, \"51\": {\"Si\": 1.0}, \"52\": {\"Si\": 1.0}}" energy=-458.81249141131536 stress="0.014238566642435743 -0.0008947032396948326 -2.8961220885283655e-05 -0.0008947032396948326 0.014378396433984749 0.00020754342099197864 -2.8961220885283655e-05 0.00020754342099197864 0.011994680017738022" free_energy=-458.81249141131536 pbc="T T T"
Si       6.85767591       3.85773483       2.79177350       1.45995198      -0.73250693       1.04898962      -0.25911896       0.10179357      -0.64805065      -8.76561204
Si       8.64873102       4.98967021       5.94536797       0.54200798      -0.86969112      -0.20804859       0.05138090       0.24360042      -0.16118964      -8.68169248
Si      10.54207818       6.09018785       9.05483976      -0.63581274       0.13963814      -0.43192997       0.80033590      -0.37312711       0.24558830      -8.71945043
Si       8.54581692       7.21866899       2.67818189       0.64242950      -0.46058715      -0.76374739       0.81169966      -0.02315618       0.03205937      -8.70551479
Si      10.55806373       8.47144466       5.91707842      -1.03123875      -0.12240464      -0.03174394       0.08126780      -0.97596682       0.03469951      -8.73968574
Si      12.43381976       9.34793180       9.09162341       0.78909202      -0.62366962       1.12721747       0.33391092       0.34780806      -0.17785665      -8.70762813
Si      10.57583008      10.71368645       2.76176975       0.32892183      -0.27910960      -0.14809159      -0.64989112      -0.90010514      -0.57780298      -8.69538093
Si      12.51802165      11.61451661       5.94748120      -0.05529589      -0.10261381      -0.99088722      -0.36710235      -0.19780002      -0.25162501      -8.70751869
Si      14.19085011      12.84239152       9.12313287       1.34341952      -0.98259664      -0.56977203       0.28945624      -0.50717811       0.60738598      -8.00417685
Si      10.54789976       3.77417893       2.70689832      -1.35741261       0.06110617       0.36749374       0.49066052       0.19468335       0.61668977      -8.67364554
Si      12.52743330       5.05771045       5.99278278       1.19055703      -0.23807522       0.69857970      -0.21214089      -0.17010442      -0.53158682      -8.74067915
Si      14.45045806       6.13675178       8.90529590      -0.91558777       0.27647751      -0.68689638       0.71059087       0.01555219       0.44505698      -8.70113865
Si      12.44531722       7.24372967       2.81850077       0.51719713       0.42571091      -0.12389421      -0.60187620       0.21086459       0.56740310      -8.74116562
Si      14.49806644       8.33521215       5.84564565       1.54487804      -0.67723662      -0.75252059      -0.14317664       0.39463247       0.32033085      -8.76315366
Si      16.42921415       9.30358799       9.10234474       0.10790158       0.82186980      -0.38543669       0.36128990       0.74177520      -0.31704372      -8.67650039
Si      14.44684817      10.59340789       2.79715144       0.70716194      -1.50421793       1.66762584      -0.07128491      -0.04292978      -0.28556017      -8.74014771
Si      16.34054555      11.65596517       5.96431147      -1.29806141       0.77250411       0.51066359      -0.43529143      -0.04496309       0.66574636      -8.66130921
Si      18.40151392      12.91039671       9.11796034       0.15145938      -1.09678086      -0.72000375      -0.31916387      -0.90854871      -0.36395113      -8.69229018
Si      14.43186684       4.05121672       2.73355667      -0.14065702       0.24382512       0.11864114       0.05294680      -0.69077915      -0.09976241      -8.65434417
Si      16.38608336       4.89372527       5.85272675       0.08033612       0.44560527       1.04079523       0.25898380       0.55223683      -0.01059504      -8.71345891
Si      18.33086588       5.79080469       8.98864550       0.47256901      -0.20120777       1.19453374      -0.11242318       0.26417968       0.62646177      -8.04363786
Si      16.31045544       7.22303084       2.72280194      -0.55474954       0.47267974      -0.34932968      -0.06260567       0.24657064      -0.38704896      -8.68901362
Si      18.35817892       8.31590015       5.73551637      -0.03184479      -0.41176391      -0.81576469      -0.36037415       0.46571591       0.57956078      -8.65400437
Si      20.15525192       9.42904727       9.09271855      -1.76635423      -0.46751537       0.11022076      -0.10175812      -0.02606528      -0.22864336      -8.72662893
Si      18.26177618      10.63800148       2.43564828      -0.54331145      -0.06302541      -1.23300162      -0.09944656      -0.32820431       0.24047001      -8.00106674
Si      20.19143489      11.66091847       5.84555966       0.83990555      -0.19894987      -0.09006242      -0.61388771       0.37730280      -0.04440569      -8.69461273
Si      22.38986911      12.86756712       9.06313514      -0.24993151       0.56082737      -0.03391877      -0.42071294       0.35008073       0.11086262      -8.02078575
Si       2.77702934       1.77051949       3.42036169      -0.07865985       0.45240328      -0.43343279       0.50613653      -0.02122943       0.42961932      -8.70312561
Si       4.79473825       2.71184176       6.69913388       0.26336387      -0.73101991       0.01684132       0.17999602       0.06487648       0.14201452      -8.73066839
Si       2.83446457       3.79154440       0.33573193       0.14418819       0.28894364      -0.49818965      -0.31825004       0.63543327       0.58604026      -8.68669725
Si       4.96695702       5.00072027       3.51440839       0.43248925       0.95824303      -0.35871420      -1.16432141       0.10436278      -0.16162011      -8.71553983
Si       6.68216425       6.13805353       6.67649744      -0.61006654       1.03212840       0.31231722       0.52061125      -0.48028783      -0.44784326      -8.68790537
Si       4.74466392       7.29966107       0.30582223      -0.29286862       0.14480610       1.25025218       0.52003750      -0.53702027       0.74759201      -8.69797994
Si       6.66383284       8.42152710       3.34796894      -0.39343387       1.06784712      -0.02028249       0.28511110       0.14655613       0.35358782      -8.74423717
Si       8.64341228       9.50498989       6.74875444       0.37628974       0.16702811       0.81289334      -0.38088794      -0.31904195      -0.52941089      -8.75084190
Si       4.76160393       0.47024881       0.35000330       1.65801014       0.73383698       0.99399163      -0.15506936       0.74153441       0.52029699      -8.65024376
Si       6.74753266       1.68803376       3.56414239      -1.78203794       0.28173197      -0.52733451       0.17808467      -0.29014885       0.50337229      -8.75792052
Si       8.51550785       2.79540381       6.82672736      -0.17823700       0.67950063      -0.66803386       1.23463363      -0.00343138      -0.85241999      -8.71064230
Si       6.81016625       3.79396718       0.40457861       0.39987434      -0.77917435      -0.55349978      -1.01819033       0.26164378       0.15795085      -8.71197775
Si       8.70978155       4.99880505       3.55871543      -0.62306468      -0.04047031      -0.05557424       0.21207918       0.24871011       0.13574564      -8.74411424
Si      10.58114469       6.18747541       6.72942413       0.11435514       0.36645490       0.75483367      -0.23014675       0.03564000      -0.43666764      -8.71656817
Si       8.65951876       7.11911172       0.29718071      -0.08492850      -0.85805892       0.09725391      -0.29703647       0.61624125       0.46048291      -8.65058919
Si      10.44635957       8.44034990       3.56123680       0.02001530      -0.31742803      -0.17930814       0.42130806      -0.14368614      -0.41627567      -8.66783271
Si      12.56209906       9.35953974       6.74202430      -0.02912070      -0.10883648       0.40603306      -0.13214330       0.46662281      -0.24880301      -8.71732765
Si       8.82478796       0.68831995       0.43997619      -1.04451024       0.92689304      -0.70304660       0.00290137      -0.82001751      -0.34788768      -8.67265785
Si      10.62376663       1.55271872       3.61605806      -0.06113571       0.60538724       0.32432799       0.18022715       0.72123490      -0.44359815      -8.70541983
Si      12.48540045       2.80146605       6.72083263      -0.37411039       1.10784056       0.14097416       0.52472875       0.03951396       0.23365250      -8.73688144
Si      10.68537536       3.70359810       0.35098085      -1.31953570       0.24058020       0.21069701      -0.12047240       0.29118338       0.12891527      -8.72522056
Si      12.43022029       5.00115205       3.61536385       0.54634857      -0.10699736       0.33546573       0.14746948       0.06306256      -0.42156758      -8.71713025
Si      14.54260138       6.15901812       6.57138778      -0.45892499       0.13465238       0.79592543      -0.52676571      -0.85466955       0.15403371      -8.73765465
Si      12.55395648       7.30847274       0.51769552       1.23579356       0.44351990      -0.82308899      -0.57467938      -0.36771203      -0.91419430      -8.68864401
Si      14.37329199       8.37738236       3.53153072       0.48091532      -0.27873499      -0.20775196       0.31131233      -0.46825385      -0.25842778      -8.74847477
Si      16.42639401       9.35902357       6.70487939      -0.47853959      -1.59936881      -0.97326073       0.28105744       0.55101464      -0.08178123      -8.72195304
53
Lattice="11.5478352 0.0 0.0 5.773917198490155 10.000722372470358 0.0 5.773916394327279 3.333571176804646 9.428767828939895" Properties=species:S:1:pos:R:3:momenta:R:3:forces:R:3:energies:R:1 spacegroup="_JSON {\"number\": 1, \"setting\": 1}" unit_cell=conventional occupancy="_JSON {\"0\": {\"Si\": 1.0}, \"1\": {\"Si\": 1.0}, \"2\": {\"Si\": 1.0}, \"3\": {\"Si\": 1.0}, \"4\": {\"Si\": 1.0}, \"5\": {\"Si\": 1.0}, \"6\": {\"Si\": 1.0}, \"7\": {\"Si\": 1.0}, \"8\": {\"Si\": 1.0}, \"9\": {\"Si\": 1.0}, \"10\": {\"Si\": 1.0}, \"11\": {\"Si\": 1.0}, \"12\": {\"Si\": 1.0}, \"13\": {\"Si\": 1.0}, \"14\": {\"Si\": 1.0}, \"15\": {\"Si\": 1.0}, \"16\": {\"Si\": 1.0}, \"17\": {\"Si\": 1.0}, \"18\": {\"Si\": 1.0}, \"19\": {\"Si\": 1.0}, \"20\": {\"Si\": 1.0}, \"21\": {\"Si\": 1.0}, \"22\": {\"Si\": 1.0}, \"23\": {\"Si\": 1.0}, \"24\": {\"Si\": 1.0}, \"25\": {\"Si\": 1.0}, \"26\": {\"Si\": 1.0}, \"27\": {\"Si\": 1.0}, \"28\": {\"Si\": 1.0}, \"29\": {\"Si\": 1.0}, \"30\": {\"Si\": 1.0}, \"31\": {\"Si\": 1.0}, \"32\": {\"Si\": 1.0}, \"33\": {\"Si\": 1.0}, \"34\": {\"Si\": 1.0}, \"35\": {\"Si\": 1.0}, \"36\": {\"Si\": 1.0}, \"37\": {\"Si\": 1.0}, \"38\": {\"Si\": 1.0}, \"39\": {\"Si\": 1.0}, \"40\": {\"Si\": 1.0}, \"41\": {\"Si\": 1.0}, \"42\": {\"Si\": 1.0}, \"43\": {\"Si\": 1.0}, \"44\": {\"Si\": 1.0}, \"45\": {\"Si\": 1.0}, \"46\": {\"Si\": 1.0}, \"47\": {\"Si\": 1.0}, \"48\": {\"Si\": 1.0}, \"49\": {\"Si\": 1.0}, \"50\": {\"Si\": 1.0}, \"51\": {\"Si\": 1.0}, \"52\": {\"Si\": 1.0}}" energy=-458.5508426541433 stress="0.014221917060102738 -0.0015847607319279444 -0.0002640725790076331 -0.0015847607319279444 0.01068804467932873 0.001092857962468392 -0.0002640725790076331 0.001092857962468392 0.01187714798329366" free_energy=-458.5508426541433 pbc="T T T"
Si       6.90787388       3.82917655       2.81224518       0.17058611      -0.26064244      -0.36676245      -1.33724834       0.47124736      -1.00803468      -8.71399161
Si       8.67399378       4.96689693       5.93041020       0.33998659       0.21883459      -0.32382882      -0.27262524       1.06614748       0.00234083      -8.66543897
Si      10.54133071       6.08594202       9.04676426       0.53863300      -0.20094029       0.18494601       0.51957327       0.01917637       0.46432867      -8.73593614
Si       8.59946837       7.19990361       2.64659383       1.18073162      -0.14453311      -0.29384491      -0.06821312       0.40320719       0.59671355      -8.69139463
Si      10.51591671       8.43065462       5.91806832      -0.43143319      -1.31066410       0.07039225       0.63884554      -0.47331518       0.03691652      -8.74757800
Si      12.47789233       9.33051040       9.13869759       0.69226644      -0.01924614       0.56421780      -0.44090751       0.42694525      -0.57837885      -8.70509986
Si      10.56149708      10.66714657       2.73641789      -0.90077082      -1.38109453      -0.65956891      -0.72896002      -0.43506796       0.05467707      -8.75386181
Si      12.50377775      11.60259910       5.89295912      -0.39812500      -0.30309005      -0.91908833      -0.01799169      -0.01144979       0.40911340      -8.72154750
Si      14.27533379      12.77586417       9.11534126       1.90193033      -1.41648942       0.18476809       0.37657036       0.04263481       0.26108028      -7.93192210
Si      10.50168051       3.78736693       2.74595565      -0.30304641       0.49851625       1.00282684       0.87796927       0.41283659       0.14549718      -8.68420570
Si      12.57118327       5.04577966       6.00604809       0.28206712      -0.10944712      -0.24675306      -0.96234719       0.24152089      -0.72683562      -8.73917218
Si      14.43198749       6.15105218       8.89112250       0.17605190       0.24120221       0.25048963       0.55856241      -0.09598475       0.83330642      -8.72713860
Si      12.45002578       7.26967521       2.82760034      -0.28185155       0.46214839       0.29741239      -0.37114934      -0.19213691      -0.10390433      -8.71896066
Si      14.55585635       8.31224146       5.82107722       0.36262220      -0.28689852      -0.14306663      -1.27363276       0.06961910       0.48469433      -8.72240966
Si      16.44745416       9.36656663       9.06941927       0.51364196       1.38571544      -0.86056235       0.06511439      -0.02767894      -0.27031587      -8.65437805
Si      14.47203604      10.52940434       2.86113723       0.12680005      -0.65603636       0.56512629      -0.56392206       1.02597409      -1.08124204      -8.65074836
Si      16.26686254      11.68919582       6.01117945      -1.22625951       0.39347366       1.10018367       0.68595986      -0.44851796      -0.02974910      -8.63235074
Si      18.39996521      12.83078789       9.07010037      -0.16944301      -1.63578647      -0.99699798      -0.15442575       0.28140579       0.06502701      -8.74048421
Si      14.43157270       4.03975082       2.73353261       0.19769492      -0.60750752      -0.14124357       0.31381808      -0.39190254      -0.17669744      -8.69254175
Si      16.39713938       4.93266618       5.90012241       0.27378921       0.89580349       0.63798923      -0.00318001      -0.01188630      -0.51167163      -8.69190365
Si      18.34415575       5.79261078       9.06879237      -0.09487475       0.30692980       1.71108514      -0.61044817       0.40196283       0.03448255      -8.01439219
Si      16.28745785       7.25610403       2.69617814      -0.14083389       0.72535603      -0.49510947       0.64082820      -0.00788230       0.28195990      -8.74836295
Si      18.34725776       8.31700481       5.71788593      -0.29694982       0.49262302       0.16896054      -0.01190182       0.60033913       0.66540421      -8.67537945
Si      20.07840130       9.40563984       9.08902805      -0.80330081      -0.37860620      -0.27145843       1.28596795       0.17009769      -0.29412711      -8.71221163
Si      18.23214616      10.62964675       2.38269302      -0.51871134      -0.10122692      -0.73423120       0.16126743       0.27322263       0.43714371      -8.02251271
Si      20.20576480      11.66630721       5.84001271      -0.34590014       0.40279753      -0.09002824      -0.80307044       0.36421748       0.07775860      -8.67633203
Si      22.35915177      12.90540684       9.06765132      -0.92268426       0.74792530       0.24460607      -0.41452172      -0.17585996       0.25490888      -8.00823471
Si       2.79030395       1.78661759       3.41221715       0.50755994       0.02208764       0.07539262       0.19639560      -0.55443096       0.23978042      -8.67275180
Si       4.81696745       2.68324982       6.70489156       0.57593426      -0.21709349       0.18174334       0.13834872       0.61154467       0.05894806      -8.73060215
Si       2.82800138       3.82737250       0.33727877      -0.36243759       0.94005199       0.60183192      -0.20823154       0.09047090       0.74585339      -8.70942413
Si       4.94925273       5.04819994       3.49570697      -0.98074601       0.72267105      -0.24489229      -0.65086833      -0.39790561       0.26983806      -8.66127368
Si       6.67769047       6.16596340       6.68182306       0.54657666      -0.06539918       0.02721281       0.92369494      -0.84488924       0.08177308      -8.64844623
Si       4.74686267       7.28603254       0.38594599       0.32554965      -0.62357471       1.46452569       0.31082389      -0.37261083      -0.59038267      -8.64471505
Si       6.65887610       8.47295004       3.35410440       0.27400586       0.69611188       0.14742474       0.55256306      -0.61328921      -0.06639179      -8.69614894
Si       8.64200287       9.50176357       6.76546441      -0.49729950      -0.26536588      -0.26162391      -0.62875802      -0.21986819      -0.85182362      -8.73053152
Si       4.83567646       0.52782392       0.41172733       1.05367239       1.21743234       1.10591083      -0.59310968      -0.22008948      -0.47604059      -8.68403710
Si       6.67721645       1.68222652       3.55740853      -0.67333639      -0.63420688       0.23316201       1.05243801      -0.78677740       0.33723954      -8.74405855
Si       8.54520779       2.82243908       6.76520127       1.07436303       0.19417785      -1.47634667       0.29271969      -0.59008257      -0.06053658      -8.78643628
Si       6.78913650       3.76593752       0.39028812      -1.14246179      -0.24471396       0.11429977      -0.76137680       0.43596801       0.56598120      -8.70432294
Si       8.69218752       5.00923721       3.56526658       0.03536525       0.46581298       0.34752331       0.51352472       0.33996434       0.28560345      -8.76319855
Si      10.58082975       6.20081001       6.74393594      -0.06988165      -0.00922781      -0.29280364      -0.00731661      -0.54974880      -0.76949184      -8.71046018
Si       8.65039328       7.10071401       0.31594307      -0.10566363       0.17727990       0.52144034       0.31009337       0.67797320       0.07885392      -8.74023687
Si      10.46362498       8.41866618       3.53779299       0.60699168      -0.49848117      -0.63438054       0.28774543      -0.09682636      -0.09354720      -8.71182467
Si      12.55842257       9.36821540       6.75025740      -0.07398691       0.35945162      -0.13663497       0.01642518       0.14245664      -0.41418161      -8.65518194
Si       8.77340756       0.69872733       0.40060602      -0.86096973      -0.61208508      -0.61247371       0.21377002      -1.11044154       0.38477086      -8.62238519
Si      10.62711979       1.60736656       3.61880205       0.15304843       1.33106219      -0.13823967       0.03953673       0.13144626      -0.12621856      -8.69598312
Si      12.48533631       2.84776269       6.73227875       0.30574652       0.42248308       0.18409927       0.26609462      -0.86099103      -0.20682464      -8.73082105
Si      10.61908736       3.72941396       0.36722265      -1.03930927       0.79206400       0.42204192       0.53812742       0.46719013       0.17476623      -8.68626959
Si      12.45852510       4.99948336       3.61627046       0.43278878       0.06565538      -0.29665419      -0.24338014       0.14711481      -0.39998358      -8.68801090
Si      14.50710465       6.13596013       6.61163015      -0.70810304      -0.88581227       0.60405227       0.20344705      -0.35264007      -0.35815180      -8.75308920
Si      12.58438580       7.31607193       0.45276202      -0.27483472      -0.18173202      -1.33737702      -1.31510510      -0.47753795       0.30715894      -8.72512518
Si      14.40667316       8.34141107       3.51459128       0.68683313      -1.08673064      -0.34447605      -0.10525275      -0.41364166       0.10437022      -8.77981514
Si      16.41926191       9.31001258       6.65741479       0.28797770      -0.04103535      -0.69521775       0.56771894       1.41876985       0.45424063      -8.69720285
53
Lattice="11.5478352 0.0 0.0 5.773917198490155 10.000722372470358 0.0 5.773916394327279 3.333571176804646 9.428767828939895" Properties=species:S:1:pos:R:3:momenta:R:3:forces:R:3:energies:R:1 spacegroup="_JSON {\"number\": 1, \"setting\": 1}" unit_cell=conventional occupancy="_JSON {\"0\": {\"Si\": 1.0}, \"1\": {\"Si\": 1.0}, \"2\": {\"Si\": 1.0}, \"3\": {\"Si\": 1.0}, \"4\": {\"Si\": 1.0}, \"5\": {\"Si\": 1.0}, \"6\": {\"Si\": 1.0}, \"7\": {\"Si\": 1.0}, \"8\": {\"Si\": 1.0}, \"9\": {\"Si\": 1.0}, \"10\": {\"Si\": 1.0}, \"11\": {\"Si\": 1.0}, \"12\": {\"Si\": 1.0}, \"13\": {\"Si\": 1.0}, \"14\": {\"Si\": 1.0}, \"15\": {\"Si\": 1.0}, \"16\": {\"Si\": 1.0}, \"17\": {\"Si\": 1.0}, \"18\": {\"Si\": 1.0}, \"19\": {\"Si\": 1.0}, \"20\": {\"Si\": 1.0}, \"21\": {\"Si\": 1.0}, \"22\": {\"Si\": 1.0}, \"23\": {\"Si\": 1.0}, \"24\": {\"Si\": 1.0}, \"25\": {\"Si\": 1.0}, \"26\": {\"Si\": 1.0}, \"27\": {\"Si\": 1.0}, \"28\": {\"Si\": 1.0}, \"29\": {\"Si\": 1.0}, \"30\": {\"Si\": 1.0}, \"31\": {\"Si\": 1.0}, \"32\": {\"Si\": 1.0}, \"33\": {\"Si\": 1.0}, \"34\": {\"Si\": 1.0}, \"35\": {\"Si\": 1.0}, \"36\": {\"Si\": 1.0}, \"37\": {\"Si\": 1.0}, \"38\": {\"Si\": 1.0}, \"39\": {\"Si\": 1.0}, \"40\": {\"Si\": 1.0}, \"41\": {\"Si\": 1.0}, \"42\": {\"Si\": 1.0}, \"43\": {\"Si\": 1.0}, \"44\": {\"Si\": 1.0}, \"45\": {\"Si\": 1.0}, \"46\": {\"Si\": 1.0}, \"47\": {\"Si\": 1.0}, \"48\": {\"Si\": 1.0}, \"49\": {\"Si\": 1.0}, \"50\": {\"Si\": 1.0}, \"51\": {\"Si\": 1.0}, \"52\": {\"Si\": 1.0}}" energy=-458.99890841241665 stress="0.010722758123554478 0.0007760881584905797 0.0003398714612719703 0.0007760881584905797 0.009667226175077223 -0.00018657812713591878 0.0003398714612719703 -0.00018657812713591878 0.011724443285350408" free_energy=-458.99890841241665 pbc="T T T"
Si       6.86512166       3.83352178       2.76527709      -1.71471867       0.39784231      -1.11763666      -0.98458435       0.34953386       0.19611794      -8.70645172
Si       8.68085460       5.01521025       5.91598632      -0.06513053       1.41560605      -0.17387853      -0.20966284       0.23984079       0.19465688      -8.74268134
Si      10.57515562       6.08273810       9.06867681       0.45075897       0.17025500       0.49720154      -0.64141205       0.36311624      -0.12666295      -8.72117615
Si       8.65259710       7.20876411       2.65707254       0.74551955       0.46614673       0.69996145      -0.45796907       0.33075840       0.60438650      -8.70231959
Si      10.51763055       8.35534317       5.92013150       0.45474220      -1.31313362      -0.05783907       0.46650162       0.48626225      -0.21417860      -8.72063960
Si      12.49397229       9.34488483       9.14360694      -0.08080162       0.54103289      -0.40863148      -0.43441725       0.31542665      -0.68950062      -8.70626971
Si      10.49784938      10.58739497       2.71536266      -1.25015018      -1.47094655       0.02914362       0.34992953       0.30202403       0.69589779      -8.76228050
Si      12.48759653      11.58975944       5.86735282      -0.12911051      -0.12006907       0.04328142       0.32658618       0.24727673       0.77808368      -8.75278262
Si      14.38937058      12.71249180       9.12544037       2.39925234      -0.81130345       0.00950178       0.18196808       0.76469913      -0.48578427      -7.86915374
Si      10.51906148       3.83258061       2.79710828       0.91434868       1.25462411       0.81364214       0.65253751       0.50328240      -0.37611108      -8.72742051
Si      12.54738667       5.04692224       5.96548962      -1.13245490       0.06419593      -1.25294042      -0.70697207      -0.10087640      -0.52550767      -8.74711775
Si      14.45203260       6.15680320       8.93810690       0.37722361      -0.09726035       1.51552995      -0.25562130      -0.38162083       0.71548467      -8.73260184
Si      12.42875793       7.28141033       2.82968994      -0.36097558      -0.10742753      -0.37490297       0.28424010      -0.54331053      -0.70910991      -8.70964702
Si      14.52808217       8.29705074       5.83335874      -1.26833264      -0.30125899       0.61992003      -0.66716162       0.02662241       0.49621989      -8.72417828
Si      16.46837581       9.42996448       9.01619826       0.09890245       0.86963632      -1.09912561      -0.65261188      -0.66031484       0.00739614      -8.67243275
Si      14.45940803      10.53223349       2.84931705      -0.51758188       0.62484227      -0.95690414      -0.19992780       0.47952228      -0.83268517      -8.65855279
Si      16.24422866      11.68987380       6.05563976       0.60450288      -0.38209389       0.36507694       1.57157779      -0.46860129      -0.91792820      -8.63465416
Si      18.38476887      12.76717519       9.02650513      -0.42461141      -0.63365430      -0.54537635      -0.20619505       0.87021245       0.52328742      -8.71829394
Si      14.45178535       3.99785681       2.72326479       0.49391599      -0.89525996      -0.13915561       0.00292584      -0.02019399       0.25793017      -8.74291281
Si      16.41017342       4.97280573       5.91149269       0.22538748       0.52950344      -0.22372935       0.00661551      -0.41642002      -0.57129229      -8.70924410
Si      18.31375990       5.82471474       9.15561466      -1.05451920       0.90963415       1.51756513      -0.55592666       0.36219250      -0.28932733      -7.99256237
Si      16.31079374       7.28751637       2.68900659       1.08924698       0.34314990       0.31509509       0.83927379      -0.50299838       0.62029277      -8.76131377
Si      18.33313724       8.35870797       5.74809212      -0.23301282       0.89854435       0.86323240       0.01159472      -0.18275162       0.18629865      -8.71368439
Si      20.08843417       9.39697461       9.06396063       1.12339071       0.14808579      -0.65059171       1.02271151       0.53515874      -0.15982300      -8.71503644
Si      18.21337762      10.63937765       2.36147195      -0.16352654       0.51906433      -0.06782683       0.28723596       0.44783590       0.45586995      -8.03528457
Si      20.16464364      11.69779716       5.84021402      -1.00769751       0.69692563       0.11959938       0.04668350      -0.03925339       0.15418565      -8.69575766
Si      22.29793495      12.93042450       9.09056615      -1.31268495       0.06494302       0.60735392      -0.01938865      -0.72016905       0.16141742      -7.98926055
Si       2.81767239       1.76355933       3.42305042       0.39339077      -0.90338836       0.30156194      -0.36090805      -0.54602224       0.09547589      -8.67210033
Si       4.84736092       2.69848118       6.71535485       0.45965808       0.82045705       0.19320230      -0.33722951       0.68391316      -0.03481919      -8.71025034
Si       2.80746081       3.87000224       0.39134763      -0.29749596       0.50493539       1.27959789       0.26811833      -0.59848234       0.02605339      -8.72825013
Si       4.88156056       5.06892441       3.49507857      -1.41154346       0.05445453       0.23538124       0.10044166      -0.44213600       0.32218368      -8.67312986
Si       6.73848560       6.13557253       6.69193722       1.61267561      -0.92505374       0.44756717       0.27140937      -0.17459532       0.43469077      -8.64712171
Si       4.77335410       7.24532547       0.42558733       0.62638259      -0.78628660      -0.14683183       0.07463420       0.19232938      -1.30375634      -8.62646188
Si       6.69463280       8.48320816       3.35853435       1.06651474      -0.29958554       0.03492778       0.44928559      -0.57665694      -0.01521326      -8.66824400
Si       8.59860689       9.48233829       6.72031597      -0.95199465      -0.40137783      -1.37655428       0.18548613       0.07861991      -0.50118138      -8.75043065
Si       4.86874324       0.57083675       0.44045307       0.23066475       0.22208497      -0.15731932      -0.49391944      -0.98006167      -1.01550597      -8.69666054
Si       6.67722362       1.62228034       3.57158518       0.51178442      -1.50440738       0.08610525       0.40841576      -0.19936389      -0.50276778      -8.74681794
Si       8.59784178       2.81202308       6.69729224       0.67319639      -0.47949563      -0.90398223      -0.69417381      -0.16578575       0.74709241      -8.74039789
Si       6.71589743       3.77109569       0.41348936      -1.30085474       0.47250594       0.63255172       0.59072604       0.54535310       0.01997557      -8.76245992
Si       8.70670303       5.04236655       3.58884134       0.33296221       0.68187170       0.40083822      -0.20128216      -0.10671659      -0.29292966      -8.76612866
Si      10.57952052       6.17462772       6.70739739       0.06248441      -1.01883129      -0.87509888       0.15483144      -0.63741171       0.10828026      -8.74624682
Si       8.66201536       7.12996385       0.34266406       0.59333375       0.77687415       0.44596513       0.47070133       0.04410678      -0.12104660      -8.77697199
Si      10.50166293       8.38894265       3.50866315       0.73545566      -0.62332599      -0.31198752      -0.12887005      -0.04991902       0.54256107      -8.75209747
Si      12.55392393       9.38807276       6.72953242      -0.13763345       0.31028314      -0.57706510      -0.13929331      -0.19847029      -0.10850863      -8.67320603
Si       8.73545878       0.63012314       0.38610416      -0.61213551      -1.80783445       0.08764353       0.10889053      -0.32874464       0.49019431      -8.67738579
Si      10.63285420       1.67260663       3.61090275      -0.00458711       0.97256296      -0.10603322      -0.23172599      -0.57564865       0.09183863      -8.65287722
Si      12.50404277       2.83686467       6.72854683       0.25372607      -0.74911569      -0.40666724      -0.33517309      -0.50163558      -0.50244808      -8.74671001
Si      10.59071261       3.79134335       0.39721526       0.02542125       1.58090509       0.72395427       0.77814128       0.49422633       0.17427285      -8.67816649
Si      12.47219418       5.00823530       3.58652457       0.12727323       0.25355288      -0.80482172      -0.08530473       0.09023449      -0.26059146      -8.70490432
Si      14.48261096       6.08550129       6.63107550      -0.18604760      -0.86707782       0.22134950       0.34894381       0.31504137      -0.03325527      -8.77375702
Si      12.52488474       7.28680099       0.40478037      -1.75195880      -0.93041559      -0.35506683      -0.34871118      -0.43007105       0.83498981      -8.75153338
Si      14.43251757       8.27992455       3.50404363       0.19490537      -0.98680957      -0.00781766      -0.49138473       0.62429049       0.29462383      -8.77182862
Si      16.44650552       9.36101120       6.63954406       0.49253907       1.85089318      -0.00896617      -0.42058045       0.85635229       0.36017672      -8.74105872
53
Lattice="11.5478352 0.0 0.0 5.773917198490155 10.000722372470358 0.0 5.773916394327279 3.333571176804646 9.428767828939895" Properties=species:S:1:pos:R:3:momenta:R:3:forces:R:3:energies:R:1 spacegroup="_JSON {\"number\": 1, \"setting\": 1}" unit_cell=conventional occupancy="_JSON {\"0\": {\"Si\": 1.0}, \"1\": {\"Si\": 1.0}, \"2\": {\"Si\": 1.0}, \"3\": {\"Si\": 1.0}, \"4\": {\"Si\": 1.0}, \"5\": {\"Si\": 1.0}, \"6\": {\"Si\": 1.0}, \"7\": {\"Si\": 1.0}, \"8\": {\"Si\": 1.0}, \"9\": {\"Si\": 1.0}, \"10\": {\"Si\": 1.0}, \"11\": {\"Si\": 1.0}, \"12\": {\"Si\": 1.0}, \"13\": {\"Si\": 1.0}, \"14\": {\"Si\": 1.0}, \"15\": {\"Si\": 1.0}, \"16\": {\"Si\": 1.0}, \"17\": {\"Si\": 1.0}, \"18\": {\"Si\": 1.0}, \"19\": {\"Si\": 1.0}, \"20\": {\"Si\": 1.0}, \"21\": {\"Si\": 1.0}, \"22\": {\"Si\": 1.0}, \"23\": {\"Si\": 1.0}, \"24\": {\"Si\": 1.0}, \"25\": {\"Si\": 1.0}, \"26\": {\"Si\": 1.0}, \"27\": {\"Si\": 1.0}, \"28\": {\"Si\": 1.0}, \"29\": {\"Si\": 1.0}, \"30\": {\"Si\": 1.0}, \"31\": {\"Si\": 1.0}, \"32\": {\"Si\": 1.0}, \"33\": {\"Si\": 1.0}, \"34\": {\"Si\": 1.0}, \"35\": {\"Si\": 1.0}, \"36\": {\"Si\": 1.0}, \"37\": {\"Si\": 1.0}, \"38\": {\"Si\": 1.0}, \"39\": {\"Si\": 1.0}, \"40\": {\"Si\": 1.0}, \"41\": {\"Si\": 1.0}, \"42\": {\"Si\": 1.0}, \"43\": {\"Si\": 1.0}, \"44\": {\"Si\": 1.0}, \"45\": {\"Si\": 1.0}, \"46\": {\"Si\": 1.0}, \"47\": {\"Si\": 1.0}, \"48\": {\"Si\": 1.0}, \"49\": {\"Si\": 1.0}, \"50\": {\"Si\": 1.0}, \"51\": {\"Si\": 1.0}, \"52\": {\"Si\": 1.0}}" energy=-459.3339344460333 stress="0.004027708323177119 0.0021478471137920414 0.0009951572015028346 0.0021478471137920414 0.009783552102375106 -0.0029628813345614785 0.0009951572015028346 -0.0029628813345614785 0.012992674566709545" free_energy=-459.3339344460333 pbc="T T T"
Si       6.74870547       3.86321026       2.73141034      -2.45536952       0.62282183       0.09489652       0.08244397      -0.09201699       1.20578428      -8.66281980
Si       8.67406129       5.07938725       5.91331228      -0.09517061       0.66504671       0.02149269       0.15949122      -1.16451976       0.00562878      -8.75940569
Si      10.56747357       6.10236874       9.08368523      -0.76451367       0.47681077      -0.00240698      -0.70172158      -0.02748852      -0.42426767      -8.69519106
Si       8.67488451       7.24092639       2.71026405       0.14927756       0.63668749       1.15611238      -0.26966716      -0.15462112      -0.07009202      -8.74550195
Si      10.55402765       8.31000796       5.90769329       0.81301219      -0.38465511      -0.40330085      -0.01012539       0.59760773      -0.15358732      -8.69963153
Si      12.48182956       9.38386279       9.09685464      -0.18377206       0.90181810      -1.31932055       0.33504426       0.14083236      -0.45675780      -8.71050052
Si      10.45745867      10.52530382       2.73809035      -0.10162369      -0.84932742       0.66275456       1.06303656       0.48321801       0.02797538      -8.72811139
Si      12.49274227      11.59447611       5.89492468       0.27401939       0.31054420       0.85762825       0.11970276       0.28174864       0.18898000      -8.77397580
Si      14.51767988      12.70110430       9.10072212       2.34055957       0.33052290      -1.03785086      -0.42078313       0.55581495      -0.80760349      -7.85930048
Si      10.58346848       3.91281624       2.82326215       1.31884772       1.64134474       0.16359133      -0.22824176      -0.13466040      -0.44871010      -8.75528475
Si      12.47540075       5.03988476       5.88546590      -1.27715234      -0.43964868      -1.65021391       0.58981416      -0.50571434       0.06220069      -8.73454348
Si      14.45870602       6.13489260       9.03882570      -0.12596561      -0.74056283       2.16797484      -0.27109407      -0.37886822       0.09363176      -8.68531737
Si      12.42606061       7.25493852       2.78248378       0.31951462      -0.84410760      -1.35175656       0.51990904      -0.30037563      -0.40238501      -8.74718573
Si      14.45031823       8.28521219       5.88142266      -1.41307744      -0.09341209       1.10477703       0.44247950       0.24031226       0.07043386      -8.71564003
Si      16.44245464       9.44696567       8.96310427      -1.13001512      -0.23498248      -0.82035700      -0.78839721      -0.68573914       0.41631352      -8.70994529
Si      14.43266420      10.57027358       2.77597807      -0.34323855       0.57916586      -1.61830233       0.40928573      -0.47860046       0.05326222      -8.70455728
Si      16.32761607      11.66247303       6.03444117       2.23992935      -0.38832248      -1.22721035       0.25750141       0.57321867      -1.11484517      -8.71130882
Si      18.35299726      12.76052945       9.01849428      -0.80249294       0.19122815       0.20339342      -0.25651591       0.13385111       0.36962234      -8.71069608
Si      14.47207312       3.95062635       2.73253525       0.17225413      -0.90664478       0.58476763      -0.40893008      -0.01945228       0.59326895      -8.73218329
Si      16.42544615       4.98601620       5.88263287       0.40568117       0.04365522      -0.73484539       0.18328426      -0.13565559      -0.00267175      -8.74187814
Si      18.24345153       5.88437986       9.22349485      -1.45496804       1.29979026       1.05193350       0.11802384       0.10050074      -0.35597460      -8.00907817
Si      16.39185349       7.28360150       2.72205353       1.75708251      -0.50521851       0.75513150      -0.11244319      -0.53927527      -0.11002850      -8.75590414
Si      18.31571394       8.38748998       5.79358660      -0.54775275       0.01187816       0.75332555      -0.41401893      -0.88864833      -0.26313996      -8.67791140
Si      20.17200162       9.42462980       9.02605227       1.73573105       0.82667602      -0.74695831      -0.26039189       0.22043915       0.02760522      -8.69568808
Si      18.21477327      10.68023960       2.37447370       0.17831885       0.93142337       0.53191652       0.12935420       0.02385311       0.31979444      -8.04400717
Si      20.12678895      11.72649881       5.85003504      -0.19540373       0.28283426       0.19500306       0.96458898      -0.47148439      -0.07093003      -8.68262993
Si      22.23441828      12.90321813       9.12461245      -0.98706216      -1.10904722       0.59317700       0.44547856      -0.72188412      -0.21861744      -7.96122596
Si       2.82004403       1.70176439       3.44306656      -0.34722617      -1.29012581       0.47641184      -0.51402580       0.08587761       0.14698350      -8.70344842
Si       4.85415502       2.76326264       6.72406492      -0.25280941       1.50689029       0.14090599      -0.52816558       0.11285592      -0.02652310      -8.70238951
Si       2.80411108       3.87388787       0.44751169       0.17678184      -0.28948696       0.64007228       0.28993219      -0.33233186      -0.81641705      -8.73308475
Si       4.81810976       5.05783614       3.51787756      -0.89315576      -0.40127344       0.58034910       0.53662251      -0.13810752       0.10889853      -8.75096151
Si       6.81591121       6.09206714       6.73484525       0.96916265      -0.51428042       1.21515117      -1.14067033       0.66729523       0.52096982      -8.61632646
Si       4.80660269       7.21830250       0.37814814       0.59622117      -0.11949378      -1.36247308      -0.09788788       0.66183331      -0.13863669      -8.71597282
Si       6.76381426       8.45374061       3.36358008       1.44511065      -0.62495078       0.23794613      -0.05907761       0.20186141       0.29595111      -8.68049300
Si       8.57021117       9.46916807       6.63875150       0.12497116      -0.01639831      -1.51257116       1.14658619       0.38801715       0.35213999      -8.73759503
Si       4.86493347       0.54838833       0.40107930      -0.30282687      -0.90534873      -1.11032004      -0.18958285      -0.28826987      -0.10073220      -8.75839296
Si       6.70735828       1.54816010       3.55495645       0.39899965      -1.05927221      -0.66561582      -0.51320925       0.81854772      -0.29178959      -8.71275439
Si       8.60985209       2.78722216       6.67953210      -0.04706867      -0.36488131       0.19304112      -0.05090844       0.23949605       0.60115090      -8.69706934
Si       6.67919712       3.81733375       0.43776778      -0.02207337       1.25642402       0.12017634       0.87380366       0.39583141      -0.63168791      -8.78816128
Si       8.70772391       5.06920468       3.59252057      -0.42834866       0.25927394      -0.33177657      -0.72001716      -0.42725103      -0.55902314      -8.72228216
Si      10.58792475       6.10578045       6.67671908       0.21566694      -1.35879719      -0.11677267      -0.00937887       0.31938229       0.79035384      -8.75865951
Si       8.70502106       7.16537437       0.36302923       0.88014003       0.48195792       0.36662874      -0.17812399      -0.30074501       0.01409524      -8.74834330
Si      10.53391312       8.35440023       3.51772885       0.50588162      -0.69136566       0.69020361      -0.07876409      -0.04231222       0.64636143      -8.75926421
Si      12.53807256       9.39532327       6.70040039      -0.51902695      -0.03018087      -0.43500010      -0.33288287      -0.17546914       0.26913619      -8.74689649
Si       8.70496363       0.53518400       0.40667758      -0.58265880      -1.56963862       0.60483095      -0.01281994       0.60932897       0.11360720      -8.76204789
Si      10.62250204       1.70038782       3.60599159      -0.39122070       0.11532229      -0.17156573      -0.23063837      -0.45649630      -0.26102025      -8.64717418
Si      12.50039687       2.79075645       6.69115425      -0.41117111      -0.75023771      -0.89705161      -0.37866865       0.50422157      -0.02649014      -8.76706747
Si      10.61529925       3.88920574       0.43936132       0.71693950       2.00622253       0.80949560       0.00949348      -0.07814850      -0.10871570      -8.71897614
Si      12.48226000       5.02440366       3.53669342       0.40052788       0.34989684      -1.02362131       0.47192345       0.03474581       0.02479536      -8.73738839
Si      14.47993659       6.05363139       6.64922001      -0.05009035      -0.35018451       0.59733013      -0.16306449       0.30551444       0.45517511      -8.75467269
Si      12.44050949       7.22820574       0.41283105      -1.07717868      -1.13942019       0.48232108       1.13742499       0.19397590       0.10940911      -8.73719532
Si      14.42669645       8.26020148       3.51359659      -0.30591066       0.32322573       0.32414656      -0.05960542       0.95611990       0.10654437      -8.72654595
Si      16.44614842       9.47180336       6.64684923      -0.62628681       1.91980412       0.16240474      -0.88540301      -0.90816541      -0.12942646      -8.74134794
53
Lattice="11.5478352 0.0 0.0 5.773917198490155 10.000722372470358 0.0 5.773916394327279 3.333571176804646 9.428767828939895" Properties=species:S:1:pos:R:3:momenta:R:3:forces:R:3:energies:R:1 spacegroup="_JSON {\"number\": 1, \"setting\": 1}" unit_cell=conventional occupancy="_JSON {\"0\": {\"Si\": 1.0}, \"1\": {\"Si\": 1.0}, \"2\": {\"Si\": 1.0}, \"3\": {\"Si\": 1.0}, \"4\": {\"Si\": 1.0}, \"5\": {\"Si\": 1.0}, \"6\": {\"Si\": 1.0}, \"7\": {\"Si\": 1.0}, \"8\": {\"Si\": 1.0}, \"9\": {\"Si\": 1.0}, \"10\": {\"Si\": 1.0}, \"11\": {\"Si\": 1.0}, \"12\": {\"Si\": 1.0}, \"13\": {\"Si\": 1.0}, \"14\": {\"Si\": 1.0}, \"15\": {\"Si\": 1.0}, \"16\": {\"Si\": 1.0}, \"17\": {\"Si\": 1.0}, \"18\": {\"Si\": 1.0}, \"19\": {\"Si\": 1.0}, \"20\": {\"Si\": 1.0}, \"21\": {\"Si\": 1.0}, \"22\": {\"Si\": 1.0}, \"23\": {\"Si\": 1.0}, \"24\": {\"Si\": 1.0}, \"25\": {\"Si\": 1.0}, \"26\": {\"Si\": 1.0}, \"27\": {\"Si\": 1.0}, \"28\": {\"Si\": 1.0}, \"29\": {\"Si\": 1.0}, \"30\": {\"Si\": 1.0}, \"31\": {\"Si\": 1.0}, \"32\": {\"Si\": 1.0}, \"33\": {\"Si\": 1.0}, \"34\": {\"Si\": 1.0}, \"35\": {\"Si\": 1.0}, \"36\": {\"Si\": 1.0}, \"37\": {\"Si\": 1.0}, \"38\": {\"Si\": 1.0}, \"39\": {\"Si\": 1.0}, \"40\": {\"Si\": 1.0}, \"41\": {\"Si\": 1.0}, \"42\": {\"Si\": 1.0}, \"43\": {\"Si\": 1.0}, \"44\": {\"Si\": 1.0}, \"45\": {\"Si\": 1.0}, \"46\": {\"Si\": 1.0}, \"47\": {\"Si\": 1.0}, \"48\": {\"Si\": 1.0}, \"49\": {\"Si\": 1.0}, \"50\": {\"Si\": 1.0}, \"51\": {\"Si\": 1.0}, \"52\": {\"Si\": 1.0}}" energy=-458.89092251504894 stress="0.0021832593985483314 0.0016127761755847143 0.0008251115469509029 0.0016127761755847143 0.008740119264888432 -0.0035373991400302627 0.0008251115469509029 -0.0035373991400302627 0.010981923407980822" free_energy=-458.89092251504894 pbc="T T T"
Si       6.63601908       3.88629923       2.77589974      -1.57670190       0.14521457       1.33817440       1.10443850      -0.51996427       0.18473300      -8.66980803
Si       8.67415809       5.06583720       5.91274943       0.01842207      -1.12682250      -0.04059408      -0.14206333      -0.93422074       0.01300319      -8.74951328
Si      10.51402249       6.12082093       9.07013911      -0.95543749       0.13601418      -0.43069776       0.52952326      -0.37582204      -0.09419618      -8.70451698
Si       8.67873040       7.26249500       2.76044317       0.11532752       0.09283530       0.62865337       0.17731956      -0.50356176      -0.56197832      -8.75354466
Si      10.59114351       8.30538905       5.88648383       0.50705715       0.04659699      -0.26427348      -0.37859978      -0.03716429       0.39140623      -8.71865654
Si      12.49209523       9.43494819       9.01675366       0.65317111       1.01300642      -1.55269100       0.62805763       0.01117071       0.26432653      -8.71592446
Si      10.48988146      10.49725122       2.76543151       1.18494626      -0.26989982       0.25191626       0.45476078       0.27971515      -0.47029721      -8.69825987
Si      12.50537079      11.61960019       5.93795069       0.08429188       0.59894257       0.62060428      -0.35169549       0.09560526      -0.44461430      -8.71885717
Si      14.61388284      12.72617507       9.01817457       1.12037595       0.34344110      -1.97020164      -1.18819957      -0.52084532      -0.23529335      -7.83089176
Si      10.63189661       3.98445231       2.81708415       0.32664299       0.93055208      -0.33045538      -0.99027178      -0.74125679      -0.16915208      -8.70395977
Si      12.44172569       4.99906127       5.80940707       0.11902111      -1.00785363      -1.06716321       1.07107898      -0.06829721       0.77155810      -8.70530889
Si      14.44712232       6.08654956       9.14907699      -0.21016540      -0.96877607       1.87593444       0.13443644       0.14803393      -0.53207914      -8.64257471
Si      12.46102480       7.20878410       2.70858748       0.96814190      -0.69929186      -1.18989074       0.34249377       0.53647813       0.65156132      -8.75178342
Si      14.39952883       8.28979932       5.93579729      -0.45627457       0.24868105       0.84511938       0.69116969       0.15588667      -0.41099197      -8.72259372
Si      16.36287657       9.41727535       8.94001262      -1.64883052      -0.67594910      -0.01582658       0.19870318       0.17691129       0.56746257      -8.72842972
Si      14.43169759      10.57841188       2.70684109       0.26651448      -0.27727116      -0.74513018       0.24868934      -0.50550144       1.09275412      -8.73409830
Si      16.43067536      11.67002428       5.93076088       1.24873153       0.63900125      -2.57304324      -1.43814695       0.42741467      -0.48509051      -8.69969156
Si      18.30323904      12.76552059       9.03635895      -1.01392784      -0.15923773       0.33220118       0.05940242      -0.48083367      -0.19879436      -8.68073322
Si      14.46465893       3.90062812       2.78085059      -0.41977530      -1.01501686       1.08525530      -0.25819406      -0.07761508      -0.07723093      -8.71142956
Si      16.45150817       4.99133903       5.85515174       0.50200313       0.31875025      -0.08936153      -0.15293731       0.47674133       0.85851672      -8.73034793
Si      18.18045292       5.95266304       9.26560513      -0.78660511       1.21914660       0.56187461       0.73461861      -0.22758727      -0.31397222      -8.01980624
Si      16.46740169       7.24184587       2.74976511       0.91790434      -0.93336587       0.18645377      -0.90701072       0.06839943      -0.55640435      -8.66828848
Si      18.27251377       8.35651433       5.82495187      -0.98953338      -1.05990087       0.51186879       0.00408953      -0.36631239      -0.00205708      -8.66020329
Si      20.24151724       9.46815611       8.98856706       0.74631822       0.67235667      -0.66643087      -0.90313094      -0.40257883       0.09161071      -8.63455758
Si      18.22498536      10.72315817       2.41141624       0.12475700       0.56544182       0.79590071      -0.20334673      -0.51907874       0.00060183      -8.02620485
Si      20.15461814      11.72424098       5.85661570       1.18288582      -0.29967811       0.06274036       0.66920243      -0.20132589      -0.04663776      -8.69539132
Si      22.20030740      12.82573564       9.14297155      -0.33356802      -1.60029661       0.02832540       0.36373183       0.24684780      -0.52139997      -7.93675634
Si       2.78873730       1.64298473       3.47438216      -0.65931206      -0.86505408       0.71308787       0.21412988       0.41882365       0.12544101      -8.73308431
Si       4.82428916       2.83654129       6.73121607      -0.77292950       1.08210510       0.14596081      -0.08029827      -0.67601507       0.02744888      -8.70826691
Si       2.82041043       3.85425462       0.44980468       0.34119342      -0.29199101      -0.47033337      -0.11336895       0.32096757      -0.49262504      -8.72114991
Si       4.78973187       5.03580113       3.54982242      -0.27591034      -0.35719867       0.58995304       0.19219271       0.17999478      -0.07393906      -8.79900700
Si       6.81762150       6.09196609       6.81445999      -0.87106740       0.45504572       1.67201969      -1.00348478       0.44729362      -0.06000123      -8.64058379
Si       4.83474123       7.23596295       0.31743141       0.49433556       0.67578502      -0.67512086      -0.03318833       0.18376513       0.94358933      -8.76120309
Si       6.82727892       8.43705671       3.39046647       0.76220724       0.10511239       0.81727518      -0.86823791       0.64035558       0.40335548      -8.66944549
Si       8.61857840       9.48022198       6.57862367       1.55024005       0.32309267      -0.69846127       0.48450190      -0.05477807       0.67421388      -8.74590876
Si       4.84754722       0.50726485       0.35319427      -0.25322384      -0.33151080      -0.45901125       0.20877789       0.97726708       0.88867851      -8.75143546
Si       6.70581747       1.53178910       3.51838546      -0.41813054       0.53253720      -0.54057961      -0.35134712       1.17933836       0.44080729      -8.70145186
Si       8.61800502       2.77817383       6.70342608       0.54540451       0.01667466       0.48413139       0.66869413       0.21373177      -0.33100523      -8.70557071
Si       6.70162834       3.89234771       0.42170246       0.64354051       1.45379025      -0.61487996      -0.03454828      -0.19173664      -0.17841970      -8.76983807
Si       8.65751349       5.06506538       3.55800278      -1.43322003      -0.42860041      -0.85580959      -0.50084247      -0.46373546      -0.05328430      -8.70212295
Si      10.59594892       6.05694252       6.69896436       0.05138681      -0.36984483       0.83742645      -0.15826101       0.82458771       0.27622712      -8.75136274
Si       8.73573935       7.18426779       0.38357802       0.14380872       0.36759796       0.40970748      -0.74190638       0.19243602      -0.01324324      -8.71531962
Si      10.56319345       8.31554728       3.57006863       0.71463275      -0.79583614       1.06627814       0.31910794      -0.06122695      -0.28855293      -8.75494714
Si      12.49933933       9.39209779       6.68763043      -0.88309346       0.02274461      -0.10023390      -0.03342594       0.27104598       0.07481948      -8.78789899
Si       8.67522969       0.47907525       0.43379445      -0.50214927      -0.56930645       0.24425825       0.16950302       0.60292900      -0.58853410      -8.78504400
Si      10.59570018       1.69608538       3.57940289      -0.56563415      -0.13029982      -0.98111949       0.02361151       0.12959081      -0.79302340      -8.66926747
Si      12.47586152       2.77760723       6.65115686      -0.24525874       0.30726101      -0.48684535       0.67592249       0.70677023       0.51546648      -8.75123618
Si      10.64092178       3.98064382       0.47485251       0.04565645       1.24286491       0.49875437      -0.81837635      -0.99554406      -0.28287873      -8.72443914
Si      12.52590361       5.04266934       3.48821599       1.27134693       0.29681108      -0.73616531       0.47478157      -0.16173920       0.36648504      -8.75306529
Si      14.46819329       6.04325064       6.69876719      -0.41117753      -0.11458117       1.25672022      -0.21887042       0.03819166       0.31558308      -8.67184389
Si      12.43073025       7.17936389       0.42518824       0.66072230      -0.68740878      -0.34325546       0.96459457       0.33767749      -1.15408789      -8.70737773
Si      14.41643673       8.30766637       3.53163230       0.05278796       1.30278508       0.30995810       0.47751604       0.22301105      -0.10075070      -8.67188687
Si      16.38258503       9.52270651       6.64584907      -1.68184930      -0.11919615      -0.27297814      -0.41529672      -1.42424070      -0.40911462      -8.72603351
53
Lattice="11.5478352 0.0 0.0 5.773917198490155 10.000722372470358 0.0 5.773916394327279 3.333571176804646 9.428767828939895" Properties=species:S:1:pos:R:3:momenta:R:3:forces:R:3:energies:R:1 spacegroup="_JSON {\"number\": 1, \"setting\": 1}" unit_cell=conventional occupancy="_JSON {\"0\": {\"Si\": 1.0}, \"1\": {\"Si\": 1.0}, \"2\": {\"Si\": 1.0}, \"3\": {\"Si\": 1.0}, \"4\": {\"Si\": 1.0}, \"5\": {\"Si\": 1.0}, \"6\": {\"Si\": 1.0}, \"7\": {\"Si\": 1.0}, \"8\": {\"Si\": 1.0}, \"9\": {\"Si\": 1.0}, \"10\": {\"Si\": 1.0}, \"11\": {\"Si\": 1.0}, \"12\": {\"Si\": 1.0}, \"13\": {\"Si\": 1.0}, \"14\": {\"Si\": 1.0}, \"15\": {\"Si\": 1.0}, \"16\": {\"Si\": 1.0}, \"17\": {\"Si\": 1.0}, \"18\": {\"Si\": 1.0}, \"19\": {\"Si\": 1.0}, \"20\": {\"Si\": 1.0}, \"21\": {\"Si\": 1.0}, \"22\": {\"Si\": 1.0}, \"23\": {\"Si\": 1.0}, \"24\": {\"Si\": 1.0}, \"25\": {\"Si\": 1.0}, \"26\": {\"Si\": 1.0}, \"27\": {\"Si\": 1.0}, \"28\": {\"Si\": 1.0}, \"29\": {\"Si\": 1.0}, \"30\": {\"Si\": 1.0}, \"31\": {\"Si\": 1.0}, \"32\": {\"Si\": 1.0}, \"33\": {\"Si\": 1.0}, \"34\": {\"Si\": 1.0}, \"35\": {\"Si\": 1.0}, \"36\": {\"Si\": 1.0}, \"37\": {\"Si\": 1.0}, \"38\": {\"Si\": 1.0}, \"39\": {\"Si\": 1.0}, \"40\": {\"Si\": 1.0}, \"41\": {\"Si\": 1.0}, \"42\": {\"Si\": 1.0}, \"43\": {\"Si\": 1.0}, \"44\": {\"Si\": 1.0}, \"45\": {\"Si\": 1.0}, \"46\": {\"Si\": 1.0}, \"47\": {\"Si\": 1.0}, \"48\": {\"Si\": 1.0}, \"49\": {\"Si\": 1.0}, \"50\": {\"Si\": 1.0}, \"51\": {\"Si\": 1.0}, \"52\": {\"Si\": 1.0}}" energy=-458.68577485387027 stress="0.00697321718923777 0.001313336874460223 0.00012222480441767853 0.001313336874460223 0.006205701272687141 -0.0017396480008836307 0.00012222480441767853 -0.0017396480008836307 0.008531327682974278" free_energy=-458.68577485387027 pbc="T T T"
Si       6.59999800       3.87434900       2.83505723       0.18820400      -0.52029292       0.60005300       1.01286361      -0.18721268      -1.05245585      -8.71487528
Si       8.66360758       4.98731935       5.91434531      -0.50389948      -1.49225371       0.14676789      -0.46433583       0.53478614       0.18044814      -8.69593512
Si      10.49569629       6.11461898       9.04991455       0.39823845      -0.29942467      -0.22126824       1.06526279      -0.07908114       0.36325586      -8.72187072
Si       8.69077006       7.25032601       2.77323273       0.26817581      -0.46802785      -0.07060366      -0.10856513      -0.15786430      -0.28465999      -8.75635936
Si      10.60228440       8.29978094       5.89249742      -0.06933284      -0.35536484       0.52331663      -0.31797813      -0.40224745       0.48455479      -8.75474341
Si      12.54523366       9.48816168       8.95612188       1.21515419       0.98699989      -0.57031113       0.00517100      -0.11252840       0.97732214      -8.72117892
Si      10.55590015      10.49018897       2.76177467       1.08043344      -0.05842417      -0.32082798      -0.51814815       0.05095475      -0.18376368      -8.68349603
Si      12.49475647      11.65415141       5.95113906      -0.47378253       0.71800410      -0.13425414      -0.28725286       0.08897515      -0.50652575      -8.65981311
Si      14.62913934      12.72032344       8.92226505      -0.41052451      -0.53455593      -1.32680928      -0.69233988      -0.39436552       1.12844591      -7.77714568
Si      10.61228325       4.00587143       2.79853447      -0.98349633      -0.04877254      -0.27644292      -0.63184692      -0.48046061       0.21703379      -8.66341611
Si      12.48374530       4.95604239       5.78918892       1.33463083      -0.38076491       0.36933893       0.48025660       0.89470911       1.03612278      -8.70714363
Si      14.44228288       6.04883120       9.22149168       0.00560422      -0.33679824       0.78497100       0.05156541       0.65039084      -0.91093915      -8.65540922
Si      12.52451605       7.19935943       2.67541763       1.44237135       0.40284964      -0.09741374       0.29267391       0.76144633       0.55993219      -8.73926133
Si      14.39447167       8.30383837       5.96096299       0.06028413       0.16037034       0.05638248      -0.10465450      -0.33821929      -0.63196696      -8.73999954
Si      16.29401596       9.39846578       8.95572571      -0.82034436       0.10055234       0.48450868       0.80671593       0.71662242       0.06276366      -8.69616221
Si      14.44669747      10.55229267       2.71137135       0.13283728      -0.53234790       0.82484238      -0.41996610       0.22408458       0.71734070      -8.75332761
Si      16.43893507      11.70653522       5.79232417      -0.82538911       0.52605533      -2.37933433      -1.00760432      -0.45827822       0.76615554      -8.67536388
Si      18.25718205      12.73969913       9.04142297      -0.65997654      -0.73831890      -0.20258676       0.37212749      -0.13450413      -0.44241133      -8.68649001
Si      14.44100908       3.84504118       2.82366247      -0.30211490      -1.06599197       0.34704129       0.43219777       0.07710533      -0.84971909      -8.69400869
Si      16.46455745       5.02885008       5.88833643      -0.15662469       1.08740101       1.36796738      -0.74324757       0.37061319       0.88973188      -8.71463136
Si      18.16864928       6.00585635       9.28468036       0.31723416       0.77147703       0.19806026       0.64779688      -0.37305312      -0.18224973      -8.01914659
Si      16.48008744       7.20504874       2.73953356      -0.40181798      -0.30076317      -0.50154650      -0.77090671       0.71380010      -0.24934265      -8.63806224
Si      18.22913652       8.29854179       5.85589711      -0.52247849      -0.91818631       0.71971015       0.55506089       0.54426793       0.19962739      -8.62788170
Si      20.25107625       9.48446365       8.95763507      -0.21160555      -0.09547419      -0.49536888      -0.23143899      -0.57727366       0.15892461      -8.65685467
Si      18.22224933      10.72883495       2.44970991      -0.21480863      -0.39861255       0.60415402      -0.13856493      -0.70149176      -0.23163416      -8.00077670
Si      20.23119231      11.70674011       5.86062562       1.49921183      -0.27416578       0.13698764      -0.26467094       0.15632836       0.13509643      -8.71228898
Si      22.19269057      12.76663090       9.12318288      -0.02801735      -0.39978541      -0.77105223       0.08525084       1.19514255      -0.45327192      -7.90436371
Si       2.77216466       1.61202405       3.51445319       0.17336092      -0.37221188       0.74646876       0.77205665       0.19107453      -0.14631610      -8.71843909
Si       4.78875180       2.86419367       6.73985591      -0.41919206      -0.02633844       0.16875611       0.55380022      -0.65681246      -0.03185461      -8.72934612
Si       2.82999265       3.85608287       0.41604808      -0.01058070       0.41159409      -0.63330476      -0.23609481       0.50561530       0.22472428      -8.69005185
Si       4.77570116       5.02496394       3.57871494      -0.34997144      -0.06222101       0.53730425      -0.15149995       0.15504048       0.02230772      -8.78931341
Si       6.74792773       6.12349762       6.89083927      -1.47560852       0.55983152       1.08224182       0.21976372      -0.28256430      -0.66703436      -8.68506142
Si       4.85990463       7.26361095       0.32136676       0.45412728       0.10937180       0.80768879      -0.07553604      -0.82480021       0.85227291      -8.75876839
Si       6.83057917       8.46246303       3.44591083      -0.62892752       0.70658211       1.20266625      -0.83027828       0.02650621       0.03406307      -8.67334066
Si       8.70223219       9.48756049       6.56772710       1.31738051      -0.15618176       0.26788997      -0.77439129      -0.48752173       0.59890062      -8.72113541
Si       4.84001682       0.52958307       0.36488847      -0.12260627       1.09004740       0.84126984      -0.11513091       0.60688308       0.62946390      -8.77583052
Si       6.68152750       1.59949719       3.51214123      -0.29621545       1.85002010       0.37005681       0.45724278       0.37060200       0.69547617      -8.72939739
Si       8.66996475       2.78180000       6.70073418       1.31872209      -0.01991609      -0.84568865       0.21378929      -0.33695262      -1.29284299      -8.75833541
Si       6.72549989       3.95468714       0.39201305       0.15202918       0.80117395      -0.35727645      -0.48139174      -0.66087779       0.44383298      -8.67040742
Si       8.57102407       5.02675121       3.51923744      -1.66361617      -0.95892192      -0.46345343       0.29435460      -0.16066300       0.56665071      -8.71569539
Si      10.59343673       6.06324852       6.73879678      -0.12516818       0.43867219       0.39513776      -0.07221388       0.14952343      -0.81959880      -8.73016723
Si       8.71496806       7.21607389       0.40240648      -0.86719269       0.89528223       0.26415322      -0.45854432       0.38083499      -0.17550383      -8.74482692
Si      10.61450533       8.27243712       3.60240077       1.22460124      -0.80838100      -0.01927640       0.24458851       0.09434143      -0.99010699      -8.74034752
Si      12.45948085       9.40809372       6.67844047      -0.48255208       0.63990778      -0.36747214       0.55557292       0.46944689      -0.36579670      -8.76731166
Si       8.65714732       0.46509770       0.42281532      -0.17124378      -0.11083280      -0.59367375       0.22573753       0.02941615      -0.31591335      -8.77293624
Si      10.56968712       1.69984155       3.49465747      -0.37710465       0.35383869      -2.22786772       0.21487588       0.43757379      -0.67922810      -8.72209893
Si      12.49441347       2.80915842       6.64507998       0.93222995       0.59151771       0.19601971       0.59818054      -0.46365880       0.28065352      -8.74886833
Si      10.60971862       4.00037187       0.48986810      -1.21127873      -0.56584813       0.06226379      -0.70994470      -1.25401745      -0.32627401      -8.73280463
Si      12.59886142       5.04861875       3.46595625       1.21748643      -0.11554837      -0.07481824      -0.65176638      -0.32727332       0.50839579      -8.76047073
Si      14.44133958       6.03825688       6.77188383      -0.53934317      -0.05256595       1.41650442       0.06775113       0.12900814      -0.13354774      -8.62867722
Si      12.49085769       7.15424433       0.36060701       1.36999721      -0.30606487      -1.99922663      -0.07501056       0.19660419      -0.67414552      -8.74185978
Si      14.43958822       8.37128321       3.54422691       0.83457605       0.85241271       0.19046442       0.48958271      -0.82784072      -0.02435515      -8.66513710
Si      16.28928249       9.47672587       6.61674496      -1.61207583      -1.28060379      -0.76310969       0.61908422      -0.04213471      -0.11203895      -8.74514025
53
Lattice="11.5478352 0.0 0.0 5.773917198490155 10.000722372470358 0.0 5.773916394327279 3.333571176804646 9.428767828939895" Properties=species:S:1:pos:R:3:momenta:R:3:forces:R:3:energies:R:1 spacegroup="_JSON {\"number\": 1, \"setting\": 1}" unit_cell=conventional occupancy="_JSON {\"0\": {\"Si\": 1.0}, \"1\": {\"Si\": 1.0}, \"2\": {\"Si\": 1.0}, \"3\": {\"Si\": 1.0}, \"4\": {\"Si\": 1.0}, \"5\": {\"Si\": 1.0}, \"6\": {\"Si\": 1.0}, \"7\": {\"Si\": 1.0}, \"8\": {\"Si\": 1.0}, \"9\": {\"Si\": 1.0}, \"10\": {\"Si\": 1.0}, \"11\": {\"Si\": 1.0}, \"12\": {\"Si\": 1.0}, \"13\": {\"Si\": 1.0}, \"14\": {\"Si\": 1.0}, \"15\": {\"Si\": 1.0}, \"16\": {\"Si\": 1.0}, \"17\": {\"Si\": 1.0}, \"18\": {\"Si\": 1.0}, \"19\": {\"Si\": 1.0}, \"20\": {\"Si\": 1.0}, \"21\": {\"Si\": 1.0}, \"22\": {\"Si\": 1.0}, \"23\": {\"Si\": 1.0}, \"24\": {\"Si\": 1.0}, \"25\": {\"Si\": 1.0}, \"26\": {\"Si\": 1.0}, \"27\": {\"Si\": 1.0}, \"28\": {\"Si\": 1.0}, \"29\": {\"Si\": 1.0}, \"30\": {\"Si\": 1.0}, \"31\": {\"Si\": 1.0}, \"32\": {\"Si\": 1.0}, \"33\": {\"Si\": 1.0}, \"34\": {\"Si\": 1.0}, \"35\": {\"Si\": 1.0}, \"36\": {\"Si\": 1.0}, \"37\": {\"Si\": 1.0}, \"38\": {\"Si\": 1.0}, \"39\": {\"Si\": 1.0}, \"40\": {\"Si\": 1.0}, \"41\": {\"Si\": 1.0}, \"42\": {\"Si\": 1.0}, \"43\": {\"Si\": 1.0}, \"44\": {\"Si\": 1.0}, \"45\": {\"Si\": 1.0}, \"46\": {\"Si\": 1.0}, \"47\": {\"Si\": 1.0}, \"48\": {\"Si\": 1.0}, \"49\": {\"Si\": 1.0}, \"50\": {\"Si\": 1.0}, \"51\": {\"Si\": 1.0}, \"52\": {\"Si\": 1.0}}" energy=-458.83461721789524 stress="0.008345265557179573 0.00033197773078190337 0.00021112166109561232 0.00033197773078190337 0.004787445847807691 -0.0006047460848664758 0.00021112166109561232 -0.0006047460848664758 0.010035427530257589" free_energy=-458.83461721789524 pbc="T T T"
Si       6.63370401       3.85206908       2.82134396       0.77356308      -0.09638413      -1.13443360      -0.23608047       0.69314735      -1.06740024      -8.75010687
Si       8.61984458       4.94446803       5.92746359      -1.12263733       0.06233272       0.31348820      -0.28843361       1.29557539       0.03243309      -8.64107755
Si      10.55061694       6.10515410       9.05297287       1.48357189       0.11405261       0.28890210       0.22605961       0.58282781       0.16644664      -8.74758753
Si       8.69421477       7.22573127       2.76507972      -0.23573571      -0.36363626      -0.12176351      -0.48479253       0.25899143       0.18086090      -8.71199046
Si      10.59170215       8.26828248       5.92909909      -0.21737300      -0.73113432       0.64199102       0.13379710       0.05023475      -0.40424381      -8.77554781
Si      12.59852546       9.53100192       8.96225511       0.60687928       0.52810653       0.69943821      -0.80345057      -0.56433439       0.56330440      -8.71782484
Si      10.59056703      10.48938490       2.74706819       0.26200713       0.04605228      -0.04752201      -0.43915132       0.10868032       0.55549147      -8.69160170
Si      12.46484320      11.69648473       5.92723424      -0.52060134       0.90171932      -0.70269790       0.28823631       0.10248621      -0.20157866      -8.68063667
Si      14.59083762      12.69001234       8.89902491      -0.88233144      -0.33637068       0.34532880      -0.02417300       0.71276373       0.76110019      -7.76216869
Si      10.54474606       3.99258965       2.79301299      -1.41565397      -0.29120832       0.04095610       0.06900604       0.17838265       0.11843275      -8.66146802
Si      12.56298878       4.97368376       5.84363797       1.48126527       1.00172010       1.56194934      -0.33915121       0.66827039       0.45255272      -8.73587392
Si      14.43772854       6.05468007       9.22776855      -0.33781320       0.45719151      -0.51165249      -0.56285313       0.23994889      -0.75892351      -8.70751937
Si      12.61144392       7.24098738       2.68012774       1.83198348       0.94731592       0.04869524       0.11670172      -0.16595191      -0.32894531      -8.72163737
Si      14.38339908       8.29318973       5.93978585      -0.59626082      -0.62948263      -0.81911350      -0.51991310      -0.55675798      -0.43551963      -8.71818828
Si      16.28090710       9.42744155       8.97858802       0.25388424       0.86682563       0.31246076       0.53375019       0.18078957      -0.23441942      -8.66310157
Si      14.43311214      10.54082831       2.76714015      -0.68208030       0.19342477       1.01888106      -0.52836223       0.58844081      -0.38111841      -8.71173551
Si      16.37581275      11.71245240       5.70128283      -1.17424970      -0.36893287      -1.10069789       0.59809991      -0.72749497       0.72867271      -8.62968317
Si      18.23607376      12.70577268       9.01552858      -0.17546690      -0.36208027      -0.71838567       0.25208438       0.60514733      -0.17802009      -8.69795368
Si      14.44564876       3.79628772       2.80725125       0.48508918      -0.68612070      -0.93919872       0.44729875       0.48762102      -0.69757228      -8.71203266
Si      16.42248501       5.09074647       5.98451749      -1.49176763       1.05409545       2.04967616      -0.88038687      -0.47602662      -0.08903486      -8.71603031
Si      18.20392025       6.03166433       9.28935210       0.88271101       0.20373772      -0.00536701       0.07615540      -0.40105379      -0.12202193      -8.00097677
Si      16.43574979       7.21654912       2.71358143      -1.13410422       0.66471654      -0.26770869      -0.14676672       0.40957278       0.60115914      -8.70154561
Si      18.22421919       8.27789184       5.90059545       0.32828501       0.21401099       0.94674685       0.52084930       0.85344351       0.05158154      -8.62142906
Si      20.24395674       9.45819974       8.93905412       0.15899055      -0.85683654      -0.17052190       0.60644109      -0.36428664       0.32765748      -8.70458329
Si      18.21207392      10.68342057       2.47261884      -0.03693852      -1.24959971       0.27933174       0.38290861      -0.36528469      -0.19237611      -7.97683537
Si      20.29177737      11.69638469       5.87417581       0.68737128      -0.19348225       0.38674054      -0.73734932      -0.12194035       0.15856180      -8.71743389
Si      22.19401565      12.78606376       9.07298860       0.09230051       0.92921385      -0.94008163       0.13375212       0.38227125       0.33598778      -7.92036358
Si       2.80900137       1.59446619       3.54299301       1.13967126      -0.38720009       0.24389084       0.40812080      -0.15322036      -0.51747542      -8.70781230
Si       4.79226048       2.84624661       6.74530397       0.58249685      -0.46459377      -0.00648738       0.64755192       0.09826426      -0.20356457      -8.75859887
Si       2.82644103       3.89243821       0.39510359       0.02080001       0.83975016      -0.12459502       0.32249710      -0.02630068       0.38430287      -8.69138001
Si       4.75507519       5.02531068       3.60953222      -0.34070128       0.04243514       0.65253371       0.20526534       0.02878643       0.07630632      -8.73412864
Si       6.69073598       6.13774225       6.92191713      -0.51174319      -0.05846677       0.13190002       0.96083367      -0.44299147      -0.55220272      -8.70660255
Si       4.87859581       7.24030440       0.38395276       0.20735129      -0.83597572       1.26804924      -0.27150327      -0.20939194      -0.35795083      -8.74723857
Si       6.77315193       8.48986935       3.50516666      -1.39183832       0.14783664       0.96075200      -0.15874386      -0.71182717      -0.33679586      -8.66675485
Si       8.73331638       9.46178515       6.60083547      -0.22318904      -0.76911761       0.88205086      -1.10758687      -0.26417230       0.14598941      -8.71155283
Si       4.82588167       0.59316115       0.42097607      -0.43809864       0.99302015       1.04056657      -0.20298028      -0.70807335      -0.37143327      -8.78384666
Si       6.68513521       1.69246309       3.55525500       0.39500267       1.32801785       1.15327806       0.30778582      -1.02745796       0.20077411      -8.73746174
Si       8.73741429       2.76119864       6.61321191       1.02845824      -0.82093704      -2.19418688      -0.67512578      -0.51688949      -0.14223886      -8.81123463
Si       6.71801606       3.97064973       0.39150578      -0.33647717      -0.16395582       0.31768894      -0.08514695      -0.53309357       0.35688061      -8.66313832
Si       8.50578716       4.97822301       3.52105673      -0.63016332      -0.70786331       0.58366458       1.02595443       0.55039603       0.74972478      -8.72655645
Si      10.58533335       6.08062645       6.72514990      -0.15493549       0.01489286      -0.86067553       0.04347962      -0.66007418      -0.59792256      -8.72275127
Si       8.66232544       7.27318389       0.41080400      -0.91009842       1.14456706       0.11445346       0.43453254      -0.15946960       0.05236575      -8.79456520
Si      10.68232535       8.23653872       3.56783332       1.21136467      -0.49578798      -1.14019764      -0.33773609       0.34142539      -0.37376406      -8.73732561
Si      12.45726899       9.45713558       6.64646722       0.37648667       1.13649243      -0.76454174       0.46115684       0.09739266      -0.02907192      -8.74779320
Si       8.65392647       0.45693521       0.38990025      -0.02473108      -0.21728384      -0.47310509      -0.06101778      -0.03929783       0.41241436      -8.73816082
Si      10.55851847       1.73303599       3.36249855      -0.05241047       0.80895563      -2.52903669       0.19861169       0.02271650       0.41827108      -8.75838137
Si      12.55441937       2.81100612       6.65841297       1.10580568      -0.63113738       0.15392478      -0.38086308      -0.87745733      -0.33983701      -8.72680983
Si      10.52833725       3.93261849       0.48000168      -1.63869094      -1.72706836      -0.43007792       0.29231886      -0.10888579      -0.27823888      -8.76107730
Si      12.62781261       5.03223969       3.48122922      -0.22296105      -0.44823496       0.62730571      -1.06132937      -0.09243536       0.37977087      -8.73482353
Si      14.41835729       6.04549521       6.83745085      -0.29553115       0.43860345       1.01899122       0.22393601       0.55365975      -0.38364363      -8.68793638
Si      12.54809647       7.14508813       0.24925194       0.62271056      -0.04348136      -1.84961563      -0.79522757       0.18735213       0.86673309      -8.73785009
Si      14.49870922       8.37827042       3.55490849       1.31536674      -0.60120992       0.22920162       0.06664062      -0.85542643       0.02119951      -8.73352576
Si      16.23958038       9.42287526       6.58059791      -0.13883292      -0.54150471      -0.46117370       1.14429920       0.85100783       0.47633846      -8.71037695
53
Lattice="11.5478352 0.0 0.0 5.773917198490155 10.000722372470358 0.0 5.773916394327279 3.333571176804646 9.428767828939895" Properties=species:S:1:pos:R:3:momenta:R:3:forces:R:3:energies:R:1 spacegroup="_JSON {\"number\": 1, \"setting\": 1}" unit_cell=conventional occupancy="_JSON {\"0\": {\"Si\": 1.0}, \"1\": {\"Si\": 1.0}, \"2\": {\"Si\": 1.0}, \"3\": {\"Si\": 1.0}, \"4\": {\"Si\": 1.0}, \"5\": {\"Si\": 1.0}, \"6\": {\"Si\": 1.0}, \"7\": {\"Si\": 1.0}, \"8\": {\"Si\": 1.0}, \"9\": {\"Si\": 1.0}, \"10\": {\"Si\": 1.0}, \"11\": {\"Si\": 1.0}, \"12\": {\"Si\": 1.0}, \"13\": {\"Si\": 1.0}, \"14\": {\"Si\": 1.0}, \"15\": {\"Si\": 1.0}, \"16\": {\"Si\": 1.0}, \"17\": {\"Si\": 1.0}, \"18\": {\"Si\": 1.0}, \"19\": {\"Si\": 1.0}, \"20\": {\"Si\": 1.0}, \"21\": {\"Si\": 1.0}, \"22\": {\"Si\": 1.0}, \"23\": {\"Si\": 1.0}, \"24\": {\"Si\": 1.0}, \"25\": {\"Si\": 1.0}, \"26\": {\"Si\": 1.0}, \"27\": {\"Si\": 1.0}, \"28\": {\"Si\": 1.0}, \"29\": {\"Si\": 1.0}, \"30\": {\"Si\": 1.0}, \"31\": {\"Si\": 1.0}, \"32\": {\"Si\": 1.0}, \"33\": {\"Si\": 1.0}, \"34\": {\"Si\": 1.0}, \"35\": {\"Si\": 1.0}, \"36\": {\"Si\": 1.0}, \"37\": {\"Si\": 1.0}, \"38\": {\"Si\": 1.0}, \"39\": {\"Si\": 1.0}, \"40\": {\"Si\": 1.0}, \"41\": {\"Si\": 1.0}, \"42\": {\"Si\": 1.0}, \"43\": {\"Si\": 1.0}, \"44\": {\"Si\": 1.0}, \"45\": {\"Si\": 1.0}, \"46\": {\"Si\": 1.0}, \"47\": {\"Si\": 1.0}, \"48\": {\"Si\": 1.0}, \"49\": {\"Si\": 1.0}, \"50\": {\"Si\": 1.0}, \"51\": {\"Si\": 1.0}, \"52\": {\"Si\": 1.0}}" energy=-458.49884118455026 stress="0.005616633022099559 0.0007898896073200918 0.0012926629538675062 0.0007898896073200918 0.008468192933560718 -0.0019266088128840418 0.0012926629538675062 -0.0019266088128840418 0.009893801907059623" free_energy=-458.49884118455026 pbc="T T T"
Si       6.65773561       3.87445515       2.73523756       0.09026584       0.88406613      -1.74141685      -0.44732186       0.44660448       0.53367394      -8.74783996
Si       8.55604081       4.98754763       5.94442701      -1.14063465       1.27393719       0.31949025       0.38187476       0.10370989      -0.02964862      -8.69254257
Si      10.62240104       6.13277375       9.06635701       0.96209482       0.82756151       0.06896202      -0.90486921       0.14551865      -0.42019341      -8.71175845
Si       8.66445864       7.21863954       2.76862366      -0.83228664       0.11747685       0.29526934      -0.22033423       0.35164196       0.32961283      -8.66247716
Si      10.58880434       8.24133341       5.93810701       0.13920146      -0.14204152      -0.42503389       0.26026869       0.63092569      -0.88917080      -8.72374428
Si      12.59663485       9.53299000       9.01062589      -0.65106727      -0.48390163       0.95633752      -0.67685684      -0.66815169      -0.17896155      -8.69919834
Si      10.59493881      10.49525975       2.76962236       0.06190905       0.13866797       0.88917067       0.17805762      -0.04520037       0.46521762      -8.72096696
Si      12.45630420      11.74511754       5.88895461       0.31568538       0.86889904      -0.61883591       0.73676778      -0.22375455       0.33042205      -8.72678255
Si      14.54573880      12.70976479       8.93073524      -0.82970853       1.18961347       0.59264101       0.00363687       1.07295358      -0.29383087      -7.76884148
Si      10.48028948       3.99109492       2.79498547      -0.90050600       0.32462001      -0.05385975       0.62173163       0.51263129      -0.22061642      -8.68042798
Si      12.61779392       5.03527205       5.93192480       0.43077788       0.98259961       1.56070622      -1.01128380      -0.73894942      -0.50140375      -8.72511869
Si      14.39234828       6.07703282       9.17889401      -1.41914330       0.20867684      -1.15840386      -0.62730980      -0.47181094       0.01823821      -8.71751614
Si      12.70428372       7.27134262       2.66413227       1.49505315      -0.00643137      -0.71316935      -0.70880112      -1.00013031      -0.53228467      -8.67295556
Si      14.34220104       8.24734838       5.88812157      -0.72398524      -0.87959065      -0.96847172       0.43178721       0.37603111       0.27259556      -8.70941679
Si      16.30652507       9.47069040       8.98589661       0.55357157       0.61533199      -0.01746464      -0.12756066      -0.47068131      -0.16503634      -8.63106756
Si      14.38394717      10.56741680       2.80075129      -1.00575809       0.64820957       0.20115597       0.20194768      -0.07664033      -0.62967065      -8.67501052
Si      16.35314560      11.66436766       5.66100640       0.51584675      -1.41104506      -0.61033430       1.35821427      -0.48190477       0.05368784      -8.61371848
Si      18.23389373      12.71229586       8.97612099       0.04144088       0.58878249      -0.68377789       0.04729673       0.51173675       0.21067431      -8.68795496
Si      14.48053679       3.78291789       2.74273477       0.67402825       0.22105323      -1.23640600      -0.21732673       0.64904557       0.41870050      -8.72462149
Si      16.32112567       5.11994837       6.07700131      -2.05121834      -0.04952974       1.26264707       0.37288368      -0.88913313      -0.92438967      -8.69435286
Si      18.24759799       6.02708172       9.28381240       0.69860337      -0.36968796      -0.21963084      -0.25132599      -0.35771576      -0.17161667      -7.96936856
Si      16.38095480       7.25533660       2.72799448      -0.73131434       0.55022803       0.81508826       0.72173824      -0.62035587       0.57202906      -8.73149602
Si      18.25687357       8.31667200       5.94930590       0.78733255       1.09271239       0.83354320      -0.00342755       0.16653180      -0.25441561      -8.67436337
Si      20.27468080       9.40692190       8.94632491       0.90266758      -0.91153002       0.50125582       0.17918013       0.36039381       0.51388888      -8.72671300
Si      18.22823447      10.60968609       2.48104723       0.67639509      -1.43665384       0.05951039       0.46918439       0.12495548      -0.12055233      -7.95708521
Si      20.30192630      11.67634440       5.89858463      -0.20560463      -0.64906262       0.48421914      -0.36197825      -0.41948881      -0.07727461      -8.71516270
Si      22.20642451      12.83662659       9.04625629       0.41861550       0.78614226       0.06694607       0.27280817      -0.45357852       0.89439192      -7.90442974
Si       2.87618556       1.56893159       3.53513252       1.23536031      -0.52293116      -0.51662746      -0.32963604       0.09446083      -0.40105555      -8.71254547
Si       4.83945869       2.83265952       6.73701954       0.99672796       0.03892473      -0.27775330      -0.21106056       0.45170311      -0.07131129      -8.75965362
Si       2.84531966       3.92654083       0.40086072       0.75606770       0.28621838       0.27025083       0.53568736      -0.70113976       0.08821430      -8.71061131
Si       4.74744760       5.02947248       3.64490714       0.06343234       0.13501503       0.64055300       0.25723837       0.09417036      -0.13804221      -8.64752050
Si       6.69791984       6.12151935       6.91124586       0.62542630      -0.45150943      -0.46448306       0.31847896      -0.00967830      -0.24413843      -8.74795786
Si       4.87726208       7.20082269       0.42462217      -0.28010975      -0.44885329       0.14066090      -0.34855675       0.65712027      -0.89341872      -8.70792752
Si       6.70178163       8.46771128       3.54229537      -1.16723586      -0.98193367       0.47010904       0.48414346      -0.65505449      -0.27234041      -8.67242554
Si       8.68799123       9.41557354       6.64527000      -1.24066974      -0.89585196       0.68082741      -0.05617007       0.12588127      -0.35286446      -8.75358007
Si       4.79828629       0.61215230       0.45396811      -0.52866141      -0.28105106       0.13057948       0.13486889      -0.74937254      -0.70177413      -8.75466751
Si       6.70969391       1.72006939       3.60942542       0.37441931      -0.19898823       0.59999158      -0.34341166      -0.73429752      -0.99683932      -8.73900158
Si       8.75586638       2.70997760       6.51358188      -0.42643730      -0.85054757      -1.24841906      -1.01291836       0.55060279       1.23744505      -8.75266426
Si       6.70432604       3.94926922       0.41484851      -0.06109704      -0.47632534       0.39729095       0.38847941       0.14969429      -0.32991932      -8.73799471
Si       8.51031262       4.96868123       3.57607326       0.67354165       0.42332880       1.36396770       0.51438318       0.84909404       0.15046573      -8.75379295
Si      10.58030354       6.05393946       6.66999701      -0.01847169      -0.97656951      -0.97810801       0.10773576      -0.42327012       0.42797868      -8.72195757
Si       8.63803089       7.31874793       0.42308458       0.05360475       0.45078663       0.39434113       0.69601611      -0.69435855       0.19475595      -8.79938863
Si      10.72689971       8.22504956       3.50333603       0.40043534       0.06475472      -1.14271307      -0.67025912       0.35920171       0.32116188      -8.69904341
Si      12.48736154       9.51339510       6.61281824       0.61228263       0.86243243      -0.37650874      -0.15647882      -0.47070810       0.52035856      -8.70609524
Si       8.64631707       0.44843972       0.38323443      -0.32429756      -0.01643287       0.21875200      -0.28457151       0.30273102       0.40896715      -8.70479486
Si      10.56235805       1.76551557       3.25772315       0.18355461       0.22086854      -1.26816582       0.13778438      -0.76830709       1.18097355      -8.71891668
Si      12.58898540       2.75430575       6.64817310       0.07221182      -1.27987182      -0.60378559      -0.91755377       0.09354777      -0.56074928      -8.70590952
Si      10.46789634       3.85480250       0.45041339      -0.43701995      -0.95021348      -0.62180219       1.15092833       1.00837979       0.00986828      -8.70434894
Si      12.58313646       5.00791315       3.52458013      -1.26996900      -0.42546295       0.92570993      -0.23419140       0.12176301      -0.01592376      -8.67233781
Si      14.40940000       6.09449211       6.87574186      -0.11711902       1.47524540       0.42350058      -0.05658689       0.70459083      -0.45630447      -8.74879884
Si      12.55426539       7.15040324       0.19552107      -0.22875010       0.25083766      -0.07602505      -0.18191402       0.20315866       1.33614679      -8.71704974
Si      14.56094516       8.32893403       3.56620331       0.83092102      -0.92593215       0.17074621      -0.81728978       0.51281318      -0.09718065      -8.76275921
Si      16.26714668       9.42473244       6.57620353       0.94959061       0.49495799       0.28697268       0.21587275       0.39208924       0.45145930      -8.72216646
53
Lattice="11.5478352 0.0 0.0 5.773917198490155 10.000722372470358 0.0 5.773916394327279 3.333571176804646 9.428767828939895" Properties=species:S:1:pos:R:3:momenta:R:3:forces:R:3:energies:R:1 spacegroup="_JSON {\"number\": 1, \"setting\": 1}" unit_cell=conventional occupancy="_JSON {\"0\": {\"Si\": 1.0}, \"1\": {\"Si\": 1.0}, \"2\": {\"Si\": 1.0}, \"3\": {\"Si\": 1.0}, \"4\": {\"Si\": 1.0}, \"5\": {\"Si\": 1.0}, \"6\": {\"Si\": 1.0}, \"7\": {\"Si\": 1.0}, \"8\": {\"Si\": 1.0}, \"9\": {\"Si\": 1.0}, \"10\": {\"Si\": 1.0}, \"11\": {\"Si\": 1.0}, \"12\": {\"Si\": 1.0}, \"13\": {\"Si\": 1.0}, \"14\": {\"Si\": 1.0}, \"15\": {\"Si\": 1.0}, \"16\": {\"Si\": 1.0}, \"17\": {\"Si\": 1.0}, \"18\": {\"Si\": 1.0}, \"19\": {\"Si\": 1.0}, \"20\": {\"Si\": 1.0}, \"21\": {\"Si\": 1.0}, \"22\": {\"Si\": 1.0}, \"23\": {\"Si\": 1.0}, \"24\": {\"Si\": 1.0}, \"25\": {\"Si\": 1.0}, \"26\": {\"Si\": 1.0}, \"27\": {\"Si\": 1.0}, \"28\": {\"Si\": 1.0}, \"29\": {\"Si\": 1.0}, \"30\": {\"Si\": 1.0}, \"31\": {\"Si\": 1.0}, \"32\": {\"Si\": 1.0}, \"33\": {\"Si\": 1.0}, \"34\": {\"Si\": 1.0}, \"35\": {\"Si\": 1.0}, \"36\": {\"Si\": 1.0}, \"37\": {\"Si\": 1.0}, \"38\": {\"Si\": 1.0}, \"39\": {\"Si\": 1.0}, \"40\": {\"Si\": 1.0}, \"41\": {\"Si\": 1.0}, \"42\": {\"Si\": 1.0}, \"43\": {\"Si\": 1.0}, \"44\": {\"Si\": 1.0}, \"45\": {\"Si\": 1.0}, \"46\": {\"Si\": 1.0}, \"47\": {\"Si\": 1.0}, \"48\": {\"Si\": 1.0}, \"49\": {\"Si\": 1.0}, \"50\": {\"Si\": 1.0}, \"51\": {\"Si\": 1.0}, \"52\": {\"Si\": 1.0}}" energy=-458.25801230282883 stress="0.0046620838649396815 0.0013515430249968915 0.0015394687983330754 0.0013515430249968915 0.01171595645588778 -0.002190279525656678 0.0015394687983330754 -0.002190279525656678 0.010408281554808229" free_energy=-458.25801230282883 pbc="T T T"
Si       6.65241116       3.93079604       2.68708275      -0.14607659       1.12362139       0.22873040       0.12526095      -0.11335553       1.74298315      -8.67997653
Si       8.52139755       5.04042466       5.95897920      -0.00036679       0.44642288       0.21718338       1.05088046      -1.03592670      -0.09044658      -8.71323187
Si      10.63285398       6.16940106       9.05166050      -0.56013621       0.34008077      -0.62378994      -0.86323526      -0.74009473      -0.39235452      -8.67822951
Si       8.61878083       7.23746627       2.79563393      -0.76529859       0.57055061       0.67977840       0.34866820       0.22889600       0.10271515      -8.67752880
Si      10.60396867       8.25566902       5.88419388       0.38857420       0.58570986      -1.51909824       0.06445552       0.23245581      -0.43571402      -8.68321208
Si      12.54748101       9.48864852       9.04921937      -0.99043551      -1.02304918       0.44100876       0.22548357       0.06072976      -0.47134106      -8.70339847
Si      10.61039138      10.49724177       2.82160979       0.57052404      -0.11761192       0.80796861       0.32505920      -0.24639655      -0.63986222      -8.74317300
Si      12.49676316      11.77675047       5.87131940       1.04693492       0.23172679      -0.07291444       0.02899080      -0.62880434       0.25060954      -8.76103044
Si      14.49676344      12.80272717       8.94820801      -1.14871793       2.06864565       0.08814800      -0.41516069      -0.03790397      -0.24191393      -7.83763911
Si      10.46029306       4.02217848       2.78233781       0.17005632       0.69063851      -0.42748658       0.72961821      -0.14510922      -0.21556969      -8.71463028
Si      12.60245145       5.04762350       5.98619676      -0.91872249      -0.62609140       0.38438492      -0.62338391      -1.16799422      -0.97745892      -8.70237420
Si      14.30828174       6.06995571       9.13127523      -1.42499916      -0.42380974      -0.45390727       0.76621251      -0.25804753       0.78120441      -8.70365017
Si      12.74511251       7.23188959       2.61339390      -0.09993481      -1.43287859      -1.00349897      -1.31775108      -0.72840097       0.33426873      -8.67689648
Si      14.32885210       8.23077513       5.85383328       0.31034411       0.52907297      -0.25384616       0.80294093       1.45758587       0.60046636      -8.67437730
Si      16.32668829       9.48228511       8.98231881       0.18860592      -0.18255179      -0.03207493      -0.22813998      -0.49719467       0.17549676      -8.66917252
Si      14.34858233      10.59023513       2.78831706      -0.18960504       0.10029542      -0.62935361       0.78362642      -0.54178759      -0.43307528      -8.68123178
Si      16.42041928      11.58473711       5.63053065       1.70716162      -1.33816036      -0.51347143       0.03005502       0.61824793       0.18916658      -8.66616876
Si      18.23579847      12.75474708       8.94956488      -0.00326245       0.84841579      -0.32756442      -0.08651546      -0.19898932       0.21583387      -8.69235869
Si      14.50161358       3.81624387       2.70781791       0.03809774       0.95742971       0.12170006      -0.57398834       0.28000784       1.23693616      -8.68802876
Si      16.24402498       5.08733682       6.10409413      -0.66163272      -1.03201478      -0.25452633       1.23703098      -0.23532343      -1.00348029      -8.67331897
Si      18.27586653       5.99533320       9.26506681       0.41669501      -0.79951090      -0.49935614      -0.11002890      -0.18710739      -0.18415778      -7.95277565
Si      16.37491421       7.25104900       2.78036232       0.47417534      -0.80107860       0.93229495       0.58835861      -0.92689965      -0.38735998      -8.72892537
Si      18.28753202       8.36669290       5.97855466       0.18236462       0.55189018       0.19361424      -0.74979067      -0.84156831      -0.57978867      -8.67345787
Si      20.31695228       9.37963894       8.98903911       0.47419295      -0.05120447       1.01926953      -0.72965285       0.65096477       0.09465694      -8.71852848
Si      18.27810247      10.54184921       2.47992174       1.12356576      -1.11033306      -0.09494314       0.06470826       0.28110927      -0.08714418      -7.96309868
Si      20.28445726      11.62749602       5.91705933      -0.34297467      -1.13113607       0.14597553       0.09568401      -0.08631755      -0.36270202      -8.68362378
Si      22.23801467      12.85904873       9.08247695       0.73929163       0.09256783       1.22795239       0.08588347      -0.35329037       0.54697491      -7.91572223
Si       2.92046682       1.55189269       3.49877422       0.33115176      -0.00473388      -0.73351096      -0.78430085       0.55508652       0.13080695      -8.69598766
Si       4.87334612       2.84747818       6.72554648       0.14847401       0.37149864      -0.03677302      -0.77251263      -0.15807107       0.40229850      -8.74824964
Si       2.90111490       3.91109915       0.41297458       1.22914306      -0.88001608       0.10130217      -0.03264036      -0.69892538      -0.24868083      -8.74521928
Si       4.75768944       5.03964922       3.67078511       0.26075043       0.22095152       0.31147887      -0.00322484      -0.03657531      -0.26653466      -8.65374786
Si       6.72589714       6.10505740       6.88209775       0.13074396      -0.04532372      -0.55504264      -0.86487392       0.48136104       0.10618848      -8.71124154
Si       4.85139150       7.20714200       0.40640846      -0.62547404       0.72809401      -0.61210224      -0.02358596       0.78614554      -0.02679952      -8.72146498
Si       6.66566530       8.39925910       3.56052992      -0.09907927      -1.41951788       0.30344535       0.89575676       0.16581027       0.03240808      -8.69909325
Si       8.63996941       9.37846246       6.66894347      -0.23706324      -0.42860473       0.28979939       1.28907103       0.46043744      -0.10218571      -8.75913456
Si       4.78109254       0.57952389       0.43866025      -0.03048502      -0.72783801      -0.58823109       0.49730448       0.16494155      -0.21112475      -8.72785682
Si       6.71131690       1.69522351       3.59563289      -0.34833952      -0.48168440      -1.12831154      -0.45991759       0.31398548      -0.98390879      -8.73440991
Si       8.71069537       2.69478027       6.49826974      -0.88430938       0.37320237       0.65164139       0.56451927       0.94831052       1.17991448      -8.66912015
Si       6.71415407       3.93609990       0.41542108       0.32265011       0.04270978      -0.44105056      -0.05851665       0.40963737      -0.55001923      -8.77854838
Si       8.55319381       5.02032155       3.64202222       0.75260511       1.43627643       0.92747165      -0.29568796       0.40326670      -0.71494213      -8.75014856
Si      10.58123729       6.00035576       6.64182358      -0.00892081      -0.76825719      -0.01829488      -0.13316603       0.72919341       0.72490034      -8.70350602
Si       8.66128282       7.31766504       0.44572302       0.66702012      -0.40165229       0.33646706       0.04268268      -0.34079341      -0.30794286      -8.77545343
Si      10.72420628       8.23879602       3.45892580      -0.43724862       0.36988486      -0.51348930      -0.40649720       0.00461067       0.46178190      -8.67467374
Si      12.50858149       9.53680153       6.61564015       0.13028932      -0.01380346       0.49964849      -0.41619908      -0.63066751       0.57146300      -8.67342632
Si       8.61975697       0.46055906       0.40519602      -0.62184290       0.46824753       0.49356443      -0.01860195       0.25468418      -0.08571420      -8.71735334
Si      10.57786144       1.74633865       3.23645907       0.42219157      -0.89768840       0.40439497       0.19061114      -0.55337127       0.95323841      -8.69885034
Si      12.55915786       2.70027810       6.59898308      -1.09881688      -0.63992989      -1.14606747      -0.46094689       0.64003134      -0.06239761      -8.72312611
Si      10.48464730       3.84443464       0.41823519       0.91028219       0.49623445      -0.61453617       0.51284073       0.77196451      -0.01340076      -8.68186686
Si      12.51869753       4.99179314       3.56781115      -0.98423152      -0.16924128       0.63004984       0.56086792       0.19401082      -0.37755726      -8.63328744
Si      14.39586520       6.19075598       6.87762262      -0.46773580       1.92028218      -0.40797372      -0.31484982      -0.38354685      -0.64995846      -8.75029699
Si      12.54562581       7.17124793       0.23675538       0.04683252       0.52804609       1.44663882       0.38542264       0.13223869       0.51680679      -8.72755324
Si      14.56406661       8.31166112       3.56909162      -0.79823858       0.37754241      -0.13839437      -1.11720577       0.92198578      -0.40311855      -8.73391277
Si      16.31498946       9.45541343       6.60546501       0.71123018       0.47768341       0.75569797      -0.43161913      -0.37523625       0.15553498      -8.71472336
53
Lattice="11.5478352 0.0 0.0 5.773917198490155 10.000722372470358 0.0 5.773916394327279 3.333571176804646 9.428767828939895" Properties=species:S:1:pos:R:3:momenta:R:3:forces:R:3:energies:R:1 spacegroup="_JSON {\"number\": 1, \"setting\": 1}" unit_cell=conventional occupancy="_JSON {\"0\": {\"Si\": 1.0}, \"1\": {\"Si\": 1.0}, \"2\": {\"Si\": 1.0}, \"3\": {\"Si\": 1.0}, \"4\": {\"Si\": 1.0}, \"5\": {\"Si\": 1.0}, \"6\": {\"Si\": 1.0}, \"7\": {\"Si\": 1.0}, \"8\": {\"Si\": 1.0}, \"9\": {\"Si\": 1.0}, \"10\": {\"Si\": 1.0}, \"11\": {\"Si\": 1.0}, \"12\": {\"Si\": 1.0}, \"13\": {\"Si\": 1.0}, \"14\": {\"Si\": 1.0}, \"15\": {\"Si\": 1.0}, \"16\": {\"Si\": 1.0}, \"17\": {\"Si\": 1.0}, \"18\": {\"Si\": 1.0}, \"19\": {\"Si\": 1.0}, \"20\": {\"Si\": 1.0}, \"21\": {\"Si\": 1.0}, \"22\": {\"Si\": 1.0}, \"23\": {\"Si\": 1.0}, \"24\": {\"Si\": 1.0}, \"25\": {\"Si\": 1.0}, \"26\": {\"Si\": 1.0}, \"27\": {\"Si\": 1.0}, \"28\": {\"Si\": 1.0}, \"29\": {\"Si\": 1.0}, \"30\": {\"Si\": 1.0}, \"31\": {\"Si\": 1.0}, \"32\": {\"Si\": 1.0}, \"33\": {\"Si\": 1.0}, \"34\": {\"Si\": 1.0}, \"35\": {\"Si\": 1.0}, \"36\": {\"Si\": 1.0}, \"37\": {\"Si\": 1.0}, \"38\": {\"Si\": 1.0}, \"39\": {\"Si\": 1.0}, \"40\": {\"Si\": 1.0}, \"41\": {\"Si\": 1.0}, \"42\": {\"Si\": 1.0}, \"43\": {\"Si\": 1.0}, \"44\": {\"Si\": 1.0}, \"45\": {\"Si\": 1.0}, \"46\": {\"Si\": 1.0}, \"47\": {\"Si\": 1.0}, \"48\": {\"Si\": 1.0}, \"49\": {\"Si\": 1.0}, \"50\": {\"Si\": 1.0}, \"51\": {\"Si\": 1.0}, \"52\": {\"Si\": 1.0}}" energy=-458.75235912413007 stress="0.009052438778566183 -0.00025587582909433754 0.0003903655061930732 -0.00025587582909433754 0.009566095005514962 0.0005004478385142666 0.0003903655061930732 0.0005004478385142666 0.011746498829789833" free_energy=-458.75235912413007 pbc="T T T"
Si       6.65438642       3.98110102       2.75474317       0.28843616       0.71641357       1.99569536       0.38384737      -0.41500218       0.36186359      -8.68645893
Si       8.55786374       5.02588328       5.96854647       1.21537520      -0.84683141       0.17658014       0.36569142      -0.42300957       0.00482454      -8.74784987
Si      10.58562761       6.15472488       9.00951244      -0.89470058      -0.92011856      -0.83834876       0.46961991      -0.80102772       0.18495785      -8.70795748
Si       8.59868737       7.27395860       2.82831378       0.11428495       0.76521872       0.40405090       0.78032513       0.00489158      -0.52779554      -8.71326399
Si      10.62550943       8.28803491       5.79899371       0.41534711       0.51402994      -1.46685779      -0.00604706      -0.29447533       0.59465769      -8.68205557
Si      12.50979519       9.44908087       9.05431212      -0.38574888      -0.26680464      -0.21803010       0.46305406       0.89597858      -0.34202301      -8.71670255
Si      10.64370933      10.48387572       2.82865216       0.47640920      -0.30921626      -0.69366033      -0.51959553       0.07995448      -1.22408622      -8.73335641
Si      12.54048382      11.76322726       5.87077702       0.44305924      -0.72497855      -0.04242825      -0.64483130      -0.52122877      -0.10625079      -8.75056499
Si      14.41834494      12.89815399       8.95107465      -1.81474514       1.38493671       0.19588594      -0.30408397      -0.76159967       0.44360631      -7.90104177
Si      10.49255956       4.04334320       2.75398907       0.93490912      -0.04355457      -0.59851902       0.23339502      -0.76584057      -0.00013671      -8.69780902
Si      12.53991959       4.97946947       5.97068038      -1.29120385      -1.69131357      -0.89496702       0.05889535      -0.05354773      -0.64434889      -8.72743714
Si      14.27702238       6.04604672       9.13302165       0.41922557      -0.28844715       0.35844342       1.46662575       0.52615637       0.15752934      -8.68730759
Si      12.69093834       7.14012835       2.59034343      -1.87139538      -1.78842674       0.42315404      -0.93257971       0.36960332       1.44749199      -8.69919962
Si      14.37262211       8.31815397       5.86177763       1.24030427       2.71710164       0.49202353       0.31577387       1.06910261       0.33565600      -8.73533193
Si      16.33338094       9.45940022       8.99145668       0.18308196      -0.54197266       0.43230139       0.21701605       0.08855567       0.36619614      -8.73122685
Si      14.36633950      10.57788290       2.74395586       0.75855989      -0.44882577      -0.94118541       0.35974252      -0.06035164       0.03835781      -8.73540968
Si      16.49282250      11.54458495       5.61612576       0.72745212      -0.14239468       0.08898927      -1.24041832       0.81443287       0.67543268      -8.63638013
Si      18.23257801      12.78483899       8.93808390      -0.09419627       0.19515423      -0.15917012       0.01540010      -0.59799873       0.02333599      -8.68930713
Si      14.48162353       3.87132478       2.75730851      -0.76099874       1.01089613       1.57074806      -0.40417682      -0.24409419       0.46771270      -8.69657457
Si      16.25068397       5.03836241       6.05823178       0.73351141      -0.58820992      -1.32870209       0.52077036       0.69782505      -0.33315365      -8.70516172
Si      18.29521508       5.94912165       9.23216082       0.33131352      -0.89088524      -0.73773464      -0.06940391       0.09472860      -0.11340995      -7.95689213
Si      16.40735073       7.18615199       2.80904374       0.47949282      -1.33522061       0.09332837      -0.49469227       0.38554724      -0.65207142      -8.70904762
Si      18.27074202       8.36080636       5.96820338      -0.66633898      -0.73294078      -0.49901705      -0.14871396      -0.66559556      -0.22661984      -8.70631904
Si      20.30958857       9.39686445       9.04087912      -0.75302946       0.57527568       0.86540578      -0.70149926       0.13167799      -0.26879663      -8.72126073
Si      18.33351296      10.49304715       2.47223540       0.86460035      -0.76898416      -0.18023815      -0.41936017       0.20860331      -0.01409962      -7.97946968
Si      20.27004055      11.57391195       5.90955743      -0.22942642      -0.72138259      -0.43403923       0.01675223       0.64346144      -0.36127561      -8.66721202
Si      22.27585664      12.85860600       9.16002960       0.61505731       0.07629405       1.55370766      -0.25614060       0.36945256      -0.14615669      -7.94357946
Si       2.91172450       1.57277146       3.46987784      -0.53087547       0.74507285      -0.29753726      -0.26462330       0.33180089       0.40507775      -8.69406947
Si       4.85474108       2.84941099       6.74266014      -0.74627152      -0.47581972       0.71843597      -0.33337379      -0.82064125       0.50148500      -8.72101080
Si       2.95286280       3.84726064       0.41197213       0.50481022      -1.32190351      -0.02298064      -0.94849449       0.20570140       0.19423998      -8.74411444
Si       4.76848490       5.04535902       3.67873640       0.10258550      -0.09926712       0.03803738      -0.19126091      -0.40079321      -0.09126857      -8.74847878
Si       6.69950195       6.11851752       6.85662200      -1.01403143       0.43461011      -0.45619201      -0.38875238       0.00011951      -0.03811719      -8.70787560
Si       4.82420169       7.26792532       0.38377303      -0.29603011       1.36607064      -0.08032018       0.41349270      -0.09434973       0.63785836      -8.73564685
Si       6.69189470       8.34094731       3.57949346       0.95820707      -0.64038553       0.41996638       0.33023120       0.79328899       0.03037223      -8.72062659
Si       8.67690193       9.37072279       6.68317902       1.48677410       0.02775456       0.27074557       0.66770837       0.05730222      -0.02540653      -8.77182205
Si       4.79719414       0.55425665       0.40481182       0.55327303      -0.16502471      -0.62654742       0.13292019       0.43655537       0.08965766      -8.69801228
Si       6.68511402       1.68936992       3.51373526      -0.40560560       0.34103385      -1.65911598       0.47799749       0.62195723       0.32165258      -8.73993990
Si       8.69996064       2.74625915       6.57015612       0.60009912       1.40525329       1.88043068       1.03813416       0.19696444       0.33574237      -8.64341227
Si       6.71778704       3.94890435       0.38318358      -0.35836304       0.30185686      -0.51025730      -0.70931292      -0.14776724       0.50775473      -8.76938799
Si       8.58116512       5.10166261       3.65919133       0.36376744       1.44433202      -0.28774157      -0.10511760      -0.46453008      -0.75620701      -8.74791126
Si      10.57339313       5.99663768       6.66331602      -0.29564440       0.71964242       0.66970849      -0.14598482       1.07742735       0.05336787      -8.71063932
Si       8.68861100       7.29089053       0.44773189       0.21006233      -0.47803424      -0.29920439      -0.59557278       0.21662925      -0.45921688      -8.68201908
Si      10.69033584       8.25337504       3.44650227      -0.75542689       0.10461010      -0.04306242      -0.01071447      -0.30235009       0.13389161      -8.69606002
Si      12.50071839       9.51543918       6.65960001      -0.38173286      -0.69440691       1.05279711      -0.21988772      -0.20601203       0.07398284      -8.70886102
Si       8.59300440       0.48979735       0.42114754      -0.26364191       0.52526726      -0.00564572       0.49933979      -0.21456871      -0.55003968      -8.72566084
Si      10.60834083       1.68632805       3.28497815       0.74535731      -1.21952115       1.22692881       0.20418993       0.11764054       0.08442791      -8.69191949
Si      12.49789637       2.68914629       6.54507140      -0.93702337       0.12972003      -0.73338633       0.69966769       0.29458585       0.62198849      -8.74300299
Si      10.54277484       3.88965403       0.38571429       1.14804623       0.98316358      -0.59358637      -0.11470848      -0.19968770       0.11051138      -8.67767795
Si      12.49156111       4.98829772       3.58451935      -0.04077529      -0.02791650      -0.00565414       0.58468691      -0.06227242      -0.41460147      -8.70156293
Si      14.36125769       6.25782979       6.83213808      -0.78355553       0.32932840      -1.28028609      -0.04488880      -1.53649887      -0.47110328      -8.71958953
Si      12.55950414       7.20157862       0.31493213       0.36534963       0.56888114       1.18676435      -0.06467572      -0.09948109      -0.80997633      -8.72314453
Si      14.48948217       8.35467935       3.54158426      -1.79722238       0.95909328      -0.93623248      -0.14938100      -0.25538863      -0.47313120      -8.73045187
Si      16.33511850       9.46322282       6.64722885       0.08923131      -0.16822384       0.75651968      -0.28698553      -0.32183201      -0.15434067      -8.73528365
53
Lattice="11.5478352 0.0 0.0 5.773917198490155 10.000722372470358 0.0 5.773916394327279 3.333571176804646 9.428767828939895" Properties=species:S:1:pos:R:3:momenta:R:3:forces:R:3:energies:R:1 spacegroup="_JSON {\"number\": 1, \"setting\": 1}" unit_cell=conventional occupancy="_JSON {\"0\": {\"Si\": 1.0}, \"1\": {\"Si\": 1.0}, \"2\": {\"Si\": 1.0}, \"3\": {\"Si\": 1.0}, \"4\": {\"Si\": 1.0}, \"5\": {\"Si\": 1.0}, \"6\": {\"Si\": 1.0}, \"7\": {\"Si\": 1.0}, \"8\": {\"Si\": 1.0}, \"9\": {\"Si\": 1.0}, \"10\": {\"Si\": 1.0}, \"11\": {\"Si\": 1.0}, \"12\": {\"Si\": 1.0}, \"13\": {\"Si\": 1.0}, \"14\": {\"Si\": 1.0}, \"15\": {\"Si\": 1.0}, \"16\": {\"Si\": 1.0}, \"17\": {\"Si\": 1.0}, \"18\": {\"Si\": 1.0}, \"19\": {\"Si\": 1.0}, \"20\": {\"Si\": 1.0}, \"21\": {\"Si\": 1.0}, \"22\": {\"Si\": 1.0}, \"23\": {\"Si\": 1.0}, \"24\": {\"Si\": 1.0}, \"25\": {\"Si\": 1.0}, \"26\": {\"Si\": 1.0}, \"27\": {\"Si\": 1.0}, \"28\": {\"Si\": 1.0}, \"29\": {\"Si\": 1.0}, \"30\": {\"Si\": 1.0}, \"31\": {\"Si\": 1.0}, \"32\": {\"Si\": 1.0}, \"33\": {\"Si\": 1.0}, \"34\": {\"Si\": 1.0}, \"35\": {\"Si\": 1.0}, \"36\": {\"Si\": 1.0}, \"37\": {\"Si\": 1.0}, \"38\": {\"Si\": 1.0}, \"39\": {\"Si\": 1.0}, \"40\": {\"Si\": 1.0}, \"41\": {\"Si\": 1.0}, \"42\": {\"Si\": 1.0}, \"43\": {\"Si\": 1.0}, \"44\": {\"Si\": 1.0}, \"45\": {\"Si\": 1.0}, \"46\": {\"Si\": 1.0}, \"47\": {\"Si\": 1.0}, \"48\": {\"Si\": 1.0}, \"49\": {\"Si\": 1.0}, \"50\": {\"Si\": 1.0}, \"51\": {\"Si\": 1.0}, \"52\": {\"Si\": 1.0}}" energy=-458.75331138055526 stress="0.012829884386860554 -0.0013273880493419813 7.217774279624782e-05 -0.0013273880493419813 0.0084325743950062 0.002674229474370861 7.217774279624782e-05 0.002674229474370861 0.011423314647288157" free_energy=-458.75331138055526 pbc="T T T"
Si       6.68289492       4.00253174       2.85292601       0.73639477       0.11468455       1.38331134       0.13808116      -0.35441255      -1.06269377      -8.70477363
Si       8.62290850       4.98281049       5.97498515       1.03818474      -0.45950529      -0.01767856      -0.51779498       0.86381707      -0.31675569      -8.70738804
Si      10.56558645       6.08425045       8.98190850       0.19038635      -1.51940413      -0.04505521       0.69874106       0.17787310       0.81580901      -8.75233635
Si       8.63259917       7.31095503       2.82234115       1.04990583       0.56171365      -0.72720805       0.25776752      -0.32636671      -0.88355949      -8.73002577
Si      10.64768803       8.30125813       5.75561195       0.43660004      -0.02458241      -0.03361514       0.01426724      -0.34107080       1.16383490      -8.70824158
Si      12.50317140       9.46997832       9.03641175       0.02518470       0.96969243      -0.30618196       0.03495279       0.51491367       0.27119708      -8.74944582
Si      10.64388731      10.47804217       2.74893126      -0.47272552       0.22958469      -2.17063459      -0.52824501       0.62626226      -0.51305956      -8.72159212
Si      12.54249457      11.71290709       5.86677482      -0.26997044      -1.01884539      -0.04107580      -0.27398565       0.16071040       0.15082097      -8.66199129
Si      14.31775841      12.94181130       8.98722915      -1.87364210       0.30939601       1.30004763       0.26349885      -0.63780858       0.87622771      -7.94136332
Si      10.54422548       4.00933147       2.72449491       0.91817329      -1.25927288      -0.48663995      -0.22635494      -0.77979882       0.15578946      -8.65412658
Si      12.47620891       4.90677127       5.90692015      -1.11666501      -0.75947512      -1.35473829       0.15295293       1.17181765       0.07841398      -8.71891525
Si      14.34808911       6.06081127       9.14703930       2.04757465       0.96930443      -0.01578585       0.49962989       0.95251971      -0.59570216      -8.69408820
Si      12.56563605       7.07509872       2.66361844      -2.68300992      -0.42731109       2.11020972      -0.03139278       1.36377717       0.43701449      -8.72257279
Si      14.43679262       8.47733487       5.89327477       0.90352959       2.78395432       0.53390227      -0.84805741      -1.12709719      -0.34861695      -8.72675044
Si      16.35378916       9.44273985       9.02538157       0.59444247       0.04422948       0.77212942       0.20773593       0.60693484       0.02178163      -8.74037022
Si      14.41196501      10.56130458       2.69922626       0.83528991      -0.03220154      -0.72278680      -0.21264235       0.51165166       0.20345886      -8.74700672
Si      16.47871617      11.56362122       5.65354881      -1.25970594       0.77578895       1.43040217      -1.18937152       0.44613158       1.00560722      -8.64581619
Si      18.23162698      12.77349699       8.92933161       0.12448077      -0.55770613      -0.18161851       0.27017242      -0.31592866      -0.00178060      -8.69942554
Si      14.43327897       3.90889180       2.84171185      -0.90714409       0.30509587       1.33330602       0.28181904      -0.68968773      -0.75902945      -8.70336214
Si      16.29744031       5.03116279       5.98765233       0.81819947       0.15957449      -1.11635841      -0.39137380       0.10657399       0.61722184      -8.72872514
Si      18.30781327       5.90853324       9.18966296       0.09649811      -0.61461740      -0.86556557      -0.26809692       0.25400747      -0.04503281      -7.97752974
Si      16.40985602       7.14593532       2.79184569      -0.40043910       0.00647756      -0.63780407      -0.56798542       1.16316729      -0.19756602      -8.65590765
Si      18.24276307       8.30736380       5.94117697      -0.18633642      -1.07752747      -0.38695336       0.68578173       0.22502827       0.33451343      -8.70030399
Si      20.25440809       9.42544308       9.07453824      -1.08739797       0.39435190       0.39293455       0.32074559      -0.33941126      -0.36107072      -8.70895224
Si      18.35997961      10.46072481       2.46370196       0.11654434      -0.44141264      -0.11236080      -0.51879505       0.28935582       0.11266892      -8.00562236
Si      20.25717623      11.56388066       5.87633431      -0.27048046       0.33212724      -0.73374413      -0.01708455       0.60416082       0.03130604      -8.69378681
Si      22.29657672      12.88358862       9.22955715       0.16170832       0.93567726       0.98292844      -0.30032917       0.58060820      -0.58914008      -7.98583254
Si       2.88139013       1.61763759       3.46893245      -0.50071723       0.81235342       0.21334921       0.22748302      -0.27036909       0.20768101      -8.69056669
Si       4.81059959       2.79771316       6.79455337      -0.77721391      -1.31456686       1.11817625       0.29567297      -0.12399482      -0.05211685      -8.67204245
Si       2.93906223       3.79494609       0.42430377      -1.00515726      -0.54483890       0.55659658      -0.83071372       0.69826343       0.43335616      -8.68666680
Si       4.76628461       5.02355744       3.67733785      -0.16862629      -0.69415040      -0.12625944      -0.11503780      -0.24093798      -0.22390366      -8.79251750
Si       6.64563227       6.13127512       6.82840004      -0.76237890      -0.12178027      -0.64507971       0.69481954      -0.66830181      -0.13723485      -8.70640488
Si       4.82415408       7.32335908       0.40453231       0.25037794       0.55204403       0.81852081       0.24156438      -0.83282909       0.41559595      -8.73414931
Si       6.74239430       8.33713839       3.59841331       0.74728524       0.42944104       0.19896562      -0.51696655       0.52513110      -0.36250735      -8.71838542
Si       8.76205971       9.36925925       6.69430286       1.39572451      -0.13429928       0.11311583      -0.75712974      -0.14054488      -0.17725296      -8.72521306
Si       4.82175714       0.55649229       0.37424715       0.20677038       0.08873145      -0.57891058      -0.54473447      -0.19969861      -0.06971609      -8.71626785
Si       6.69020905       1.72394456       3.45007664       0.66797277       0.76736638      -0.60254739       0.73699932      -0.19370226       0.96511755      -8.73107236
Si       8.75906247       2.80934691       6.66895464       1.36441036       0.65426986       1.65297555      -0.09303530      -1.11432994      -0.56324940      -8.65405733
Si       6.67590405       3.95261452       0.38352627      -1.06728255      -0.22820048       0.59652329      -0.03934111      -0.40026527       0.79077345      -8.70349218
Si       8.60365140       5.15050775       3.62283902       0.63257318       0.27368585      -0.92554139       0.43292034      -1.00974859      -0.08590737      -8.73330179
Si      10.55695451       6.06951356       6.68789840      -0.23265931       1.86829827       0.05411102       0.22895300       0.31570523      -0.74760553      -8.72458515
Si       8.67542878       7.27829739       0.41655538      -0.67690563       0.06123196      -0.82542022      -0.44270117       0.46122909      -0.20232752      -8.64556093
Si      10.65419295       8.25000282       3.44526973      -0.55521414      -0.11376896      -0.04749623       0.24225956       0.17702157      -0.02538248      -8.75226636
Si      12.47689796       9.47821693       6.70860479      -0.42325935      -0.58737428       0.63399761       0.18509001       0.33092499      -0.62172768      -8.74966339
Si       8.60149567       0.50581145       0.39790702       0.60819000       0.07269898      -0.87590798       0.56893429      -0.24802940      -0.52244987      -8.71969001
Si      10.65368326       1.63117767       3.34302492       0.92492429      -0.81858768       0.84014150      -0.02956127       0.37080526      -0.47111919      -8.68661307
Si      12.48318388       2.69854254       6.53489153       0.43601751       0.06267318       0.38313630       0.91522449      -0.33786981       0.75142666      -8.74860777
Si      10.59720957       3.92142509       0.36183010       0.92030164       0.03332981      -0.26192513      -0.14274314      -0.93524382       0.31531899      -8.70218215
Si      12.50431033       4.97858191       3.57224400       0.33965551      -0.44600839      -0.36916044      -0.15128724      -0.44574784      -0.05744210      -8.76611072
Si      14.32375405       6.22160839       6.74921237      -0.52591050      -1.48424436      -1.80334390       0.42216350      -0.65232366      -0.14647466      -8.64640141
Si      12.56841380       7.22532082       0.34501872      -0.16322037       0.29435271       0.07418472      -0.59324883      -0.25973708      -0.37618081      -8.73969530
Si      14.39908301       8.38278775       3.48413251      -1.47313387      -0.05309048      -1.01818382       0.54655454      -0.88369315       0.43163079      -8.66395883
Si      16.33863845       9.45067271       6.68071986       0.27189557      -0.12935797       0.54261543       0.58322478       0.37055778      -0.06996045      -8.75758620
53
Lattice="11.5478352 0.0 0.0 5.773917198490155 10.000722372470358 0.0 5.773916394327279 3.333571176804646 9.428767828939895" Properties=species:S:1:pos:R:3:momenta:R:3:forces:R:3:energies:R:1 spacegroup="_JSON {\"number\": 1, \"setting\": 1}" unit_cell=conventional occupancy="_JSON {\"0\": {\"Si\": 1.0}, \"1\": {\"Si\": 1.0}, \"2\": {\"Si\": 1.0}, \"3\": {\"Si\": 1.0}, \"4\": {\"Si\": 1.0}, \"5\": {\"Si\": 1.0}, \"6\": {\"Si\": 1.0}, \"7\": {\"Si\": 1.0}, \"8\": {\"Si\": 1.0}, \"9\": {\"Si\": 1.0}, \"10\": {\"Si\": 1.0}, \"11\": {\"Si\": 1.0}, \"12\": {\"Si\": 1.0}, \"13\": {\"Si\": 1.0}, \"14\": {\"Si\": 1.0}, \"15\": {\"Si\": 1.0}, \"16\": {\"Si\": 1.0}, \"17\": {\"Si\": 1.0}, \"18\": {\"Si\": 1.0}, \"19\": {\"Si\": 1.0}, \"20\": {\"Si\": 1.0}, \"21\": {\"Si\": 1.0}, \"22\": {\"Si\": 1.0}, \"23\": {\"Si\": 1.0}, \"24\": {\"Si\": 1.0}, \"25\": {\"Si\": 1.0}, \"26\": {\"Si\": 1.0}, \"27\": {\"Si\": 1.0}, \"28\": {\"Si\": 1.0}, \"29\": {\"Si\": 1.0}, \"30\": {\"Si\": 1.0}, \"31\": {\"Si\": 1.0}, \"32\": {\"Si\": 1.0}, \"33\": {\"Si\": 1.0}, \"34\": {\"Si\": 1.0}, \"35\": {\"Si\": 1.0}, \"36\": {\"Si\": 1.0}, \"37\": {\"Si\": 1.0}, \"38\": {\"Si\": 1.0}, \"39\": {\"Si\": 1.0}, \"40\": {\"Si\": 1.0}, \"41\": {\"Si\": 1.0}, \"42\": {\"Si\": 1.0}, \"43\": {\"Si\": 1.0}, \"44\": {\"Si\": 1.0}, \"45\": {\"Si\": 1.0}, \"46\": {\"Si\": 1.0}, \"47\": {\"Si\": 1.0}, \"48\": {\"Si\": 1.0}, \"49\": {\"Si\": 1.0}, \"50\": {\"Si\": 1.0}, \"51\": {\"Si\": 1.0}, \"52\": {\"Si\": 1.0}}" energy=-458.6388185889198 stress="0.011009364083697418 -6.229031848644365e-05 0.00016835122742033245 -6.229031848644365e-05 0.012015346983944271 0.001419459909807836 0.00016835122742033245 0.001419459909807836 0.012363940420792367" free_energy=-458.6388185889198 pbc="T T T"
Si       6.72210972       3.99747698       2.87928888       0.67339298      -0.26499628      -0.39930127      -0.18837397      -0.18889303      -1.12458545      -8.75538045
Si       8.65504374       4.99450382       5.95931825       0.19112408       0.82999168      -0.59043059      -0.49333199       0.56794423      -0.35889217      -8.69550131
Si      10.59215880       6.02727283       9.00877007       0.59493653      -0.37245388       0.94667279      -0.18753669       1.24388415       0.34725946      -8.73641809
Si       8.68327725       7.32275388       2.75317981       0.61637624      -0.20425141      -1.78463876      -0.75448285      -0.67052804      -0.37699777      -8.73098904
Si      10.66997167       8.29298413       5.79204454       0.36610615      -0.11975601       1.21230436      -0.17253391       0.33353275       0.34073513      -8.73907579
Si      12.49902156       9.52611058       9.03606849      -0.29468283       0.87068926       0.33870498      -0.38724417      -0.65002631       0.44210911      -8.74260611
Si      10.60793594      10.51674035       2.63344147      -0.70125762       1.24014733      -1.84375296       0.24037210       0.59518909       0.99058474      -8.67432842
Si      12.52258994      11.67216056       5.87319386      -0.39669366      -0.42350504       0.31908563       0.09666620       0.59459201       0.27883153      -8.59998311
Si      14.23344118      12.93815858       9.08380270      -1.27747948      -0.34545275       2.19354201       0.50460842      -0.21820156       0.14071621      -7.97661627
Si      10.58161094       3.91652728       2.70622194       0.47804600      -2.17567703      -0.18793978      -0.33911012      -0.35872322       0.23598448      -8.67460043
Si      12.42358016       4.91153836       5.84802336      -0.86078083       0.82111875      -0.71405536       0.26970118       0.70275048       0.75656357      -8.71542521
Si      14.45595623       6.13968627       9.11843077       1.67797163       1.78667954      -1.13521344      -1.00741578      -0.02003234      -0.82265626      -8.64551008
Si      12.43865667       7.10204782       2.77053362      -1.82652359       1.25232354       1.59669618       1.24389367       0.57323309      -1.00404599      -8.69604002
Si      14.44535047       8.56089289       5.90105635      -0.54340856       0.13858246      -0.30751014      -0.69493683      -2.14295015      -0.60970053      -8.61647177
Si      16.38648083       9.46565019       9.06224555       0.48999379       0.70209143       0.55510466      -0.42170453       0.11049342      -0.28574856      -8.72154107
Si      14.44522996      10.57675563       2.66799359       0.41070539       0.50655722      -0.48813091      -0.29743418       0.06751611       0.12369752      -8.73927406
Si      16.38138729      11.61825485       5.76195660      -2.06695894       1.21072620       2.50015228       0.33116075       0.04201646       0.20278865      -8.71672745
Si      18.25016525      12.73912158       8.92245616       0.59530771      -0.61279276      -0.00690692       0.31801389       0.22830235       0.28400654      -8.72089576
Si      14.40412426       3.89700219       2.87461481      -0.10211436      -0.73523259      -0.16827231       0.66099318      -0.57957906      -1.09019597      -8.72257861
Si      16.31845523       5.03112763       5.95724570      -0.09741181      -0.37683332      -0.03253395      -0.68610181      -0.73246374       0.64779125      -8.71760989
Si      18.30096475       5.88506620       9.14295223      -0.36316176      -0.30910756      -0.89369096      -0.27754489       0.13786772       0.04129781      -8.01351983
Si      16.37038625       7.18462298       2.76257637      -1.01757263       1.27121626      -0.23683838      -0.21556361       0.39237771       0.72903762      -8.67402376
Si      18.26208259       8.26720494       5.93570038       0.92654298      -0.34072456       0.17670718       0.68904669       0.65869309       0.32380227      -8.69554901
Si      20.21858792       9.43120108       9.08227285      -0.17363617      -0.17671112      -0.06014786       0.71789284      -0.33921529      -0.20479848      -8.68381036
Si      18.34954594      10.45100588       2.46316198      -0.42639594       0.11537790       0.10130351      -0.16981811       0.45287803       0.14678285      -8.04668327
Si      20.24482926      11.59586368       5.84533638      -0.13386894       0.69379534      -0.33377550       0.23777710      -0.15136960       0.46953657      -8.72539783
Si      22.29727025      12.94635498       9.25717947      -0.03243468       1.23241821       0.05617013       0.10730065      -0.28847679      -0.63845158      -8.03063943
Si       2.86483460       1.64363446       3.48225559      -0.12928516       0.07407744       0.17678357       0.23448268      -0.67148242      -0.24663751      -8.68896265
Si       4.78648559       2.73518637       6.84412347      -0.06416195      -0.87048261       0.64658721       0.59221704       0.65283057      -0.53959738      -8.61290652
Si       2.86621340       3.79033879       0.46547967      -1.51550561       0.28116668       0.88001656       0.17363830       0.34983861      -0.09319946      -8.65817050
Si       4.75691677       4.98635965       3.65804130      -0.10390621      -0.54733921      -0.65666112       0.21128887       0.44001001      -0.39300505      -8.77015151
Si       6.63961305       6.09793594       6.79031708       0.61111462      -1.11103448      -0.78292605       0.97817577      -0.50790729      -0.04870146      -8.72441693
Si       4.84142244       7.32479763       0.45355546       0.29604996      -0.34408753       0.83052908      -0.20207936      -0.24215686      -0.43355411      -8.72340893
Si       6.76034888       8.37126387       3.59137253      -0.04568665       0.68754758      -0.49981986      -0.45495024      -0.19933036      -0.47793424      -8.69746457
Si       8.79638213       9.36038557       6.69315977      -0.21033229      -0.12321209      -0.14882481      -1.22043924       0.16786056      -0.14303559      -8.68525487
Si       4.80962554       0.54287871       0.33618733      -0.65780276      -0.77408375      -0.96499951      -0.49446915      -0.82006766      -0.41995704      -8.73748464
Si       6.74634264       1.74572720       3.45435110       1.28791629      -0.09478190       0.69620922       0.01155379      -0.79370191       0.68121437      -8.72863243
Si       8.81206607       2.80097731       6.73366515       0.33939211      -0.81801324       0.86614249      -1.34592613      -0.50093015      -0.35679498      -8.65291154
Si       6.63247904       3.93090293       0.43971224      -0.31934757      -0.46205959       1.38730625       0.99971011       0.12783629       0.15583724      -8.66419362
Si       8.65675829       5.12796454       3.57536258       1.40068758      -1.04429664      -0.83365287       0.45430556      -0.65484261       0.11897463      -8.71784128
Si      10.55536795       6.16533645       6.66641641       0.17893317       1.46979077      -0.67785946       0.25253431      -0.91445991       0.00557733      -8.73637971
Si       8.63195021       7.29877471       0.36949542      -0.77932728       0.67625765      -0.88558204       0.33696483       0.27708923       0.12110438      -8.68685355
Si      10.63102274       8.26468156       3.44714380      -0.45499339       0.94409771       0.24770700      -0.25369522       1.20378422       0.45469082      -8.74185697
Si      12.46572972       9.46346664       6.71615431       0.05273226       0.06802294      -0.30840930       0.39556211       0.49431306      -0.46424722      -8.77388084
Si       8.65020018       0.50859715       0.33662211       1.10330530       0.22960295      -1.33422144      -0.00814044       0.50826739      -0.02176167      -8.70895799
Si      10.69601812       1.60151548       3.37362933       0.57101022      -0.34299844       0.47185162      -0.48819011       0.24208404       0.08828964      -8.69761012
Si      12.53075123       2.68897633       6.57750424       1.10690649      -0.34372611       1.07346318      -0.14350531      -0.01545749       0.09327932      -8.75947513
Si      10.64344580       3.89122123       0.35954905       0.90591756      -1.01169744       0.14223591       0.09581094      -0.26100415       0.18619097      -8.75049805
Si      12.50680240       4.94058504       3.55208694      -0.38340958      -0.87872345      -0.40650589      -0.67399442       0.02847886      -0.07363381      -8.76805344
Si      14.31640023       6.13598452       6.65545282       0.28825845      -1.44099898      -1.61962724       0.57320113       0.68227464       0.44161315      -8.57437876
Si      12.53707684       7.23084483       0.34942667      -0.94700563      -0.06659865       0.35317265      -0.24555555      -0.18779881       0.63261207      -8.74134060
Si      14.34600653       8.35297549       3.45483975      -0.51358361      -0.87014108      -0.00338113       0.67904575      -0.05373914       0.80037417      -8.66656067
Si      16.38026337       9.46093170       6.70889570       1.27600203       0.49949066       0.53716136       0.41816073       0.28739971      -0.05315110      -8.76397632
53
Lattice="11.5478352 0.0 0.0 5.773917198490155 10.000722372470358 0.0 5.773916394327279 3.333571176804646 9.428767828939895" Properties=species:S:1:pos:R:3:momenta:R:3:forces:R:3:energies:R:1 spacegroup="_JSON {\"number\": 1, \"setting\": 1}" unit_cell=conventional occupancy="_JSON {\"0\": {\"Si\": 1.0}, \"1\": {\"Si\": 1.0}, \"2\": {\"Si\": 1.0}, \"3\": {\"Si\": 1.0}, \"4\": {\"Si\": 1.0}, \"5\": {\"Si\": 1.0}, \"6\": {\"Si\": 1.0}, \"7\": {\"Si\": 1.0}, \"8\": {\"Si\": 1.0}, \"9\": {\"Si\": 1.0}, \"10\": {\"Si\": 1.0}, \"11\": {\"Si\": 1.0}, \"12\": {\"Si\": 1.0}, \"13\": {\"Si\": 1.0}, \"14\": {\"Si\": 1.0}, \"15\": {\"Si\": 1.0}, \"16\": {\"Si\": 1.0}, \"17\": {\"Si\": 1.0}, \"18\": {\"Si\": 1.0}, \"19\": {\"Si\": 1.0}, \"20\": {\"Si\": 1.0}, \"21\": {\"Si\": 1.0}, \"22\": {\"Si\": 1.0}, \"23\": {\"Si\": 1.0}, \"24\": {\"Si\": 1.0}, \"25\": {\"Si\": 1.0}, \"26\": {\"Si\": 1.0}, \"27\": {\"Si\": 1.0}, \"28\": {\"Si\": 1.0}, \"29\": {\"Si\": 1.0}, \"30\": {\"Si\": 1.0}, \"31\": {\"Si\": 1.0}, \"32\": {\"Si\": 1.0}, \"33\": {\"Si\": 1.0}, \"34\": {\"Si\": 1.0}, \"35\": {\"Si\": 1.0}, \"36\": {\"Si\": 1.0}, \"37\": {\"Si\": 1.0}, \"38\": {\"Si\": 1.0}, \"39\": {\"Si\": 1.0}, \"40\": {\"Si\": 1.0}, \"41\": {\"Si\": 1.0}, \"42\": {\"Si\": 1.0}, \"43\": {\"Si\": 1.0}, \"44\": {\"Si\": 1.0}, \"45\": {\"Si\": 1.0}, \"46\": {\"Si\": 1.0}, \"47\": {\"Si\": 1.0}, \"48\": {\"Si\": 1.0}, \"49\": {\"Si\": 1.0}, \"50\": {\"Si\": 1.0}, \"51\": {\"Si\": 1.0}, \"52\": {\"Si\": 1.0}}" energy=-458.7963525899373 stress="0.008943809635250998 0.002242582998009377 0.0008584464036195242 0.002242582998009377 0.014755651211763296 -0.0008015554173154259 0.0008584464036195242 -0.0008015554173154259 0.013370194977025098" free_energy=-458.7963525899373 pbc="T T T"
Si       6.75093271       3.97579279       2.82728027       0.46651561      -0.57843786      -1.26763219      -0.03168278      -0.24384809       0.11942899      -8.78510819
Si       8.65407741       5.04484743       5.91678711      -0.04016407       0.77793489      -0.98461804       0.24220486      -0.64753254      -0.17446961      -8.70511856
Si      10.60780720       6.05436689       9.06343981      -0.11733191       1.26604514       0.99590877      -0.64557371       0.69646299      -0.21631413      -8.67815333
Si       8.68575297       7.28680121       2.65751788      -0.45489897      -1.10473170      -1.58170194      -0.49841305      -0.42043362       0.71716401      -8.70747034
Si      10.67760258       8.30988516       5.85644145      -0.17857959       0.89388428       1.04561167      -0.56595475       0.80519089      -0.42575229      -8.73841684
Si      12.47067067       9.53838099       9.06571445      -0.68243015      -0.49489775       0.67209046       0.01472605      -0.99444463      -0.02138026      -8.70453427
Si      10.58763930      10.59877970       2.58372542       0.04124798       1.73479679       0.00177786       0.68046822      -0.01021275       1.18142433      -8.65642624
Si      12.50909499      11.67402646       5.89945023      -0.05964766       0.48803948       0.63710706       0.31574123       0.55458385       0.09778208      -8.67536780
Si      14.18338446      12.91824165       9.19256464      -0.70406080      -0.28161880       1.72948723       0.21004297       0.29737951      -0.73074855      -8.00883442
Si      10.59461982       3.79636979       2.70435754       0.04577351      -2.21638518       0.07622902      -0.22272366       0.38263936       0.07166553      -8.73331215
Si      12.39335247       4.96777380       5.84102242      -0.18089734       1.05197856       0.40575713       0.69139159      -0.35964559       0.58489111      -8.71193304
Si      14.49577769       6.22091901       9.02955419      -0.23137952       1.13112597      -2.13878416      -1.26287365      -0.71658496      -0.35225713      -8.61476653
Si      12.39617757       7.17383971       2.81119662       0.16572493       1.24700683      -0.03623496       1.06018850      -0.35318449      -0.94512339      -8.70861054
Si      14.40843790       8.49055306       5.86784027      -0.51488698      -2.62254650      -0.78679543       0.64679532      -1.32360636       0.07013147      -8.64093688
Si      16.38898808       9.49658513       9.07933801      -0.47199959       0.30551401       0.09195579      -0.69766160      -0.54991804      -0.29611545      -8.68640729
Si      14.45806407      10.59684991       2.64640400       0.13573904       0.10063355      -0.33473376      -0.07794055      -0.54562362       0.12566754      -8.70592284
Si      16.30770160      11.67461314       5.88636150      -0.40202344       0.78037458       1.98090315       1.59387350      -0.53850672      -0.79531182      -8.67929729
Si      18.29233810      12.71855921       8.93737275       0.96600003      -0.14792844       0.63918780       0.12911868       0.31999453       0.51924735      -8.72564471
Si      14.41871669       3.84436793       2.83116359       0.50628389      -1.08002121      -1.27742718       0.07475268       0.16651816      -0.25829117      -8.76329454
Si      16.29458403       4.98037239       5.97102441      -0.59731696      -1.53394234       0.34627670       0.14789347      -0.61681054      -0.18193977      -8.72297173
Si      18.27594202       5.87149360       9.09885448      -0.46662204      -0.25688327      -0.76074840       0.20620148      -0.05289574       0.14123762      -8.03640704
Si      16.31468220       7.25445794       2.78215293      -0.97019277       1.16614791       0.95676983       0.31826027      -0.49479585       0.61200003      -8.71770110
Si      18.33036202       8.27190777       5.95202876       1.47717730       0.41544206       0.31403262      -0.11008683       0.24075959      -0.19615578      -8.72893678
Si      20.23049828       9.41348555       9.07519503       0.45207166      -0.39344094      -0.13436998       0.03248948       0.07237243       0.08841063      -8.67115180
Si      18.32546608      10.47436436       2.47313379      -0.40854992       0.74221433       0.25648879       0.15365563       0.31221420       0.06156640      -8.07444715
Si      20.24953318      11.61950453       5.84653986       0.32972221       0.11489282       0.35654015       0.28800857      -0.50531085       0.37563182      -8.72107997
Si      22.30637123      12.99031615       9.23663924       0.47537576       0.29903738      -0.80262747       0.46241559      -0.84380217      -0.47983408      -8.02786128
Si       2.86547375       1.62200429       3.48012431       0.11902577      -0.84078678      -0.24957320       0.09484865      -0.42910649      -0.20825001      -8.71273295
Si       4.80402399       2.71728762       6.85561620       0.65741108       0.19075254      -0.21709728       0.28895604       0.64715481      -0.56566129      -8.64914394
Si       2.80205434       3.81231133       0.49855431      -0.79297134       0.43731768       0.18588836       0.71086130      -0.11999093      -0.84766026      -8.66946865
Si       4.76193742       4.97870978       3.61177779       0.31277515       0.28751797      -1.01391046       0.27533316       0.55476346      -0.03206823      -8.73212697
Si       6.70064066       6.02882533       6.74683163       1.45697887      -1.31539336      -0.87645217      -0.03812779       0.30942639      -0.04616343      -8.75379764
Si       4.84370356       7.30697205       0.47522049      -0.30106083      -0.17652607      -0.02997194      -0.55036660       0.38013035      -0.52710145      -8.69270334
Si       6.74483836       8.39256399       3.55074027      -0.45063727       0.01539508      -0.94354133      -0.07354453      -0.61866637      -0.06440513      -8.67466447
Si       8.74550539       9.36328597       6.68240893      -1.49865612       0.28464433      -0.18827006      -0.30067787       0.37252477       0.15030209      -8.73383187
Si       4.76254437       0.47583579       0.26985849      -0.97278617      -1.56628992      -1.46522521       0.15732853       0.02321684      -0.02227593      -8.73421991
Si       6.80469705       1.71452574       3.50919597       0.75924045      -0.94707909       1.21986044      -0.67529213      -0.21965532      -0.01124082      -8.72233853
Si       8.76422663       2.75884832       6.77421738      -2.31554671      -0.42875783       0.81768025      -1.85388748       0.87471017       0.16026854      -8.60842330
Si       6.65908163       3.91618414       0.50565886       1.34159792      -0.04702531       0.83433828       1.01085030       0.32740324      -0.98834303      -8.69588432
Si       8.74112679       5.05540678       3.53368786       1.63473284      -1.56478089      -0.80349122      -0.25487093      -0.02800520      -0.06258487      -8.71450425
Si      10.57111001       6.19809638       6.64547508       0.33866227      -0.28064839       0.11105882      -0.07113775      -1.10882837       0.89646444      -8.74353577
Si       8.60953048       7.33735857       0.32874928      -0.02916068       0.60959086      -0.66397570       0.51006861      -0.44424183       0.14008255      -8.71896001
Si      10.58898483       8.36261216       3.47942687      -1.21867007       2.66860888       0.93923698      -0.50941494       0.71022227       0.27839379      -8.72683772
Si      12.48275728       9.48398106       6.69179858       0.56575076       0.63655983      -0.42599846       0.27744913       0.17651252       0.28808720      -8.77897861
Si       8.69889705       0.54805787       0.27241495       0.60518262       1.36787491      -0.98971150      -0.56809423       0.85534487       0.45902132      -8.68350748
Si      10.70254917       1.58822052       3.41145626      -0.38287605      -0.27148090       1.12585092      -0.71066500      -0.18217992       0.69281934      -8.67374145
Si      12.57034188       2.68017852       6.62947986       0.21308601       0.18098538       0.77832913      -0.86441656       0.64773074      -0.41180380      -8.71953216
Si      10.69345205       3.84067105       0.37081578       0.89714503      -0.70419269       0.21038658      -0.31404704       0.56105297      -0.12176891      -8.73341742
Si      12.46530062       4.90371474       3.52624421      -1.03596293      -0.39621420      -0.57775759      -0.04207113       0.54015621      -0.06387555      -8.74494741
Si      14.34847099       6.09637745       6.59218741       0.79298663       0.05548063      -0.72295569       0.02459678       1.14256858       0.70015374      -8.65225937
Si      12.49088575       7.22280036       0.39571255      -0.56163865      -0.18977855       1.39107842       0.71586423       0.00386238       0.53638380      -8.73955189
Si      14.34124567       8.31808896       3.48225478       0.22951843      -0.24151481       0.93990312       0.27009966       0.79383251       0.35934359      -8.72896309
Si      16.44878275       9.48995615       6.73085724       1.05522281       0.43150612       0.21386996      -0.66495994      -0.40089757      -0.38067318      -8.72816741
53
Lattice="11.5478352 0.0 0.0 5.773917198490155 10.000722372470358 0.0 5.773916394327279 3.333571176804646 9.428767828939895" Properties=species:S:1:pos:R:3:momenta:R:3:forces:R:3:energies:R:1 spacegroup="_JSON {\"number\": 1, \"setting\": 1}" unit_cell=conventional occupancy="_JSON {\"0\": {\"Si\": 1.0}, \"1\": {\"Si\": 1.0}, \"2\": {\"Si\": 1.0}, \"3\": {\"Si\": 1.0}, \"4\": {\"Si\": 1.0}, \"5\": {\"Si\": 1.0}, \"6\": {\"Si\": 1.0}, \"7\": {\"Si\": 1.0}, \"8\": {\"Si\": 1.0}, \"9\": {\"Si\": 1.0}, \"10\": {\"Si\": 1.0}, \"11\": {\"Si\": 1.0}, \"12\": {\"Si\": 1.0}, \"13\": {\"Si\": 1.0}, \"14\": {\"Si\": 1.0}, \"15\": {\"Si\": 1.0}, \"16\": {\"Si\": 1.0}, \"17\": {\"Si\": 1.0}, \"18\": {\"Si\": 1.0}, \"19\": {\"Si\": 1.0}, \"20\": {\"Si\": 1.0}, \"21\": {\"Si\": 1.0}, \"22\": {\"Si\": 1.0}, \"23\": {\"Si\": 1.0}, \"24\": {\"Si\": 1.0}, \"25\": {\"Si\": 1.0}, \"26\": {\"Si\": 1.0}, \"27\": {\"Si\": 1.0}, \"28\": {\"Si\": 1.0}, \"29\": {\"Si\": 1.0}, \"30\": {\"Si\": 1.0}, \"31\": {\"Si\": 1.0}, \"32\": {\"Si\": 1.0}, \"33\": {\"Si\": 1.0}, \"34\": {\"Si\": 1.0}, \"35\": {\"Si\": 1.0}, \"36\": {\"Si\": 1.0}, \"37\": {\"Si\": 1.0}, \"38\": {\"Si\": 1.0}, \"39\": {\"Si\": 1.0}, \"40\": {\"Si\": 1.0}, \"41\": {\"Si\": 1.0}, \"42\": {\"Si\": 1.0}, \"43\": {\"Si\": 1.0}, \"44\": {\"Si\": 1.0}, \"45\": {\"Si\": 1.0}, \"46\": {\"Si\": 1.0}, \"47\": {\"Si\": 1.0}, \"48\": {\"Si\": 1.0}, \"49\": {\"Si\": 1.0}, \"50\": {\"Si\": 1.0}, \"51\": {\"Si\": 1.0}, \"52\": {\"Si\": 1.0}}" energy=-458.7591818526864 stress="0.011535785596186194 0.0015005973333249683 -0.00013702286745112462 0.0015005973333249683 0.014601794285601032 8.36083678687869e-05 -0.00013702286745112462 8.36083678687869e-05 0.013798332124956795" free_energy=-458.7591818526864 pbc="T T T"
Si       6.77773012       3.93570442       2.78103451       0.59849275      -0.93504984      -0.28831526       0.13230155      -0.18028528       0.89596836      -8.74151469
Si       8.66942624       5.05090768       5.85992779       0.71440233      -0.66179493      -1.12728657       0.57039417      -1.07757172       0.05813097      -8.69025917
Si      10.58006845       6.13261238       9.10463146      -0.80808894       1.42159708       0.52672142      -0.11875058      -0.46447874      -0.40413716      -8.63698091
Si       8.65185849       7.22009462       2.61177614      -0.66119172      -1.27424635      -0.04129469       0.19398713       0.22378145       1.17038808      -8.66154524
Si      10.64470492       8.37945654       5.89564432      -1.05038111       1.53373217       0.49849275      -0.45208959      -0.05642850      -0.23998733      -8.74488413
Si      12.44327431       9.48199752       9.09559164      -0.24287506      -1.42017669       0.38795506       0.46912899      -0.06635726      -0.33516798      -8.69444323
Si      10.61524526      10.68141154       2.61582562       0.94063462       1.26199575       0.92222560       0.38861871      -0.60644141       0.01164208      -8.66599180
Si      12.51596026      11.71475309       5.93206051       0.22908012       0.88611294       0.49373321      -0.04983683      -0.15858306      -0.34430812      -8.75886837
Si      14.14780302      12.91792697       9.25128860      -0.76216990       0.28457598       0.47457409      -0.20919768       0.35157328      -0.85678520      -8.07388176
Si      10.59168618       3.70208167       2.70713398      -0.08330927      -1.26403276      -0.04107776       0.07130362       0.81498773      -0.19678592      -8.75420871
Si      12.41389484       5.00263837       5.87574714       0.97234808       0.21862232       0.73387819       0.69859724      -0.57792917      -0.13368587      -8.71748008
Si      14.44841083       6.25427425       8.91644977      -1.25333590       0.20495794      -1.89151123      -0.00491192      -0.46624371       0.73767957      -8.67655441
Si      12.42764808       7.22737140       2.78755585       0.69050964       0.84701829      -0.52761949      -0.27656544      -0.15859074       0.37258212      -8.71086609
Si      14.41169137       8.32612938       5.83992983       0.65987706      -3.05400566      -0.10175718       0.73738757       1.01341314       0.72800029      -8.67385215
Si      16.34609067       9.49125832       9.07548426      -0.92690690      -0.46767894      -0.18089090       0.21682777      -0.39439630      -0.07492872      -8.69663250
Si      14.46304471      10.58035115       2.63576796       0.04485189      -0.68248334      -0.01812772      -0.11008850      -0.35153658       0.32355649      -8.69305061
Si      16.33529459      11.69769529       5.96037248       1.05619379       0.18247200       0.90156461       0.07520558      -0.24183925      -0.56693836      -8.69492046
Si      18.34410095      12.72077405       8.98875675       0.91825281       0.18628784       1.23037294      -0.21752461       0.14277497       0.16625519      -8.71774522
Si      14.44098420       3.80157067       2.76655480       0.23095460      -0.43083990      -0.98093397      -0.36547213       0.63958975       0.53254438      -8.72674158
Si      16.27924964       4.88942858       5.97244263       0.14930592      -1.58284032      -0.45466979       0.67831859       0.75121286      -0.81405683      -8.67868999
Si      18.26533137       5.85494681       9.06401577       0.14150170      -0.36970078      -0.57563724       0.50478868      -0.03208630       0.10837595      -8.03793110
Si      16.28106922       7.29113953       2.84300817      -0.24579186       0.16899474       1.08524285       0.56041311      -0.73077525      -0.46735978      -8.73749113
Si      18.38854823       8.29337317       5.95336181       0.46208041       0.22569756      -0.39128430      -1.16342057      -0.43500858      -0.68190774      -8.68576892
Si      20.24588442       9.40015106       9.07314488      -0.02450884      -0.03952416       0.07244701      -0.58497540       0.36643115       0.15486707      -8.66673351
Si      18.31001961      10.51964495       2.48903333      -0.20379209       0.84787780       0.36072571       0.06282328      -0.22064511       0.10458964      -8.05747987
Si      20.27233727      11.61020462       5.87508147       0.39995684      -0.33757283       0.62884965      -0.25193091       0.01354896      -0.03067342      -8.68681795
Si      22.34491179      12.97589820       9.18010117       0.85697856      -0.74829016      -1.25325531      -0.06322427      -0.44658568      -0.08598449      -8.03300804
Si       2.87368224       1.57062077       3.46507375       0.16735568      -0.91160707      -0.19243448      -0.00687349       0.37528294       0.30032338      -8.72602913
Si       4.84246161       2.74341315       6.82572214       0.65708731       0.57885768      -0.83462335      -0.30268920      -0.23984785      -0.21594337      -8.72116381
Si       2.78739706       3.82758418       0.47091438       0.18626674       0.10883926      -1.25234688       0.51192716      -0.25890814      -0.87258135      -8.71880062
Si       4.78624414       5.00896234       3.56152967       0.54857179       0.70071708      -0.82719749       0.02166408      -0.09595923       0.25895461      -8.71257100
Si       6.76030211       5.98069572       6.70005967       0.58167689      -0.38522959      -0.88321416      -0.93461677       0.81898016       0.03431878      -8.69973650
Si       4.80786471       7.31321028       0.46098724      -0.98458700       0.37664022      -0.35679361      -0.22910740       0.22792147       0.07724723      -8.68384660
Si       6.72349180       8.37097252       3.50382875      -0.26224325      -0.76480054      -0.75308445       0.32044514      -0.32590898       0.29561445      -8.67671147
Si       8.67274600       9.39502930       6.68478080      -0.96799821       0.95003458       0.40104629       0.86476068       0.44294793       0.61121772      -8.76947165
Si       4.72702072       0.41176208       0.20494409      -0.22031977      -0.56361877      -0.75676320       0.76909334       1.23189535       0.95024967      -8.61046484
Si       6.81722091       1.66580178       3.56564421      -0.24376990      -0.74267755       0.81335655      -0.51475229       0.43741559      -0.47186108      -8.71214571
Si       8.59352339       2.77315625       6.82119580      -3.57440739       0.97356072       0.90054939       0.53354376       0.89539230      -0.09582906      -8.62110831
Si       6.75681179       3.92278696       0.50052198       2.08435567       0.20327909      -1.12034587      -0.17417674      -0.04638214      -1.28962513      -8.75898725
Si       8.80747931       4.97838185       3.48850242       0.72718670      -1.25519357      -0.89719408      -0.89694805       0.42554229       0.02357579      -8.71684771
Si      10.58237629       6.15664957       6.68514875       0.03997951      -0.95444734       1.30849870      -0.26110396       0.21439884       0.52471961      -8.75854581
Si       8.62100673       7.34443713       0.29858287       0.30822875      -0.43333072      -0.46922496      -0.10721629      -0.79213858       0.21221135      -8.71475055
Si      10.51380298       8.50907374       3.53058307      -1.46086943       2.47443925       0.83972195       0.20798541      -1.00236255      -0.38283295      -8.66459877
Si      12.52195494       9.51566946       6.68517737       0.89500760       0.39135951       0.21999025       0.13291971      -0.51822153       0.46981922      -8.73233048
Si       8.71142059       0.64699755       0.23992333      -0.02198010       2.20503274      -0.22914805      -0.16111510       0.06623811       0.53915707      -8.69301754
Si      10.65861758       1.56171796       3.49870224      -1.17613899      -0.79492870       2.15736309      -0.25156364      -0.38428716       0.50886229      -8.68010936
Si      12.55407437       2.71608163       6.65521048      -0.63043717       1.15755848       0.25869292      -0.07596458       0.52165774      -0.18923450      -8.74432056
Si      10.71722952       3.82639272       0.37257943      -0.17960124       0.12679351      -0.22402190      -1.02322055       0.42578805      -0.43095936      -8.68245745
Si      12.42014577       4.90471401       3.49730283      -0.49675684       0.42652874      -0.44260035       0.69017637       0.50303246       0.25372659      -8.68353077
Si      14.38543065       6.13252025       6.57789838       0.55581531       0.96818672       0.08267069      -0.20796329      -0.26449641       0.32489247      -8.77590229
Si      12.49132921       7.21284529       0.47638065       0.54536336      -0.20637817       1.36338148       0.58917889      -0.05323861      -0.70707733      -8.74984600
Si      14.35740328       8.33723825       3.53517193       0.27993987       0.91987878       0.86438959      -0.14393677       0.57811079      -0.46168154      -8.76005521
Si      16.47343104       9.48981926       6.72577720      -0.16079538      -0.55120010      -0.41378972      -0.84255399      -0.83438348      -0.39913785      -8.67749083
53
Lattice="11.5478352 0.0 0.0 5.773917198490155 10.000722372470358 0.0 5.773916394327279 3.333571176804646 9.428767828939895" Properties=species:S:1:pos:R:3:momenta:R:3:forces:R:3:energies:R:1 spacegroup="_JSON {\"number\": 1, \"setting\": 1}" unit_cell=conventional occupancy="_JSON {\"0\": {\"Si\": 1.0}, \"1\": {\"Si\": 1.0}, \"2\": {\"Si\": 1.0}, \"3\": {\"Si\": 1.0}, \"4\": {\"Si\": 1.0}, \"5\": {\"Si\": 1.0}, \"6\": {\"Si\": 1.0}, \"7\": {\"Si\": 1.0}, \"8\": {\"Si\": 1.0}, \"9\": {\"Si\": 1.0}, \"10\": {\"Si\": 1.0}, \"11\": {\"Si\": 1.0}, \"12\": {\"Si\": 1.0}, \"13\": {\"Si\": 1.0}, \"14\": {\"Si\": 1.0}, \"15\": {\"Si\": 1.0}, \"16\": {\"Si\": 1.0}, \"17\": {\"Si\": 1.0}, \"18\": {\"Si\": 1.0}, \"19\": {\"Si\": 1.0}, \"20\": {\"Si\": 1.0}, \"21\": {\"Si\": 1.0}, \"22\": {\"Si\": 1.0}, \"23\": {\"Si\": 1.0}, \"24\": {\"Si\": 1.0}, \"25\": {\"Si\": 1.0}, \"26\": {\"Si\": 1.0}, \"27\": {\"Si\": 1.0}, \"28\": {\"Si\": 1.0}, \"29\": {\"Si\": 1.0}, \"30\": {\"Si\": 1.0}, \"31\": {\"Si\": 1.0}, \"32\": {\"Si\": 1.0}, \"33\": {\"Si\": 1.0}, \"34\": {\"Si\": 1.0}, \"35\": {\"Si\": 1.0}, \"36\": {\"Si\": 1.0}, \"37\": {\"Si\": 1.0}, \"38\": {\"Si\": 1.0}, \"39\": {\"Si\": 1.0}, \"40\": {\"Si\": 1.0}, \"41\": {\"Si\": 1.0}, \"42\": {\"Si\": 1.0}, \"43\": {\"Si\": 1.0}, \"44\": {\"Si\": 1.0}, \"45\": {\"Si\": 1.0}, \"46\": {\"Si\": 1.0}, \"47\": {\"Si\": 1.0}, \"48\": {\"Si\": 1.0}, \"49\": {\"Si\": 1.0}, \"50\": {\"Si\": 1.0}, \"51\": {\"Si\": 1.0}, \"52\": {\"Si\": 1.0}}" energy=-458.04729918321584 stress="0.01499706819886122 -0.0007057890364201254 -0.0009066097159852577 -0.0007057890364201254 0.011116892510510634 0.0019215299895486027 -0.0009066097159852577 0.0019215299895486027 0.013514603378081245" free_energy=-458.04729918321584 pbc="T T T"
Si       6.81177850       3.88294241       2.79014264       0.61690653      -0.98977931       0.36346449      -0.19214516       0.16115195      -0.14585951      -8.71169843
Si       8.72137275       4.98304186       5.80914619       1.07773371      -1.67314427      -0.68082173      -0.14923860      -0.07761048       0.54146622      -8.70050771
Si      10.54622822       6.17999070       9.11616852      -0.22177762       0.24275364      -0.08214757       0.88140006      -1.01109231      -0.37504526      -8.64455477
Si       8.62986480       7.16823229       2.64816701      -0.09788946      -0.59723394       1.24511212       0.50543540       0.63214286       0.44909730      -8.65783830
Si      10.58106265       8.44771151       5.91707893      -1.17307198       0.89484342       0.39299290       0.33586145      -0.74238884       0.05222389      -8.69592450
Si      12.44643402       9.42146430       9.10118928       0.28193586      -0.58855566      -0.19319560       0.15200872       1.08208971      -0.39625285      -8.68790285
Si      10.66867901      10.72092071       2.65318270       0.84987204       0.19405036       0.33372320      -0.57016325      -0.80028420      -0.64160210      -8.66024467
Si      12.51908927      11.74208043       5.93963222      -0.18112681      -0.06521059      -0.25204052      -0.29918327      -0.99183114      -0.49959152      -8.73599084
Si      14.10073751      12.94210284       9.24846688      -0.95774333       0.54727613      -0.44935968       0.07561766       0.00497736      -0.32634603      -8.11748742
Si      10.59378189       3.66493030       2.69774858       0.21896688      -0.21252532      -0.27965588       0.28476822       0.58417715      -0.05448210      -8.72802171
Si      12.48215148       4.99986669       5.90358420       1.38941999      -0.13559803       0.24313230      -0.24041868       0.14775774      -0.46937903      -8.73700668
Si      14.39841877       6.25172013       8.85370036      -0.37653639      -0.23318710      -0.41262743       1.06699526      -0.19347382       1.07264107      -8.69901270
Si      12.44507427       7.26842404       2.78732280      -0.12737111       0.74974270       0.66038484      -0.68033332      -0.03450370       0.90324727      -8.66002680
Si      14.46798884       8.23506598       5.85894559       1.31774283       0.00228272       0.69708741       0.05318120       2.55451416       0.24918547      -8.66982415
Si      16.31734240       9.45659124       9.06362410       0.00342608      -0.74474987      -0.28235362       0.88188181       0.04206655      -0.11180719      -8.70177120
Si      14.45884564      10.54107246       2.64861224      -0.23881349      -0.58680212       0.50541883      -0.23357767       0.53731783       0.30837842      -8.68915898
Si      16.37301358      11.69927215       5.99312110       0.08049974      -0.11528306       0.50195697      -1.10056927      -0.19252931       0.05466150      -8.61679243
Si      18.38099721      12.73596912       9.05244682       0.44550779       0.40917254       1.05354338      -0.38404716       0.20061692      -0.39626275      -8.69305138
Si      14.43851806       3.80453962       2.73491829      -0.30695170       0.53241358      -0.28809785      -0.29145513       0.58458907       0.29522876      -8.68083968
Si      16.31073342       4.85196107       5.91616165       0.97448150       0.35514150      -1.63387522       0.38021078       1.49161330      -0.56931977      -8.65671751
Si      18.28862818       5.83769774       9.03672021       0.63712963      -0.21263997      -0.49380721       0.07671078       0.25605693      -0.00997060      -8.03030396
Si      16.28582862       7.27687205       2.87258433       0.32565947      -0.57990476      -0.09221293       0.17014752      -0.21355299      -0.98995503      -8.72839226
Si      18.36935063       8.28860946       5.90773449      -1.05079224      -0.33411696      -1.25949504      -0.61401386      -0.15875097      -0.33175677      -8.69022375
Si      20.22161235       9.41265084       9.08251043      -0.84795126       0.49371599       0.27513761      -0.36696803       0.26880359       0.11624375      -8.71232176
Si      18.29847824      10.54942654       2.51420780      -0.28806039       0.18658237       0.64658621      -0.13310098      -0.60993892       0.29033211      -7.99264760
Si      20.27733103      11.60306629       5.90226964      -0.30531178       0.24318825       0.32860084      -0.62455548       0.69362800      -0.33626122      -8.65841391
Si      22.37978421      12.92807213       9.11569194       0.34569596      -0.90950240      -1.11292561      -0.56011110       0.20174515       0.26641290      -8.01680245
Si       2.88275881       1.54505258       3.47050120       0.19280218       0.05443006       0.43666469       0.03947821       0.83279199       0.43930525      -8.71464551
Si       4.85960860       2.75399480       6.77792005      -0.09201882      -0.29019901      -0.92876408      -0.64205037      -0.66116554       0.00974660      -8.74067235
Si       2.80908997       3.82578539       0.38308528       0.47138045      -0.10605987      -1.81677995      -0.14613210       0.01947246       0.21435288      -8.74949742
Si       4.81338180       5.03179390       3.52833093       0.44507614      -0.01004144      -0.45856574      -0.14105300      -0.78688009       0.17084564      -8.71717042
Si       6.75968398       5.98884063       6.65361229      -0.43128626       0.58735384      -0.91257657      -0.26426340       0.39722668      -0.05143889      -8.68622093
Si       4.75594240       7.33406354       0.44953197      -0.82705469       0.26219887      -0.02845292       0.42468273      -0.37459116       0.27794728      -8.66396957
Si       6.72446242       8.32542859       3.47709955       0.31167239      -0.82812859      -0.25689510       0.35968662       0.23659048       0.32620129      -8.70726842
Si       8.65197961       9.45565964       6.72923066      -0.00424354       1.18619541       1.21936864       0.18421315      -0.22609614       0.31169627      -8.79369274
Si       4.74348633       0.43409954       0.20742956       0.74827060       1.41652960       0.90534641       0.37916182       1.22210357       1.15111018      -8.53781767
Si       6.79455296       1.64636159       3.59023472      -0.41090672       0.01640420       0.15094371       0.29423032       0.48853938      -0.37147550      -8.71744793
Si       8.45593343       2.85493000       6.86304287      -1.24537192       1.99819664       0.64714268       2.17060631       0.27119743      -0.30360658      -8.56020400
Si       6.84111516       3.92594015       0.40988142       0.78117959      -0.17482937      -1.90808059      -1.52112010      -0.39474062       0.35289654      -8.72664206
Si       8.81146585       4.93031157       3.44634765      -0.50210964      -0.57442550      -0.61897176      -0.59950324       0.43501289       0.37625807      -8.75543638
Si      10.57704514       6.12366488       6.76109371      -0.16999999      -0.20325093       1.29279900       0.01990796       0.61934098      -0.63107353      -8.69776526
Si       8.62608150       7.29728053       0.28712822      -0.20874454      -1.19448915       0.13810440      -0.46219691      -0.12904009       0.61173989      -8.69188663
Si      10.45089728       8.58650961       3.55685815      -0.83918953       0.28044511       0.13810460       0.60013698      -1.76308913      -0.47547533      -8.58893242
Si      12.57027569       9.51172084       6.71125225       0.85372022      -0.57244186       0.67218137      -0.23250144      -0.63007105       0.06399610      -8.67173757
Si       8.71196152       0.74904578       0.24901695       0.17808493       1.35415801       0.59058209       0.37040061      -1.22178155       0.58729165      -8.63516713
Si      10.59560821       1.51111620       3.62065380      -1.06315905      -0.97410018       2.22309842       0.38664723       0.23322779      -0.54255237      -8.69065764
Si      12.53139706       2.78831327       6.66829371      -0.03530772       1.38065931       0.36069933       0.68337368      -0.32727296       0.27494986      -8.75152444
Si      10.67056737       3.84111278       0.34395854      -1.47172007       0.25270965      -0.83090506      -0.51439514      -0.28138534      -0.27915536      -8.66600943
Si      12.42247949       4.94261388       3.48599854       0.56922277       0.92433339       0.03712988       0.61912042       0.13074428       0.35184237      -8.66530451
Si      14.41108400       6.14635490       6.58841494       0.52589906      -0.82367019       0.18864385       0.19564706      -1.66623525      -0.20082577      -8.73339713
Si      12.53363894       7.19947506       0.50870049       0.86404102      -0.28868345      -0.24463139      -0.22257876       0.01325402      -1.11886723      -8.74358967
Si      14.36629668       8.39549673       3.55908321       0.08355824       1.01914422       0.04735609      -0.05341637      -0.52134591      -0.46343128      -8.75503957
Si      16.43681806       9.43106896       6.69208643      -1.11537553      -1.56536861      -0.77806721      -0.35242014      -0.33309873      -0.02750499      -8.71212395
53
Lattice="11.5478352 0.0 0.0 5.773917198490155 10.000722372470358 0.0 5.773916394327279 3.333571176804646 9.428767828939895" Properties=species:S:1:pos:R:3:momenta:R:3:forces:R:3:energies:R:1 spacegroup="_JSON {\"number\": 1, \"setting\": 1}" unit_cell=conventional occupancy="_JSON {\"0\": {\"Si\": 1.0}, \"1\": {\"Si\": 1.0}, \"2\": {\"Si\": 1.0}, \"3\": {\"Si\": 1.0}, \"4\": {\"Si\": 1.0}, \"5\": {\"Si\": 1.0}, \"6\": {\"Si\": 1.0}, \"7\": {\"Si\": 1.0}, \"8\": {\"Si\": 1.0}, \"9\": {\"Si\": 1.0}, \"10\": {\"Si\": 1.0}, \"11\": {\"Si\": 1.0}, \"12\": {\"Si\": 1.0}, \"13\": {\"Si\": 1.0}, \"14\": {\"Si\": 1.0}, \"15\": {\"Si\": 1.0}, \"16\": {\"Si\": 1.0}, \"17\": {\"Si\": 1.0}, \"18\": {\"Si\": 1.0}, \"19\": {\"Si\": 1.0}, \"20\": {\"Si\": 1.0}, \"21\": {\"Si\": 1.0}, \"22\": {\"Si\": 1.0}, \"23\": {\"Si\": 1.0}, \"24\": {\"Si\": 1.0}, \"25\": {\"Si\": 1.0}, \"26\": {\"Si\": 1.0}, \"27\": {\"Si\": 1.0}, \"28\": {\"Si\": 1.0}, \"29\": {\"Si\": 1.0}, \"30\": {\"Si\": 1.0}, \"31\": {\"Si\": 1.0}, \"32\": {\"Si\": 1.0}, \"33\": {\"Si\": 1.0}, \"34\": {\"Si\": 1.0}, \"35\": {\"Si\": 1.0}, \"36\": {\"Si\": 1.0}, \"37\": {\"Si\": 1.0}, \"38\": {\"Si\": 1.0}, \"39\": {\"Si\": 1.0}, \"40\": {\"Si\": 1.0}, \"41\": {\"Si\": 1.0}, \"42\": {\"Si\": 1.0}, \"43\": {\"Si\": 1.0}, \"44\": {\"Si\": 1.0}, \"45\": {\"Si\": 1.0}, \"46\": {\"Si\": 1.0}, \"47\": {\"Si\": 1.0}, \"48\": {\"Si\": 1.0}, \"49\": {\"Si\": 1.0}, \"50\": {\"Si\": 1.0}, \"51\": {\"Si\": 1.0}, \"52\": {\"Si\": 1.0}}" energy=-458.3185393105275 stress="0.01466840328981306 -0.002780311649781059 -0.0012889057763111657 -0.002780311649781059 0.011703324870125134 0.001377854275054835 -0.0012889057763111657 0.001377854275054835 0.011088912676513586" free_energy=-458.3185393105275 pbc="T T T"
Si       6.83045908       3.84201759       2.79093779      -0.01831159      -0.48139048      -0.52533191      -0.62292154       0.50367810      -0.89464043      -8.68948565
Si       8.76556498       4.91164110       5.79476509       0.50848270      -0.66190826       0.08649216      -0.54577019       1.42053995       0.36289091      -8.65838423
Si      10.57160793       6.15690069       9.10052483       1.12282767      -0.97797630      -0.45423698       0.59925859      -0.42682402      -0.15492856      -8.74383028
Si       8.64379618       7.16029466       2.71993795       0.58553047       0.22754753       1.28853866       0.32208871       0.35770645      -0.35160459      -8.70514278
Si      10.53932094       8.46299297       5.94083388      -0.33143765      -0.33428448       0.51166124       0.66850895      -0.81323272       0.04703183      -8.67694021
Si      12.46038389       9.43303737       9.07950260       0.12063237       0.92624635      -0.52791354      -0.35128712       0.67210108       0.01734968      -8.71844145
Si      10.68282462      10.70102110       2.65057339      -0.40361693      -0.90743666      -0.24150641      -0.92222445      -0.60701272       0.12376454      -8.70657888
Si      12.50665013      11.70271330       5.91592149      -0.11445412      -1.30732047      -0.44822495       0.36934544      -0.49286550       0.27508753      -8.72809728
Si      14.05979845      12.96916934       9.22079178      -0.48529986       0.46602587      -0.44931573       0.53349897      -0.07335043       0.28515813      -8.03461649
Si      10.61555715       3.67381095       2.68463806       0.57707615       0.51521265      -0.15372985       0.15147726       0.42876461       0.20436896      -8.65678952
Si      12.53428546       5.00443677       5.89779706       0.41145967       0.35951667      -0.44275453      -0.95529857       0.33957476      -0.37227549      -8.74566904
Si      14.41982505       6.23102196       8.86690492       1.05193132      -0.60227147       0.75365406       0.49047512      -0.37583477       0.43026463      -8.74946189
Si      12.41498258       7.30485418       2.84543340      -0.91205736       0.57485948       1.26872878      -0.24036768      -0.28858275      -0.20486047      -8.69201264
Si      14.52453132       8.30961780       5.89887111       0.50166090       2.16883893       0.68784368      -1.24491841      -0.01974465      -0.31330459      -8.73465738
Si      16.34870784       9.42406086       9.04277353       1.06448316      -0.41709304      -0.52834120       0.37381608       0.33954543      -0.16333609      -8.70230662
Si      14.43901108      10.53913989       2.68407161      -0.45625675       0.58998686       0.78990787       0.01038573       0.81009794       0.09110801      -8.70658362
Si      16.33735287      11.68744670       6.03006303      -1.30840600      -0.28481488       1.02904978      -0.58359631       0.00385277       0.51354373      -8.55797762
Si      18.39001360      12.76726139       9.08939199      -0.08857341       0.81039847       0.32955230      -0.33007180       0.29584226      -0.48679214      -8.68326762
Si      14.41531193       3.85017978       2.72492068      -0.48346685       1.08623375      -0.20396472       0.07915022       0.10180644      -0.14211941      -8.68075828
Si      16.37209442       4.91368392       5.82067808       1.27347933       1.62064116      -1.74201751       0.01618105       0.03170312       0.45037307      -8.72481554
Si      18.31781377       5.83855724       9.00747875       0.34323628       0.26817454      -0.67540910      -0.43887831       0.34349747      -0.21752142      -8.00274498
Si      16.30582943       7.24388756       2.83180397       0.39374060      -0.60405617      -1.35490133      -0.00410633       0.07694366      -0.55130832      -8.72255729
Si      18.30417794       8.27278515       5.83813639      -1.18364956      -0.12834064      -1.20151131       0.37267793       0.39224156       0.42385655      -8.68274543
Si      20.17319459       9.44316230       9.10095882      -0.77284331       0.53871682       0.41454530       0.49971409      -0.23383582       0.06084198      -8.75248226
Si      18.27917422      10.53605331       2.56238466      -0.40277337      -0.65122802       1.23771385       0.04171936      -0.42302983       0.46717810      -7.94144734
Si      20.23709339      11.64246260       5.90675099      -1.19574404       1.17175225      -0.12569230      -0.48200979       0.34625704      -0.21088158      -8.72310686
Si      22.37475992      12.89147285       9.06940102      -0.54346593      -0.45712177      -0.62747790      -0.57806937       0.31330435       0.35785762      -8.02506893
Si       2.89326080       1.57965884       3.50586387       0.16042907       1.21840627       0.78639168      -0.14597035       0.63816340      -0.05347952      -8.70913502
Si       4.83186799       2.72380287       6.72694133      -0.87065082      -0.60972820      -1.06209878      -0.25876698       0.29938265      -0.15642598      -8.74178966
Si       2.82412806       3.82478007       0.30742231       0.08826716       0.11350524      -0.89209199      -0.19950065       0.19179637       0.90133245      -8.72216628
Si       4.83083939       5.00049249       3.50450944       0.21425063      -1.11651325      -0.59346394      -0.16539785      -0.51667753      -0.38304515      -8.73607554
Si       6.73926347       6.02796418       6.60481991      -0.12090537       0.78115086      -0.89586302       0.62476143      -0.08905021       0.14869134      -8.67731460
Si       4.73307562       7.32999964       0.45553180       0.00754362      -0.43389921       0.15348143       0.62582617      -0.43440986      -0.13443943      -8.67098970
Si       6.74972197       8.29528055       3.47317456       0.52873545      -0.26356550       0.03398683      -0.11752675       0.45819743       0.03865877      -8.74579269
Si       8.64576778       9.50300091       6.79388444      -0.42667444       0.54633651       0.99132318      -0.57166625      -0.51493115      -0.68039102      -8.74126691
Si       4.78792893       0.54394955       0.29358978       0.76767064       2.46040246       2.19558431      -0.32177458      -0.02119731       0.40308286      -8.59764642
Si       6.78860408       1.66056024       3.58606175       0.18572584       0.38771405      -0.27899922       0.29465990      -0.04612540      -0.23969479      -8.74961516
Si       8.46624951       2.94926299       6.88021557       1.38289332       1.12554697      -0.07138349       1.18240748      -1.54646719      -0.58694458      -8.60460455
Si       6.81948038       3.90306138       0.33729029      -1.52847428      -0.62262989      -0.69376596      -1.17808450      -0.09756445       1.00711283      -8.69274147
Si       8.77270982       4.91388402       3.43168793      -0.75842850      -0.10842938       0.10658717       0.24453153       0.21162320       0.54802440      -8.77363880
Si      10.57261910       6.13397405       6.79139543       0.06270081       0.51631906      -0.33825041       0.26173442       0.29972565      -1.38904881      -8.64656314
Si       8.60221301       7.23917492       0.32027133      -0.54432264      -0.84353687       1.13040879       0.14716847       0.56919475       0.61878073      -8.64614001
Si      10.43235424       8.53757869       3.54971351       0.16615996      -1.96858758      -0.30529161       0.71880774      -1.04025832      -0.05260384      -8.67111577
Si      12.60152158       9.46355139       6.74156159       0.25019356      -1.11219578       0.34133493      -0.57498990      -0.03518002      -0.48352120      -8.68874581
Si       8.73814437       0.76420702       0.30291789       0.83661001      -0.85804893       1.43507882       0.42909343      -1.51751999       0.45274595      -8.61994746
Si      10.55892289       1.47672576       3.70444208      -0.27419850      -0.20546479       0.78801240       0.62571208       0.74990902      -1.23867111      -8.66560227
Si      12.55128005       2.83772140       6.69887550       0.61965029       0.35601699       0.78099807       0.00330176      -0.87747419       0.17939390      -8.74553381
Si      10.58828254       3.83767478       0.29674239      -1.33025814      -0.43457316      -0.79941789       0.81008148      -0.46538299       0.38706576      -8.68032511
Si      12.46917510       4.99184611       3.50015940       1.04380399       0.87784360       0.45789341      -0.04276751      -0.16432521       0.16816343      -8.70354288
Si      14.45177324       6.05810322       6.58486659       1.10067069      -2.01069276      -0.37374858       0.46714575       0.34397833      -0.37396886      -8.72942969
Si      12.55844135       7.19025649       0.46728923      -0.14189305       0.06861387      -0.99040335      -1.07443100       0.51710656       0.20595378      -8.73284823
Si      14.37190833       8.41843620       3.55067811       0.18700564      -0.26415490      -0.23529397       0.16368183      -0.96851951       0.04895636      -8.74177167
Si      16.37708142       9.35169913       6.65771311      -0.86068884      -1.10874439      -0.36636724       0.82318522       1.03286217       0.61716958      -8.73822657
53
Lattice="11.5478352 0.0 0.0 5.773917198490155 10.000722372470358 0.0 5.773916394327279 3.333571176804646 9.428767828939895" Properties=species:S:1:pos:R:3:momenta:R:3:forces:R:3:energies:R:1 spacegroup="_JSON {\"number\": 1, \"setting\": 1}" unit_cell=conventional occupancy="_JSON {\"0\": {\"Si\": 1.0}, \"1\": {\"Si\": 1.0}, \"2\": {\"Si\": 1.0}, \"3\": {\"Si\": 1.0}, \"4\": {\"Si\": 1.0}, \"5\": {\"Si\": 1.0}, \"6\": {\"Si\": 1.0}, \"7\": {\"Si\": 1.0}, \"8\": {\"Si\": 1.0}, \"9\": {\"Si\": 1.0}, \"10\": {\"Si\": 1.0}, \"11\": {\"Si\": 1.0}, \"12\": {\"Si\": 1.0}, \"13\": {\"Si\": 1.0}, \"14\": {\"Si\": 1.0}, \"15\": {\"Si\": 1.0}, \"16\": {\"Si\": 1.0}, \"17\": {\"Si\": 1.0}, \"18\": {\"Si\": 1.0}, \"19\": {\"Si\": 1.0}, \"20\": {\"Si\": 1.0}, \"21\": {\"Si\": 1.0}, \"22\": {\"Si\": 1.0}, \"23\": {\"Si\": 1.0}, \"24\": {\"Si\": 1.0}, \"25\": {\"Si\": 1.0}, \"26\": {\"Si\": 1.0}, \"27\": {\"Si\": 1.0}, \"28\": {\"Si\": 1.0}, \"29\": {\"Si\": 1.0}, \"30\": {\"Si\": 1.0}, \"31\": {\"Si\": 1.0}, \"32\": {\"Si\": 1.0}, \"33\": {\"Si\": 1.0}, \"34\": {\"Si\": 1.0}, \"35\": {\"Si\": 1.0}, \"36\": {\"Si\": 1.0}, \"37\": {\"Si\": 1.0}, \"38\": {\"Si\": 1.0}, \"39\": {\"Si\": 1.0}, \"40\": {\"Si\": 1.0}, \"41\": {\"Si\": 1.0}, \"42\": {\"Si\": 1.0}, \"43\": {\"Si\": 1.0}, \"44\": {\"Si\": 1.0}, \"45\": {\"Si\": 1.0}, \"46\": {\"Si\": 1.0}, \"47\": {\"Si\": 1.0}, \"48\": {\"Si\": 1.0}, \"49\": {\"Si\": 1.0}, \"50\": {\"Si\": 1.0}, \"51\": {\"Si\": 1.0}, \"52\": {\"Si\": 1.0}}" energy=-458.58138681388857 stress="0.011049448448217479 -0.0026751010176632103 -0.0014393525687124184 -0.0026751010176632103 0.013438484192588293 0.0001679244327436513 -0.0014393525687124184 0.0001679244327436513 0.006952425719158563" free_energy=-458.58138681388857 pbc="T T T"
Si       6.80600229       3.83646442       2.72992041      -0.84101784       0.23749011      -1.69403289      -0.32561213       0.36731968      -0.45926877      -8.73948935
Si       8.76963127       4.93783912       5.80828274      -0.37165441       1.59902416       0.37256082      -0.59471641       1.14165338       0.14086086      -8.69137956
Si      10.63483475       6.10386813       9.06760851       0.88763086      -0.77025389      -0.89962695      -0.93927061       0.62405957      -0.51447577      -8.75073592
Si       8.67956006       7.17688161       2.76938549       0.61054219       0.22329974       0.54316168      -0.32505818      -0.34119139      -0.55262795      -8.74461203
Si      10.54325916       8.42043294       5.96649866       0.35327787      -1.11085113       0.38408551       0.16093082      -0.10647228      -0.27717892      -8.70159998
Si      12.45136528       9.49218017       9.05822193      -0.42913963       1.02883825      -0.19639480      -0.19182224      -0.49717082       0.35140908      -8.73463588
Si      10.63215448      10.63570077       2.66270979      -1.37149191      -1.45699048       1.06573471      -0.30950794      -0.10716384       1.48521495      -8.70994135
Si      12.51682063      11.62679090       5.90791269       0.48674693      -1.34744928       0.17032843       0.31480826       0.45202844       0.38247809      -8.69095825
Si      14.05750996      12.99157701       9.21093810       0.43649594       0.39414320       0.08800597       0.68268347      -0.05508579       0.33971790      -7.91814500
Si      10.64920793       3.71628267       2.68574367       0.65811392       1.07313585       0.20885553      -0.03659987       0.29988979       0.25407888      -8.63257448
Si      12.52227992       5.03053221       5.86668223      -0.71034652       0.49784543      -0.59020064      -0.32738555      -0.19479409       0.22114344      -8.75235194
Si      14.47224110       6.17872275       8.91435518       0.55990093      -1.49298396       0.91252063      -0.96378429      -0.73622409      -0.12098713      -8.72812624
Si      12.37066235       7.31766315       2.89050649      -0.48586130      -0.20961281       0.21301292       0.89316921      -0.75216268      -1.12961940      -8.69844854
Si      14.49652207       8.39245844       5.91621761      -1.46622165       0.56557458      -0.09318160      -0.80832282      -1.68447410      -0.55237692      -8.67800954
Si      16.40654555       9.41342248       9.01214245       0.88926273      -0.05018601      -0.53329106      -0.60550910       0.10464989       0.25805676      -8.68764363
Si      14.42147656      10.58988796       2.72901879      -0.08324032       1.05394405       0.92549015       0.50950381      -0.31312539       0.08962306      -8.74713816
Si      16.25984413      11.67505690       6.09914013      -1.33256786      -0.16135810       1.42460549       0.66741206       0.09934602      -0.19194300      -8.60093346
Si      18.37357827      12.81988967       9.09337346      -0.51653979       1.14336855      -0.04093443      -0.23941678       0.08641072       0.04930441      -8.68174249
Si      14.39672004       3.90449050       2.70584758      -0.17598532       0.86172417      -0.55429169       0.26487814      -0.37608543      -0.26062293      -8.72171685
Si      16.43723313       4.98230103       5.75208817       1.17454470       0.71227912      -0.83712657      -0.12619621      -1.07507832       0.59329303      -8.72271191
Si      18.31702465       5.86482020       8.96277579      -0.36375213       0.70284678      -1.01188371      -0.38940858       0.22099107      -0.14382762      -7.99927788
Si      16.32772724       7.21308487       2.75138669       0.46832207      -0.61449584      -1.45996291       0.09431941      -0.08376392       0.42224327      -8.70528631
Si      18.26245592       8.28412554       5.79767615      -0.32330218       0.58533818      -0.25215295       0.69731401       0.48271269       0.76102813      -8.67623785
Si      20.15617530       9.45987877       9.12421294       0.10905011       0.10431583       0.44292160       0.43402618      -0.21098847      -0.06379738      -8.76393214
Si      18.26343896      10.49278493       2.64513694      -0.12511883      -0.82476025       1.86945180       0.32031454       0.26490776       0.27076821      -7.92748608
Si      20.16229937      11.70545274       5.89542380      -1.48799318       0.99207388      -0.24992306       0.17657568      -0.57154647       0.00953608      -8.76754453
Si      22.32725490      12.87539140       9.04804813      -1.16799107      -0.25286041      -0.24846858      -0.17340410      -0.06487429       0.10770080      -8.03074398
Si       2.89156509       1.66146360       3.53750288      -0.30934360       1.73489753       0.29017922      -0.46829550      -0.01971867      -0.55007837      -8.69706359
Si       4.78643650       2.71208932       6.66633030      -0.66044757       0.27733797      -1.18545795       0.51857644       0.74431475       0.08786527      -8.68996341
Si       2.82719977       3.83527769       0.29440077       0.13728840       0.21026104       0.32753516       0.21159124      -0.10236688       0.62149526      -8.69257838
Si       4.83598976       4.93274292       3.45420103      -0.01065512      -1.23204719      -1.33292289      -0.13364222       0.40256840      -0.40195299      -8.74104420
Si       6.76210873       6.06383415       6.56713500       1.02064231       0.57744812      -0.47614288       0.71340826      -0.12275672       0.39627213      -8.70985472
Si       4.75517409       7.29618289       0.44934104       0.75230925      -0.71572664      -0.55329629       0.28924426       0.11279598      -0.75368422      -8.72013015
Si       6.76764636       8.29654816       3.47311682       0.07838522       0.22298178      -0.07478686      -0.41226746       0.10075501      -0.10561416      -8.76541564
Si       8.60252924       9.51379599       6.81036393      -1.13499217      -0.09357176      -0.47586591      -0.22953410      -0.34951328      -1.09991480      -8.68843896
Si       4.81106254       0.65148446       0.40832670       0.04388492       1.25334821       1.85831738      -0.59832066      -1.49895548      -0.82290076      -8.58770049
Si       6.79955199       1.67349175       3.56375989       0.01209320       0.03914328      -0.51925943      -0.55175374      -0.30246837      -0.03094689      -8.75755925
Si       8.56874455       2.93675724       6.85653980       2.20897495      -1.63026733      -0.75351457      -0.10219913      -1.60900864      -0.27637190      -8.70430380
Si       6.71853833       3.87507359       0.33369173      -1.78525655      -0.26475171       0.39642186       0.88497909       0.59086972       0.36583629      -8.70712661
Si       8.74726342       4.91459269       3.45581259      -0.17507716       0.10683796       0.72317971       0.38571319       0.09251933       0.18917118      -8.75770152
Si      10.58695131       6.16647280       6.72538931       0.48362802       0.58721173      -1.96711712       0.25395666      -0.23665285      -0.55665783      -8.71302521
Si       8.58877850       7.22102781       0.39762563       0.16878365       0.19730552       1.64793401       0.66612679       0.73881521      -0.06463629      -8.59003206
Si      10.46574118       8.41288538       3.54047540       0.99682573      -2.38234382       0.13734526       0.27506249       0.53295978       0.66289920      -8.72843499
Si      12.58931284       9.41074274       6.73950403      -0.76780687      -0.78194532      -0.38630517      -0.76505792       0.43252396      -0.34562604      -8.74879728
Si       8.79458734       0.67097012       0.38923994       1.19043873      -2.42600804       1.69758222      -0.07287780      -0.45167428      -0.16356179      -8.70295478
Si      10.56793425       1.49753273       3.70266585       0.58137874       1.02549639      -0.69248292       0.47346438       0.84191685      -0.59699409      -8.67101381
Si      12.56853924       2.82940807       6.74181937      -0.26221549      -0.47210206       0.75277388      -1.15696137      -0.10196039      -0.22137464      -8.72468257
Si      10.56554460       3.80439948       0.27746369       0.68609596      -0.66532633       0.17202548       1.62242577       0.17007616       0.78437422      -8.69629737
Si      12.51390167       5.03068175       3.52605123       0.51736505       0.58391294       0.42525893      -0.59728403      -0.24467815      -0.23834648      -8.73244933
Si      14.52169013       5.98703838       6.55815724       1.36747921      -0.39768029      -0.48503856      -0.29516777       1.52826466       0.23766379      -8.66318029
Si      12.50978868       7.21830211       0.43541564      -1.58075800       1.03164114      -0.06783449      -0.54642398       0.62769321       0.82078589      -8.71424569
Si      14.38809607       8.37596305       3.54231968       0.40813500      -1.13012754      -0.07419719       0.08105365      -0.09948832       0.09049616      -8.72261858
Si      16.37223638       9.34359008       6.66596202       0.65117987       0.86063470       0.65640573       0.69426270       1.24940134       0.50207068      -8.75137080
53
Lattice="11.5478352 0.0 0.0 5.773917198490155 10.000722372470358 0.0 5.773916394327279 3.333571176804646 9.428767828939895" Properties=species:S:1:pos:R:3:momenta:R:3:forces:R:3:energies:R:1 spacegroup="_JSON {\"number\": 1, \"setting\": 1}" unit_cell=conventional occupancy="_JSON {\"0\": {\"Si\": 1.0}, \"1\": {\"Si\": 1.0}, \"2\": {\"Si\": 1.0}, \"3\": {\"Si\": 1.0}, \"4\": {\"Si\": 1.0}, \"5\": {\"Si\": 1.0}, \"6\": {\"Si\": 1.0}, \"7\": {\"Si\": 1.0}, \"8\": {\"Si\": 1.0}, \"9\": {\"Si\": 1.0}, \"10\": {\"Si\": 1.0}, \"11\": {\"Si\": 1.0}, \"12\": {\"Si\": 1.0}, \"13\": {\"Si\": 1.0}, \"14\": {\"Si\": 1.0}, \"15\": {\"Si\": 1.0}, \"16\": {\"Si\": 1.0}, \"17\": {\"Si\": 1.0}, \"18\": {\"Si\": 1.0}, \"19\": {\"Si\": 1.0}, \"20\": {\"Si\": 1.0}, \"21\": {\"Si\": 1.0}, \"22\": {\"Si\": 1.0}, \"23\": {\"Si\": 1.0}, \"24\": {\"Si\": 1.0}, \"25\": {\"Si\": 1.0}, \"26\": {\"Si\": 1.0}, \"27\": {\"Si\": 1.0}, \"28\": {\"Si\": 1.0}, \"29\": {\"Si\": 1.0}, \"30\": {\"Si\": 1.0}, \"31\": {\"Si\": 1.0}, \"32\": {\"Si\": 1.0}, \"33\": {\"Si\": 1.0}, \"34\": {\"Si\": 1.0}, \"35\": {\"Si\": 1.0}, \"36\": {\"Si\": 1.0}, \"37\": {\"Si\": 1.0}, \"38\": {\"Si\": 1.0}, \"39\": {\"Si\": 1.0}, \"40\": {\"Si\": 1.0}, \"41\": {\"Si\": 1.0}, \"42\": {\"Si\": 1.0}, \"43\": {\"Si\": 1.0}, \"44\": {\"Si\": 1.0}, \"45\": {\"Si\": 1.0}, \"46\": {\"Si\": 1.0}, \"47\": {\"Si\": 1.0}, \"48\": {\"Si\": 1.0}, \"49\": {\"Si\": 1.0}, \"50\": {\"Si\": 1.0}, \"51\": {\"Si\": 1.0}, \"52\": {\"Si\": 1.0}}" energy=-458.71591171864975 stress="0.009498077565423767 0.0010701624364977266 0.0009533255506665036 0.0010701624364977266 0.011857513259585893 -0.00013224627354038382 0.0009533255506665036 -0.00013224627354038382 0.005429258067071784" free_energy=-458.71591171864975 pbc="T T T"
Si       6.75964474       3.85641583       2.63843051      -0.71491528       0.38003540      -1.46010560       0.48968354      -0.19003268       0.83090727      -8.74011338
Si       8.73352835       5.03981180       5.83412443      -0.80407451       1.73414128       0.59188797       0.19060093      -1.00807157       0.04611816      -8.71210469
Si      10.63655040       6.09002753       8.99937541      -0.84923659       0.22171817      -1.62144984      -1.03748886       0.54960834      -0.19247238      -8.71290685
Si       8.69442944       7.17265996       2.78143781      -0.07571912      -0.37362982       0.04090170      -0.44624235      -0.29945952      -0.07097241      -8.75496302
Si      10.55843465       8.37015929       5.97114118       0.04056643      -0.59025959      -0.27513336      -0.55895732       0.71634795      -0.52251414      -8.70281998
Si      12.43447591       9.51909223       9.05975407       0.07056056      -0.10144826       0.18827011       0.89790307      -0.87323457       0.09297949      -8.71046933
Si      10.55571806      10.56092052       2.77350122      -1.40813728      -1.26868416       2.92816405       0.21949465       0.38580731       0.59713445      -8.71566553
Si      12.54916660      11.58208017       5.92499575       0.62550935      -0.22429562       0.33540170      -0.16408304       0.96050362      -0.18134748      -8.67898912
Si      14.10730846      13.00838109       9.22439163       1.45101002       0.19357739       0.32442206       0.62046479      -0.26111528      -0.05476209      -7.89358295
Si      10.68115085       3.78221481       2.70547202       0.52995120       1.38936495       0.50747262      -0.16147015       0.09523187       0.10681425      -8.69664128
Si      12.48797614       5.04305261       5.84944975      -0.30400118      -0.11628155      -0.01207938       0.81169474      -0.55993378       0.43021109      -8.71700892
Si      14.46785837       6.07674054       8.95904421      -0.53358200      -2.21243265       0.84666957      -0.24481437      -0.02911772       0.07420022      -8.65144821
Si      12.38902671       7.27815364       2.85546176       1.24181319      -1.19335504      -1.50252697       1.08379672      -0.33181002      -0.91499964      -8.73849085
Si      14.41476497       8.36151561       5.89722161      -1.20278745      -1.54423916      -0.46827393       0.90689543      -0.87488580       0.07524572      -8.70459219
Si      16.42304583       9.41172188       9.00301641      -0.33406807      -0.04845991       0.35251383      -0.88699040      -0.02586313       0.88979290      -8.67078852
Si      14.44020805      10.62085207       2.78130461       0.80654846      -0.04066545       1.06568158       0.53020599      -0.95830317       0.08246348      -8.74025932
Si      16.23417518      11.66748590       6.15115114       0.67297483      -0.18163770       0.25665562       1.84601515      -0.08086962      -1.35362150      -8.63346921
Si      18.33846077      12.87897671       9.10034554      -0.79521683       1.01556343       0.41255565      -0.13311426      -0.27906934       0.45424456      -8.68426407
Si      14.39486592       3.93341035       2.66912786       0.02728501       0.22955404      -0.76725581      -0.03355479      -0.41913898       0.04682009      -8.75201745
Si      16.49356443       4.97850439       5.72500304       0.93759677      -0.74761953      -0.30415806      -0.27003861      -0.62790739       0.16910953      -8.72706360
Si      18.29084924       5.90803817       8.90913087      -0.44106010       0.88668171      -0.90972992       0.36423044      -0.01216527       0.33624983      -7.99802011
Si      16.35553752       7.17779875       2.69651390       0.55739962      -0.68809639      -0.59804732      -0.04272554       0.08680219       0.55101871      -8.69014334
Si      18.26932639       8.32978231       5.81056294       0.46714198       1.04832740       0.63487385       0.21673036       0.05798394       0.32987488      -8.70231400
Si      20.16696246       9.46296755       9.14051013       0.07335333       0.11641784       0.07202628      -0.44815712       0.18512559      -0.47157951      -8.70324982
Si      18.27053558      10.46951996       2.74766284       0.39638292       0.10325912       1.90027971       0.31444568       0.88898175      -0.26820991      -7.91098584
Si      20.09851560      11.73149542       5.88358227      -0.83639902       0.00095028      -0.17950099       0.58623774      -0.56329780       0.10246004      -8.74366814
Si      22.26785737      12.85499585       9.03326751      -0.91705411      -0.58626719      -0.43129935       0.51804438      -0.29677771      -0.34224341      -7.97855468
Si       2.85606115       1.74260889       3.53217247      -1.02779972       1.17923124      -0.42712361      -0.39208242      -0.71673379      -0.28589769      -8.72167109
Si       4.77578230       2.75178152       6.61260392       0.28147009       1.10297277      -0.75918869       0.62133641       0.21155650       0.48959068      -8.68622188
Si       2.84244727       3.83896818       0.32532608       0.40159046      -0.11027994       0.61923031       0.04812926      -0.25325048      -0.29185561      -8.69813893
Si       4.83125820       4.89272439       3.37803334      -0.14487579      -0.15579493      -1.35557429      -0.03348854       0.92794912       0.42999303      -8.74372184
Si       6.83108263       6.09342677       6.55785573       1.28082215       0.64572250       0.11904385      -0.56445292       0.24518661       0.37903656      -8.76679576
Si       4.79753902       7.26983458       0.39202340       0.68854103      -0.18002929      -1.52612583      -0.38300631       0.52391222      -0.34056435      -8.76397521
Si       6.75715609       8.30370036       3.46840924      -0.42757694      -0.10402698      -0.01840220      -0.21193228      -0.48178537       0.22283855      -8.76158706
Si       8.54440680       9.49804064       6.75056132      -0.84788000      -0.43745507      -1.58317961       0.68514599      -0.06250174      -0.23278576      -8.69407428
Si       4.79017429       0.65762645       0.47145234      -0.82081957      -0.91965244       0.59350797      -0.51066522      -1.10368547      -0.65587850      -8.63428871
Si       6.77277518       1.66644708       3.53905206      -1.06797115      -0.25311365      -0.35916428      -0.67228410      -0.09666039       0.21446351      -8.73060191
Si       8.66197178       2.81654340       6.81393017       0.96350716      -2.34833713      -0.68831476      -1.54460697       0.71305410       0.42550987      -8.67678955
Si       6.67266246       3.88624061       0.35455574       0.15163234       0.63691354       0.08895200       1.34011694       0.36998146      -0.83784285      -8.71024454
Si       8.74662006       4.92259488       3.49397219       0.00510569       0.17312098       0.60290005      -0.17836708      -0.00923306      -0.30829922      -8.71778827
Si      10.61859943       6.18203601       6.61772713       0.62374658      -0.08579697      -1.81421856      -0.13475197      -0.58153817       0.70183497      -8.75879021
Si       8.61988380       7.25637834       0.46860806       0.90122578       1.05460812       0.80345527       0.21957335       0.35778503      -1.04075694      -8.57610243
Si      10.51994282       8.31967207       3.57830503       0.93207358      -1.06296425       1.31651193      -0.24674392       0.94535928       0.67968124      -8.73865956
Si      12.52193864       9.38763142       6.71370014      -1.67329706      -0.10032505      -0.44814038      -0.24527270       0.42535772       0.22877630      -8.78299304
Si       8.84331492       0.54069476       0.46611448       0.44408873      -2.27269261       1.13995569      -0.92746456       0.59873822      -0.52813246      -8.73287510
Si      10.61235838       1.58064074       3.65560539       1.01547115       2.03271120      -0.87618048       0.09052804       0.39629053       0.28993676      -8.67275802
Si      12.50510747       2.81113380       6.77009215      -2.11264216      -0.07470932       0.29066619      -0.95282754       0.48531641      -0.34879488      -8.72932675
Si      10.65062687       3.77875743       0.31139106       2.15194679      -0.29608723       0.97015169       0.05686259       0.25258469       0.20661785      -8.74923746
Si      12.51856213       5.04996697       3.53534728      -0.27127510       0.10106995      -0.11402534      -0.32240118      -0.43147532      -0.39659343      -8.74888006
Si      14.57131272       6.02151108       6.54664148       0.37930723       1.52511887       0.11428959      -0.84564973       0.76625234       0.51257455      -8.68136199
Si      12.42276114       7.29073490       0.45864753      -1.41818058       1.57397898       0.78625839       0.68776009       0.01210337       0.15159428      -8.72331497
Si      14.41116589       8.32224206       3.53924048       0.46052645      -0.77889695      -0.09857755       0.04318663       0.44557307      -0.12151336      -8.69384359
Si      16.41128835       9.42161796       6.70751739       0.44942069       1.75249468       0.69507686      -0.79544863      -0.17547612      -0.38645527      -8.75727511
53
Lattice="11.5478352 0.0 0.0 5.773917198490155 10.000722372470358 0.0 5.773916394327279 3.333571176804646 9.428767828939895" Properties=species:S:1:pos:R:3:momenta:R:3:forces:R:3:energies:R:1 spacegroup="_JSON {\"number\": 1, \"setting\": 1}" unit_cell=conventional occupancy="_JSON {\"0\": {\"Si\": 1.0}, \"1\": {\"Si\": 1.0}, \"2\": {\"Si\": 1.0}, \"3\": {\"Si\": 1.0}, \"4\": {\"Si\": 1.0}, \"5\": {\"Si\": 1.0}, \"6\": {\"Si\": 1.0}, \"7\": {\"Si\": 1.0}, \"8\": {\"Si\": 1.0}, \"9\": {\"Si\": 1.0}, \"10\": {\"Si\": 1.0}, \"11\": {\"Si\": 1.0}, \"12\": {\"Si\": 1.0}, \"13\": {\"Si\": 1.0}, \"14\": {\"Si\": 1.0}, \"15\": {\"Si\": 1.0}, \"16\": {\"Si\": 1.0}, \"17\": {\"Si\": 1.0}, \"18\": {\"Si\": 1.0}, \"19\": {\"Si\": 1.0}, \"20\": {\"Si\": 1.0}, \"21\": {\"Si\": 1.0}, \"22\": {\"Si\": 1.0}, \"23\": {\"Si\": 1.0}, \"24\": {\"Si\": 1.0}, \"25\": {\"Si\": 1.0}, \"26\": {\"Si\": 1.0}, \"27\": {\"Si\": 1.0}, \"28\": {\"Si\": 1.0}, \"29\": {\"Si\": 1.0}, \"30\": {\"Si\": 1.0}, \"31\": {\"Si\": 1.0}, \"32\": {\"Si\": 1.0}, \"33\": {\"Si\": 1.0}, \"34\": {\"Si\": 1.0}, \"35\": {\"Si\": 1.0}, \"36\": {\"Si\": 1.0}, \"37\": {\"Si\": 1.0}, \"38\": {\"Si\": 1.0}, \"39\": {\"Si\": 1.0}, \"40\": {\"Si\": 1.0}, \"41\": {\"Si\": 1.0}, \"42\": {\"Si\": 1.0}, \"43\": {\"Si\": 1.0}, \"44\": {\"Si\": 1.0}, \"45\": {\"Si\": 1.0}, \"46\": {\"Si\": 1.0}, \"47\": {\"Si\": 1.0}, \"48\": {\"Si\": 1.0}, \"49\": {\"Si\": 1.0}, \"50\": {\"Si\": 1.0}, \"51\": {\"Si\": 1.0}, \"52\": {\"Si\": 1.0}}" energy=-458.3343697729781 stress="0.009422608097132615 -0.0008982583357556405 -0.0005394624395542619 -0.0008982583357556405 0.006700736107799778 0.0019615444440858167 -0.0005394624395542619 0.0019615444440858167 0.00653094355561248" free_energy=-458.3343697729781 pbc="T T T"
Si       6.74538747       3.86412075       2.60213597       0.19272580      -0.14987970       0.11040023       0.56966848      -0.43670582       0.95092060      -8.72307142
Si       8.70964075       5.07433863       5.86195438      -0.00040579      -0.62850122       0.39227465       0.57384721      -1.81423224      -0.23763639      -8.65471241
Si      10.56699761       6.11532799       8.91992469      -1.46871274       0.57972136      -1.15653249       0.26710100      -0.09243187       0.77525778      -8.67018726
Si       8.67899094       7.14895897       2.78559969      -0.38776510      -0.37118206       0.15737293       0.03836016       0.31671165       0.08328656      -8.73961192
Si      10.53499447       8.36588674       5.94231782      -0.93895152       0.32430686      -0.63408069      -0.55768426       0.31935691       0.21872908      -8.73118755
Si      12.47905995       9.48673316       9.06805815       1.63082083      -0.91859205       0.03587444       0.89741987      -0.03420225      -0.27054985      -8.70685001
Si      10.49207362      10.51356931       2.92752813      -1.00426758      -0.47673691       2.51122245       0.27875592       0.60869429      -1.09389556      -8.67494139
Si      12.56885324      11.60496006       5.93039878      -0.00621261       0.98490391      -0.20097120      -0.66997850       0.51569956      -0.45927471      -8.71189279
Si      14.20132803      13.00452170       9.23375293       1.94602029      -0.41450823      -0.07510831      -0.12616990      -0.54266933      -0.47898298      -7.96195632
Si      10.69886889       3.85594564       2.73218409       0.04368027       1.35344922       0.41980187      -0.55523318      -0.17239468      -0.24557234      -8.74375252
Si      12.50876398       5.01760020       5.86120194       1.11255543      -0.74840800       0.35879772       0.86601839      -0.14036547       0.03867553      -8.70813215
Si      14.44382318       5.97261826       9.00767385      -0.16343486      -1.50650824       0.99358774       0.62282673       0.94594845       0.02530052      -8.57416847
Si      12.48183935       7.21686939       2.75913262       1.99432140      -0.88216699      -1.75601628      -0.08250375       0.66961380       0.68413145      -8.75256448
Si      14.38723598       8.27091574       5.88032176       0.07079989      -1.38797012      -0.13464327       0.60926843       1.14351136       0.24039537      -8.69224963
Si      16.37653751       9.41061621       9.05553989      -1.29371657       0.06477650       1.55124457      -0.31186077       0.19289616       0.49680318      -8.68073224
Si      14.49511235      10.58637469       2.84002867       1.10649675      -1.11711574       1.14120010      -0.16721983      -0.34282265      -0.05025849      -8.72012196
Si      16.32781603      11.66040147       6.10629004       2.38496275       0.04489406      -1.99423714      -0.12183766       0.37571534      -1.44758975      -8.70964924
Si      18.29170265      12.91833873       9.13705018      -0.99058180       0.43718880       0.88735725      -0.14380653      -0.46144272       0.06796168      -8.68802032
Si      14.39197052       3.93152372       2.63579773      -0.16107235      -0.25698253      -0.42048107      -0.11949157      -0.24421384       0.36014937      -8.73500442
Si      16.52791537       4.93339782       5.71318450       0.27966612      -0.58927270      -0.16813144      -0.62304508       0.84798301       0.08393420      -8.67523034
Si      18.29069951       5.95042956       8.88019627       0.55268243       0.65977823      -0.09268386       0.80366981      -0.27966234       0.72594759      -7.95794005
Si      16.37903154       7.15156163       2.67837901       0.25722763      -0.17002653      -0.26425034      -0.35056426       0.63301342      -0.11308252      -8.70085890
Si      18.28908950       8.37971828       5.84804182       0.03610141       0.72603055       0.64132145      -0.73263304      -0.43234424      -0.25765647      -8.69361138
Si      20.14885738       9.47741549       9.12199639      -0.78736213       0.43040706      -0.82914590      -0.53858253       0.17234331      -0.66741031      -8.59824578
Si      18.29867249      10.50589761       2.83232190       0.54205859       1.11712970       1.24150763      -0.21885961       0.23372495      -0.60757608      -7.88320539
Si      20.07465260      11.71964523       5.88014010      -0.13755287      -0.24454302       0.08734086       0.34397989       0.24418977       0.25257281      -8.65776993
Si      22.24304545      12.81633561       8.99507734      -0.02603145      -0.76528826      -1.01539327       0.52523887       0.17825663      -0.29685375      -7.93071665
Si       2.79417111       1.77352813       3.50755740      -1.14368887      -0.00842633      -0.32761492       0.34802035      -0.73250544       0.43204372      -8.75859673
Si       4.80911424       2.80494551       6.59425023       0.85424302       0.67068799       0.08255130       0.08850971      -0.75736040       0.56473295      -8.70984055
Si       2.85984384       3.82707797       0.33623422       0.14851965      -0.23375331      -0.34637802      -0.39009744       0.17644700      -0.83365584      -8.72700177
Si       4.82411332       4.91692473       3.33133458      -0.09427584       0.94186291      -0.31105452       0.09540648       0.38950842       0.86921356      -8.75600338
Si       6.86064545       6.13982281       6.57592512      -0.34040152       1.11046576       0.48255098      -1.26085755       0.17558513       0.02872711      -8.75605676
Si       4.81580769       7.27676241       0.30984084       0.01563191       0.29276657      -1.40383419      -0.35344005      -0.06774315       0.45078067      -8.76704018
Si       6.73100892       8.28074016       3.47948997      -0.47920696      -0.67064400       0.48030305       0.14061338      -0.09236259       0.37442225      -8.75777230
Si       8.53662508       9.47908874       6.67252596       0.68135350      -0.15776796      -1.14100364       1.15038953       0.42335051       0.74043853      -8.71101261
Si       4.73261773       0.58505579       0.48809564      -1.22455504      -1.46521748       0.25037051       0.08403335       0.39662296       0.17023268      -8.64533345
Si       6.70149829       1.65041050       3.52901994      -1.38882002      -0.34411581      -0.01933827       0.33950688      -0.03441161       0.23109647      -8.70688804
Si       8.65479236       2.73642951       6.79890955      -0.98354889      -0.54624897       0.13262150      -0.57832680       1.36810996       0.49313259      -8.62491594
Si       6.72119405       3.91990896       0.31894436       1.45166770       0.35038995      -1.44395907       0.37001732      -0.78102074      -0.80834933      -8.74164759
Si       8.73416296       4.92964266       3.51240842      -0.55486450       0.05910703       0.10453062      -0.46665061      -0.15025550      -0.29198932      -8.70930773
Si      10.64080922       6.15815227       6.55566312       0.15070130      -0.72355752      -0.50166769      -0.40717321      -0.19593509       0.89934558      -8.75822843
Si       8.66841411       7.31907471       0.46803800       0.81504122       1.19716545      -0.77192440      -0.31134943      -0.19191805      -0.82016077      -8.64179323
Si      10.56114454       8.28954896       3.65895375       0.68503695      -0.31393111       1.38990399      -0.08065868       0.06761949      -0.75031167      -8.72662046
Si      12.43923804       9.39608022       6.70118050      -1.19345606       0.37264343      -0.02577013       0.85572138       0.22825810       0.24253482      -8.74510566
Si       8.82753127       0.44922970       0.50546072      -1.01699887      -1.16976248       0.36715745      -0.80437549       0.77454023      -0.49455187      -8.74500236
Si      10.66484156       1.69278775       3.62601164       0.90019648       2.02748072      -0.19380705      -0.24854923      -0.44505074       0.51168093      -8.69938424
Si      12.38070854       2.82574046       6.77576646      -2.07781908       0.61566820       0.04972741       1.18788097       0.42973376       0.14112805      -8.73698345
Si      10.74317798       3.77224708       0.36383619       1.00784981       0.03403845       0.92698631      -1.38114820       0.18686212      -0.20672889      -8.68440001
Si      12.50189586       5.03809873       3.51822336      -0.15542901      -0.52156137      -0.42786668       0.48916665      -0.29512633       0.03294923      -8.74664612
Si      14.56415912       6.10609855       6.57429052      -0.49432788       1.15486920       0.97883251      -0.23494987      -1.33762047       0.65500809      -8.68351763
Si      12.38007844       7.36417939       0.48940245      -0.17348793       1.03451027       0.05664923       0.83117973      -0.73779713      -1.11584753      -8.70679011
Si      14.43986862       8.29686832       3.52864580       0.69065796      -0.25934976      -0.28834168       0.25709961       0.17124541      -0.05073636      -8.71942124
Si      16.40031513       9.48786362       6.72762861      -0.86407126       0.45777624       0.11274677      -0.79665307      -1.37294704      -0.24286216      -8.69267490
53
Lattice="11.5478352 0.0 0.0 5.773917198490155 10.000722372470358 0.0 5.773916394327279 3.333571176804646 9.428767828939895" Properties=species:S:1:pos:R:3:momenta:R:3:forces:R:3:energies:R:1 spacegroup="_JSON {\"number\": 1, \"setting\": 1}" unit_cell=conventional occupancy="_JSON {\"0\": {\"Si\": 1.0}, \"1\": {\"Si\": 1.0}, \"2\": {\"Si\": 1.0}, \"3\": {\"Si\": 1.0}, \"4\": {\"Si\": 1.0}, \"5\": {\"Si\": 1.0}, \"6\": {\"Si\": 1.0}, \"7\": {\"Si\": 1.0}, \"8\": {\"Si\": 1.0}, \"9\": {\"Si\": 1.0}, \"10\": {\"Si\": 1.0}, \"11\": {\"Si\": 1.0}, \"12\": {\"Si\": 1.0}, \"13\": {\"Si\": 1.0}, \"14\": {\"Si\": 1.0}, \"15\": {\"Si\": 1.0}, \"16\": {\"Si\": 1.0}, \"17\": {\"Si\": 1.0}, \"18\": {\"Si\": 1.0}, \"19\": {\"Si\": 1.0}, \"20\": {\"Si\": 1.0}, \"21\": {\"Si\": 1.0}, \"22\": {\"Si\": 1.0}, \"23\": {\"Si\": 1.0}, \"24\": {\"Si\": 1.0}, \"25\": {\"Si\": 1.0}, \"26\": {\"Si\": 1.0}, \"27\": {\"Si\": 1.0}, \"28\": {\"Si\": 1.0}, \"29\": {\"Si\": 1.0}, \"30\": {\"Si\": 1.0}, \"31\": {\"Si\": 1.0}, \"32\": {\"Si\": 1.0}, \"33\": {\"Si\": 1.0}, \"34\": {\"Si\": 1.0}, \"35\": {\"Si\": 1.0}, \"36\": {\"Si\": 1.0}, \"37\": {\"Si\": 1.0}, \"38\": {\"Si\": 1.0}, \"39\": {\"Si\": 1.0}, \"40\": {\"Si\": 1.0}, \"41\": {\"Si\": 1.0}, \"42\": {\"Si\": 1.0}, \"43\": {\"Si\": 1.0}, \"44\": {\"Si\": 1.0}, \"45\": {\"Si\": 1.0}, \"46\": {\"Si\": 1.0}, \"47\": {\"Si\": 1.0}, \"48\": {\"Si\": 1.0}, \"49\": {\"Si\": 1.0}, \"50\": {\"Si\": 1.0}, \"51\": {\"Si\": 1.0}, \"52\": {\"Si\": 1.0}}" energy=-458.1099001123689 stress="0.008926136128978726 -0.0032477496570420504 -0.002698723306326522 -0.0032477496570420504 0.005465595894557223 0.0017467712129464877 -0.002698723306326522 0.0017467712129464877 0.007457215218561804" free_energy=-458.1099001123689 pbc="T T T"
Si       6.77008358       3.84120983       2.63058592       0.57283207      -0.66846012       0.68335216      -0.12021301      -0.22233967      -0.17771998      -8.72713549
Si       8.71918325       4.98317383       5.87545878       0.10061965      -2.49848199       0.16799372      -0.42281318      -0.43440429      -0.07721849      -8.70020519
Si      10.51430837       6.13512255       8.89397878      -0.31672520       0.06183112       0.21440354       1.13189005      -0.53135767       0.96229406      -8.60835069
Si       8.66426208       7.14671781       2.79263022      -0.12011507       0.34006576       0.01885869       0.24825882       0.52278842      -0.26406582      -8.69855215
Si      10.47666804       8.38362442       5.92900009      -0.97119401       0.12754249       0.25651568       0.66270599      -0.56013249       0.69489414      -8.73935218
Si      12.58617777       9.45100226       9.05735418       2.15774961      -0.25353802      -0.46058934      -0.26390689       0.68056847      -0.33029291      -8.69990284
Si      10.44931127      10.50871439       3.00623359      -0.61340185       0.19573005       0.34629480       0.33785133       0.23280595      -1.65081449      -8.63798268
Si      12.54164057      11.66568416       5.90422193      -0.97184305       1.12313229      -0.71338655      -0.41937838      -0.29335441      -0.12632257      -8.73813675
Si      14.28451413      12.96151370       9.20750978       0.98092680      -1.17637619      -0.96570087      -1.05099887      -0.33073148      -0.61690742      -7.99937528
Si      10.67532059       3.91771456       2.74225283      -0.97135388       0.95884260      -0.04665696      -0.64844094      -0.33616683      -0.28005937      -8.74333879
Si      12.59000019       4.98346475       5.87730007       1.73222446      -0.35691639       0.19016318      -0.12626246       0.61413229      -0.21665955      -8.72314714
Si      14.46326197       5.93460903       9.05761201       0.94405239       0.07043557       0.84987317       0.77086708       0.97937109      -0.20695827      -8.64252992
Si      12.57404308       7.19946541       2.70629298       1.37034309       0.21911555      -0.14701447      -0.68501849       0.67435450       1.11155673      -8.70621716
Si      14.40535371       8.25362221       5.88020971       0.45130030       0.72369691       0.10942624      -0.06723426       1.11278208       0.16202647      -8.71259151
Si      16.30664313       9.42224494       9.14241576      -1.16900292       0.35807713       1.47508139       0.48138389       0.10851429      -0.62110831      -8.66328673
Si      14.53998754      10.52684532       2.89314988       0.49910200      -0.91622841       0.77010228      -0.58303086       0.57779567      -0.49139729      -8.64488512
Si      16.41678162      11.67326364       5.95925673       0.59314252       0.33199416      -3.19496590      -1.72186513      -0.01622446       0.23182221      -8.68864750
Si      18.23325323      12.92458970       9.17854140      -1.23761850      -0.16270640       0.55756681      -0.13353886      -0.32094150      -0.46125367      -8.70332061
Si      14.38363255       3.90975857       2.62576915      -0.03859467      -0.55533345      -0.02949460       0.33855867      -0.16789901       0.10185113      -8.71058181
Si      16.51583921       4.94363733       5.71119795      -0.77414874       1.00844250       0.19612801      -0.74749754       0.95596782       0.48166380      -8.65755122
Si      18.34364181       5.97326376       8.90372419       1.23923969       0.19561254       0.94674436      -0.08718753      -0.34633052       0.54283003      -7.95806769
Si      16.37887418       7.17043808       2.65405202      -0.22065777       0.88708505      -0.73631322      -0.17473832       0.60315188      -0.39467861      -8.72644228
Si      18.26245015       8.40261339       5.87148980      -0.95168651       0.22077010       0.29301628      -0.35614122      -0.15743406      -0.10877265      -8.71773423
Si      20.09428548       9.50387778       9.05449716      -1.10168998       0.51112797      -1.67567397       0.21682346      -0.09500704      -0.38715164      -8.60458276
Si      18.30914888      10.55771865       2.87174323      -0.29451545       0.57860288       0.22409676      -0.78108257      -0.83954529      -0.74244511      -7.80478159
Si      20.07906897      11.72309423       5.89576663       0.29567905       0.46378225       0.53055209       0.29526467       0.58769778       0.33824529      -8.58356946
Si      22.25487878      12.79073916       8.93861495       0.33234758      -0.10326488      -0.93169537      -0.03868398       0.58330833       0.50851267      -7.89950443
Si       2.75841260       1.75332203       3.51370723      -0.05553575      -0.57977389       0.65186716       0.95743588      -0.03476469       0.77354454      -8.76389210
Si       4.84926066       2.80919249       6.61427690       0.51742735      -0.42967448       0.51156134      -0.53864408      -0.44656845      -0.09603117      -8.73372942
Si       2.85018278       3.83011830       0.29156745      -0.50748641       0.51057179      -1.17434615      -0.33329848       0.79797615      -0.12802692      -8.75731631
Si       4.82346645       4.97006702       3.34613203       0.07247194       0.88756786       0.77849023       0.10544631      -0.37124585       0.48204324      -8.76021921
Si       6.80630433       6.19364061       6.59642006      -1.43205030       0.69729444       0.22320854      -0.10728231      -0.75860770      -0.25223602      -8.73837643
Si       4.80998692       7.27784924       0.25703781      -0.10506407      -0.42527101      -0.58186318       0.16258326      -0.72891102       0.55425588      -8.71538236
Si       6.71375538       8.25248672       3.51676895      -0.15283299      -0.21798423       0.86362551       0.23947226       0.63827895       0.06546715      -8.74844047
Si       8.60313703       9.48915940       6.64386735       1.45860999       0.55152140       0.03713926      -0.37692718       0.46938827       0.69463258      -8.75838490
Si       4.68197241       0.53845069       0.51529176      -0.54181505      -0.07807459       0.88491559       0.69466760       1.30073354       0.54306783      -8.59279352
Si       6.65343847       1.63142102       3.53616679      -0.26133129      -0.37609708       0.26409584       1.04506365      -0.02321865       0.11402501      -8.69136322
Si       8.60425055       2.75338313       6.81709707      -0.58437764       0.98696690       0.37898055       0.81963286       0.53018659      -0.22251162      -8.64712116
Si       6.80022072       3.89935604       0.23038458       1.34668646      -1.19408076      -1.55568621      -0.48030267      -0.98696522       0.64825839      -8.71970684
Si       8.68978547       4.92627170       3.51021939      -1.04732349      -0.17628530      -0.10817723      -0.11695212      -0.09739194       0.02259171      -8.75398814
Si      10.63567842       6.11731028       6.55808651      -0.27884649      -0.77302808       0.46194315      -0.15200833       0.04345057       0.38181387      -8.73946124
Si       8.69481075       7.36820559       0.41060415       0.11831882       0.56493055      -1.10535570      -0.59176920      -0.62211675       0.39935597      -8.70960457
Si      10.59498761       8.26965224       3.68691042       0.60493787      -0.49541750      -0.51180804      -0.08092640      -0.13578833      -1.45185710      -8.66501526
Si      12.41478812       9.42316082       6.70435190       0.29141108       0.63723355       0.03498433       0.97364390       0.13439761      -0.19244420      -8.68983172
Si       8.75509640       0.41411617       0.50838476      -1.48895328      -0.23542440      -0.18857014       0.19339758       0.51331469      -0.22757428      -8.72806789
Si      10.69880562       1.77445623       3.62930367       0.31795096       0.97458205       0.12041096      -0.54949448      -0.87663781      -0.28513385      -8.74805656
Si      12.33716970       2.87135438       6.79200917       0.59847522       0.98155640       0.65571680       1.86650613      -0.14934274       0.44531165      -8.68988860
Si      10.74117458       3.77887586       0.40196252      -1.01576462       0.16630595       0.47651800      -1.10567329      -0.01102919      -0.40026558      -8.66936465
Si      12.51852172       5.00602024       3.50235419       0.82687286      -0.57042473      -0.10275283       0.62092517       0.21049860       0.31994373      -8.74671396
Si      14.53808184       6.10285403       6.64949288      -0.34616324      -1.27452725       1.78661623       0.37482103      -1.30630306       0.24401932      -8.69825669
Si      12.39745659       7.38357272       0.44451819       0.70856786      -0.39065887      -1.70870507       0.32425013      -1.09578499      -0.87107518      -8.73290500
Si      14.48664437       8.28434226       3.51643023       1.07044051      -0.29571547      -0.07095203       0.16404515      -0.12059799       0.36160074      -8.76630123
Si      16.33073418       9.46396755       6.72966031      -1.63163787      -1.13067433       0.04946518      -0.16418385      -0.45432046       0.09535390      -8.70594546
53
Lattice="11.5478352 0.0 0.0 5.773917198490155 10.000722372470358 0.0 5.773916394327279 3.333571176804646 9.428767828939895" Properties=species:S:1:pos:R:3:momenta:R:3:forces:R:3:energies:R:1 spacegroup="_JSON {\"number\": 1, \"setting\": 1}" unit_cell=conventional occupancy="_JSON {\"0\": {\"Si\": 1.0}, \"1\": {\"Si\": 1.0}, \"2\": {\"Si\": 1.0}, \"3\": {\"Si\": 1.0}, \"4\": {\"Si\": 1.0}, \"5\": {\"Si\": 1.0}, \"6\": {\"Si\": 1.0}, \"7\": {\"Si\": 1.0}, \"8\": {\"Si\": 1.0}, \"9\": {\"Si\": 1.0}, \"10\": {\"Si\": 1.0}, \"11\": {\"Si\": 1.0}, \"12\": {\"Si\": 1.0}, \"13\": {\"Si\": 1.0}, \"14\": {\"Si\": 1.0}, \"15\": {\"Si\": 1.0}, \"16\": {\"Si\": 1.0}, \"17\": {\"Si\": 1.0}, \"18\": {\"Si\": 1.0}, \"19\": {\"Si\": 1.0}, \"20\": {\"Si\": 1.0}, \"21\": {\"Si\": 1.0}, \"22\": {\"Si\": 1.0}, \"23\": {\"Si\": 1.0}, \"24\": {\"Si\": 1.0}, \"25\": {\"Si\": 1.0}, \"26\": {\"Si\": 1.0}, \"27\": {\"Si\": 1.0}, \"28\": {\"Si\": 1.0}, \"29\": {\"Si\": 1.0}, \"30\": {\"Si\": 1.0}, \"31\": {\"Si\": 1.0}, \"32\": {\"Si\": 1.0}, \"33\": {\"Si\": 1.0}, \"34\": {\"Si\": 1.0}, \"35\": {\"Si\": 1.0}, \"36\": {\"Si\": 1.0}, \"37\": {\"Si\": 1.0}, \"38\": {\"Si\": 1.0}, \"39\": {\"Si\": 1.0}, \"40\": {\"Si\": 1.0}, \"41\": {\"Si\": 1.0}, \"42\": {\"Si\": 1.0}, \"43\": {\"Si\": 1.0}, \"44\": {\"Si\": 1.0}, \"45\": {\"Si\": 1.0}, \"46\": {\"Si\": 1.0}, \"47\": {\"Si\": 1.0}, \"48\": {\"Si\": 1.0}, \"49\": {\"Si\": 1.0}, \"50\": {\"Si\": 1.0}, \"51\": {\"Si\": 1.0}, \"52\": {\"Si\": 1.0}}" energy=-458.1883949469037 stress="0.008735951364355775 -0.0011489407050806566 -0.0008499710966550085 -0.0011489407050806566 0.008990730304962329 -0.0006688138887099944 -0.0008499710966550085 -0.0006688138887099944 0.005496624690551301" free_energy=-458.1883949469037 pbc="T T T"
Si       6.78682723       3.80090825       2.65075942      -0.07084102      -0.79769614      -0.02400483      -0.64560430       0.06157175      -0.60578839      -8.70054535
Si       8.70319910       4.86230757       5.87984214      -0.74117515      -1.56330994      -0.06010949      -0.55951665       1.68912619      -0.29403080      -8.66742890
Si      10.53935069       6.11862653       8.93901077       1.13823848      -0.62353877       1.40131406       0.60369561      -0.26002502       0.54669709      -8.66735713
Si       8.66546504       7.18038755       2.78209509       0.09895416       0.82592070      -0.41128963      -0.01465535       0.06463854      -0.22328783      -8.68287740
Si      10.46503720       8.36323203       5.95863000       0.68263210      -0.92361055       0.63260042       1.24209200      -0.61330827      -0.21943184      -8.72271309
Si      12.67497107       9.45537720       9.02312205       0.96232624       0.18021854      -0.77936198      -1.29671541      -0.23365552      -0.07540222      -8.67773482
Si      10.43564694      10.52188178       2.96580937       0.21249071       0.20585351      -1.69933536       0.78527443      -0.15767434      -0.87960906      -8.69202840
Si      12.48729554      11.70850697       5.86952859      -0.84007894       0.45278073      -0.46850996       0.57756713      -0.51555010       0.41669061      -8.71721952
Si      14.29790483      12.89801160       9.13941323      -0.34459389      -1.00260583      -1.44403432      -0.57863174       0.59631466       0.10923002      -7.98733142
Si      10.60827211       3.95552472       2.73392616      -1.36202817       0.49279728      -0.16758247       0.21605295      -0.29611197       0.11511295      -8.72832856
Si      12.66276578       4.99014600       5.87924455       0.80062324       0.57532246      -0.08364282      -1.06334253       0.47176492      -0.08560318      -8.71886049
Si      14.53733387       5.96452020       9.09352597       1.69722635       0.79853685       0.50719297       0.02800547      -0.07989074      -0.26013448      -8.76108165
Si      12.61797941       7.23000736       2.72834212       0.31333368       0.77671370       0.69446734      -0.64045026       0.00958485      -0.02460925      -8.69938514
Si      14.41925107       8.30966960       5.89326864      -0.04600897       0.92102420       0.38640899      -0.53843196      -0.79081808       0.15016047      -8.70425877
Si      16.26974359       9.44015018       9.18584270      -0.17396228       0.22250810       0.03145962       0.71963572      -0.28257119      -1.19815877      -8.64600324
Si      14.54309597      10.50565068       2.91002058      -0.36636995       0.12882443      -0.19536720      -0.51956117       0.65227538      -0.75436916      -8.62766421
Si      16.39160311      11.68969483       5.83510377      -1.28343857       0.30498779      -0.94862314      -0.67941532       0.00553533       2.44462787      -8.55997756
Si      18.16629944      12.90540230       9.18928757      -1.22518032      -0.54683150      -0.11810634       0.21641925      -0.22775629      -0.34574691      -8.73847074
Si      14.40040297       3.87530882       2.62407357       0.75492879      -0.71721306      -0.08884498       0.62718642      -0.00114853      -0.10443606      -8.69221538
Si      16.44895567       5.01910650       5.74460803      -1.67277698       1.54786135       1.10097228      -0.32194803      -0.29683242       0.54917772      -8.70970084
Si      18.38869914       5.96880360       8.96609367       0.19705393      -0.38693341       1.26528919      -1.15860121      -0.40859539      -0.09428769      -7.92258218
Si      16.36884943       7.22940762       2.60412250       0.01186951       1.10999219      -1.04092266       0.48993678      -0.36771595       0.10156983      -8.73440940
Si      18.20971827       8.41233891       5.88788352      -0.86696213       0.19379472       0.42356039       0.39331884       0.01312344       0.24563541      -8.70179320
Si      20.05683261       9.52301370       8.95936374      -0.10032416       0.14714328      -1.75632307       1.09140666      -0.36333153       0.38621661      -8.67605102
Si      18.26945161      10.55538118       2.85648946      -1.01382191      -0.57950380      -0.75203703       0.00508027      -0.50077061      -0.52995084      -7.80513833
Si      20.10712585      11.76750427       5.93709761       0.78804804       1.13297638       1.03179401       0.34012722       0.20106870       0.27227685      -8.64905949
Si      22.26632744      12.80382687       8.91978618       0.04470338       0.48437001       0.36533331      -0.27333496       0.12879973       1.07831544      -7.87426038
Si       2.78534162       1.72509366       3.57406736       0.86027261      -0.47878988       1.51625475       0.11391364       0.04765909       0.24452467      -8.79003481
Si       4.85037434       2.78401487       6.62903454      -0.53162072      -0.24810962      -0.04253343      -0.73519461       0.64982775      -0.44406708      -8.73518202
Si       2.82105654       3.89012751       0.23608846      -0.37388693       1.73697638      -0.75826759       0.53571295       0.60845126       0.58425088      -8.74706377
Si       4.83011316       5.00121838       3.39625863       0.15025298       0.32057632       0.95097065      -0.01462038      -0.30237794      -0.22417102      -8.72598790
Si       6.74012473       6.19488480       6.60314054      -0.87218303      -0.69368091       0.15157468       0.75564407      -0.92319583       0.19937590      -8.66866411
Si       4.81420037       7.23115241       0.24254232       0.30839499      -1.21509099      -0.09909864       0.33056438      -0.18905840       0.05331487      -8.67064482
Si       6.71284661       8.26829766       3.55802369       0.06876459       0.81885160       0.57738631       0.04932177       0.62521293      -0.44356504      -8.75010026
Si       8.64617309       9.53365911       6.66276506      -0.04236155       1.04794878       0.42428198      -1.23417872       0.06675268      -0.33444908      -8.75055526
Si       4.67431403       0.58220367       0.57684853       0.06608179       1.60132480       1.25654344       0.00325868       0.72401153      -0.26961817      -8.67963583
Si       6.67861990       1.60948173       3.55048434       1.12677924      -0.48466251       0.19241405       0.66691219      -0.11016136      -0.23172538      -8.71682945
Si       8.60436360       2.80540152       6.81938671       0.49923652       0.57023074      -0.42707421       0.48801452      -1.11550031      -0.74403146      -8.67107841
Si       6.84666280       3.81347818       0.18425797       0.36267417      -1.73235033      -0.06251740      -0.70518903       0.35178814       1.20012354      -8.67899222
Si       8.63582582       4.91803323       3.50900828      -0.91683425      -0.03067308       0.11091659       0.24324725       0.31510034       0.20634596      -8.77046852
Si      10.61745589       6.07635220       6.59206677      -0.37969296      -0.83918984       0.76281169      -0.00177026      -0.14647291       0.09963334      -8.71343414
Si       8.67915831       7.37307017       0.37922312      -0.64968285      -0.35868601       0.06859283      -0.32783730      -0.53434696       1.01639912      -8.73728447
Si      10.62151490       8.24392250       3.61679512       0.35692980      -0.35277004      -1.83667765      -0.26785728       0.37286779      -0.19832923      -8.70846174
Si      12.46063827       9.46086109       6.69392794       1.28409888       0.77003935      -0.49722884       0.28689630       0.00948002      -0.44024809      -8.70612388
Si       8.69313430       0.41963354       0.49351574      -0.74759788       0.40941594      -0.31351099       0.68454229       0.35411394       0.02805956      -8.66881474
Si      10.69124040       1.79363431       3.60746179      -0.64990362      -0.18341327      -1.21322323      -0.71026504      -0.64343973      -1.22669395      -8.75591461
Si      12.42184539       2.90398712       6.83323053       2.20588571       0.07384962       0.66966972       0.21113698      -0.85882662      -0.49122717      -8.71304083
Si      10.66050458       3.78737983       0.41134023      -1.70080443       0.20298159      -0.09176324       0.31662890       0.17096845      -0.28155031      -8.70008025
Si      12.57637101       4.98710590       3.50728056       1.16077151      -0.11515622       0.22249723      -0.21667256       0.35242558       0.05478118      -8.75413283
Si      14.53740795       6.01245471       6.74183451       0.32768922      -1.62455404       1.53602750       0.37775440       0.81953207      -0.52095923      -8.70210858
Si      12.43967441       7.32509499       0.34072003       0.74948270      -1.67176887      -1.83913604      -0.26974784      -0.43249040       0.72291295      -8.74651722
Si      14.54375103       8.26789089       3.53039887       0.97589669      -0.21481811       0.64186963      -0.34428791       0.32198698       0.49841686      -8.77523214
Si      16.24961978       9.40719943       6.73787335      -1.23350936      -0.66886465       0.29692293       0.71848278       0.96764439       0.22163197      -8.68753553
53
Lattice="11.5478352 0.0 0.0 5.773917198490155 10.000722372470358 0.0 5.773916394327279 3.333571176804646 9.428767828939895" Properties=species:S:1:pos:R:3:momenta:R:3:forces:R:3:energies:R:1 spacegroup="_JSON {\"number\": 1, \"setting\": 1}" unit_cell=conventional occupancy="_JSON {\"0\": {\"Si\": 1.0}, \"1\": {\"Si\": 1.0}, \"2\": {\"Si\": 1.0}, \"3\": {\"Si\": 1.0}, \"4\": {\"Si\": 1.0}, \"5\": {\"Si\": 1.0}, \"6\": {\"Si\": 1.0}, \"7\": {\"Si\": 1.0}, \"8\": {\"Si\": 1.0}, \"9\": {\"Si\": 1.0}, \"10\": {\"Si\": 1.0}, \"11\": {\"Si\": 1.0}, \"12\": {\"Si\": 1.0}, \"13\": {\"Si\": 1.0}, \"14\": {\"Si\": 1.0}, \"15\": {\"Si\": 1.0}, \"16\": {\"Si\": 1.0}, \"17\": {\"Si\": 1.0}, \"18\": {\"Si\": 1.0}, \"19\": {\"Si\": 1.0}, \"20\": {\"Si\": 1.0}, \"21\": {\"Si\": 1.0}, \"22\": {\"Si\": 1.0}, \"23\": {\"Si\": 1.0}, \"24\": {\"Si\": 1.0}, \"25\": {\"Si\": 1.0}, \"26\": {\"Si\": 1.0}, \"27\": {\"Si\": 1.0}, \"28\": {\"Si\": 1.0}, \"29\": {\"Si\": 1.0}, \"30\": {\"Si\": 1.0}, \"31\": {\"Si\": 1.0}, \"32\": {\"Si\": 1.0}, \"33\": {\"Si\": 1.0}, \"34\": {\"Si\": 1.0}, \"35\": {\"Si\": 1.0}, \"36\": {\"Si\": 1.0}, \"37\": {\"Si\": 1.0}, \"38\": {\"Si\": 1.0}, \"39\": {\"Si\": 1.0}, \"40\": {\"Si\": 1.0}, \"41\": {\"Si\": 1.0}, \"42\": {\"Si\": 1.0}, \"43\": {\"Si\": 1.0}, \"44\": {\"Si\": 1.0}, \"45\": {\"Si\": 1.0}, \"46\": {\"Si\": 1.0}, \"47\": {\"Si\": 1.0}, \"48\": {\"Si\": 1.0}, \"49\": {\"Si\": 1.0}, \"50\": {\"Si\": 1.0}, \"51\": {\"Si\": 1.0}, \"52\": {\"Si\": 1.0}}" energy=-458.1519110426434 stress="0.008853110661346624 -0.0005082110380291865 0.0009148667912435986 -0.0005082110380291865 0.011638284872422102 -0.0011954990570192427 0.0009148667912435986 -0.0011954990570192427 0.004331412736870662" free_energy=-458.1519110426434 pbc="T T T"
Si       6.75951159       3.76537199       2.63137129      -0.89183179      -0.47360065      -0.54728339      -0.33748623       0.38742573       0.05786906      -8.70997391
Si       8.64631785       4.85661230       5.86472469      -1.32790826       1.34285057      -0.45901765      -0.14664398       1.64847219      -0.06912811      -8.69632202
Si      10.60726745       6.08574500       9.02333423       1.15084330      -0.40803762       1.57502030      -0.56519018       0.61141420      -0.39102581      -8.71511061
Si       8.66501488       7.22010264       2.75759955      -0.20219880       0.58804890      -0.37864410      -0.34431238      -0.32548670       0.34257021      -8.70389550
Si      10.53791409       8.30254460       5.97569845       1.82225525      -1.14263607      -0.09865212       0.17931950       0.33664360      -0.68668226      -8.65334285
Si      12.67147309       9.44510562       8.98264098      -1.07459837      -0.70583446      -0.69280278      -1.19053679      -0.75302184       0.20665738      -8.67392331
Si      10.47808782      10.52654668       2.86459122       1.36161547      -0.00050983      -1.69274085       0.60737440      -0.05424768       0.91742559      -8.71619517
Si      12.46973800      11.71557456       5.86234566       0.17234058      -0.09509711       0.17200082       0.58638204      -0.16999954       0.32313732      -8.70989435
Si      14.26592417      12.87400229       9.07827513      -0.73811454       0.12135188      -0.72268743      -0.03163224       0.72883728       0.74145651      -7.93146862
Si      10.55519792       3.97087907       2.73208239      -0.50287808       0.11206939       0.12565100       0.83271292      -0.21414080       0.23308523      -8.70383052
Si      12.66095984       5.02997851       5.87628201      -0.84571038       0.76379848       0.06148747      -0.96346171      -0.23291539       0.25907994      -8.71468120
Si      14.60891157       5.99160817       9.10947068       0.68191704       0.07756870       0.10021702      -1.28867358      -0.66847332      -0.24151407      -8.74379495
Si      12.61618098       7.26232722       2.75281131      -0.24604876       0.31009174       0.07892910      -0.11354740      -0.55441604      -0.65074594      -8.68058615
Si      14.39937962       8.31600596       5.91795318      -0.55202216      -0.77890554       0.54645574       0.08202461      -1.17446831       0.11786788      -8.67458476
Si      16.28227861       9.43934437       9.14361589       0.49657214      -0.24593360      -1.52027764       0.11868611      -0.24860826      -0.70292527      -8.69446052
Si      14.50850539      10.52898734       2.87114407      -0.83873437       0.55682250      -1.25227643      -0.07180056      -0.14721883      -0.61005375      -8.71344701
Si      16.31443452      11.70508014       5.87033193      -1.31061693       0.23407404       1.89055081       0.71163568      -0.18597415       0.91486558      -8.57428605
Si      18.11537577      12.86837626       9.17473283      -0.62336117      -0.84104858      -0.35126657       0.57745761      -0.12954329      -0.01545697      -8.68974426
Si      14.46055771       3.84168082       2.61766005       1.41241582      -0.48082260      -0.08598908       0.13011961       0.32095552       0.16384289      -8.68650029
Si      16.36200240       5.07565207       5.81303677      -1.33825202       0.40240581       1.24955274       0.84987927      -1.08763142      -0.44292904      -8.70501658
Si      18.35662804       5.93681010       9.02640892      -1.26805603      -0.71284594       1.01844293      -0.57425688       0.05252567      -0.16821230      -7.90691596
Si      16.39160218       7.26455299       2.56299936       0.84688278       0.11402050      -0.34503384       0.45227705      -0.82073414       0.80235243      -8.70024001
Si      18.18208610       8.41971110       5.92025966      -0.17318654       0.00319272       0.78003128       0.44535825      -0.30964739       0.12065550      -8.68277926
Si      20.09727331       9.51861486       8.89289374       1.62406512      -0.22292129      -0.61550934       1.00133337      -0.00302717       0.98570127      -8.72289000
Si      18.22865396      10.51828850       2.79985709      -0.35349840      -0.57082464      -1.34754566       0.73754980       0.53562318      -0.29028565      -7.83726758
Si      20.15936640      11.82468072       5.99621958       1.12074157       0.82270841       1.06756991       0.00833645      -0.67476403      -0.33537321      -8.73110770
Si      22.25945983      12.82752756       8.97564207      -0.25917751       0.30716133       1.59972360      -0.08641346      -0.31052611       0.43905151      -7.88865375
Si       2.82495368       1.69842881       3.65118923       0.52575958      -0.59437061       1.17802603      -0.37858192      -0.16475126      -0.71546858      -8.73510286
Si       4.80373032       2.80334046       6.61825860      -0.96309244       1.06182710      -0.14760318       0.37249547       0.94231489       0.40685937      -8.72582947
Si       2.82646432       3.98746943       0.22033180       0.59044640       1.55678523       0.16060309       0.58660220      -1.00655309       0.60271150      -8.68724988
Si       4.83595967       5.01003364       3.43386807       0.05201179       0.07848446       0.45176562      -0.09249343      -0.05370125      -0.35055669      -8.68196031
Si       6.72536184       6.13074341       6.62371274       0.27139600      -1.55039500       0.70242450       0.58930744      -0.12463412       0.47655454      -8.68087195
Si       4.84175030       7.17008325       0.23366376       0.69191455      -0.92414420      -0.30711492       0.13166376       0.55625557      -0.20160647      -8.67619054
Si       6.71670551       8.32838671       3.56900749       0.05875784       1.29796211      -0.15443837      -0.02964425      -0.05956341      -0.42117455      -8.75393445
Si       8.60831483       9.58022441       6.65612822      -1.09659587       0.51018999      -0.89823996      -0.05377972      -0.77016534      -1.15093533      -8.70441522
Si       4.66994060       0.67706441       0.61431071      -0.33574990       1.64344698      -0.16094798      -0.40949585      -0.74224234      -1.52779470      -8.70305771
Si       6.75183055       1.58102319       3.54891637       1.40635342      -0.54102742      -0.26879340      -0.35108979       0.12636290      -0.28895588      -8.73720889
Si       8.64071074       2.78467915       6.76925243       0.69530388      -1.28939883      -1.41407233      -0.28922570      -0.81074816      -0.44926226      -8.76199617
Si       6.84553661       3.74865346       0.22412653      -0.23030127      -0.55790854       1.45820261      -0.03197691       1.06633038       0.69729165      -8.67704604
Si       8.59692177       4.93224192       3.51977483      -0.58548943       0.61315190       0.20190649       0.17666393       0.47094514      -0.17317465      -8.75731152
Si      10.59858914       6.02542502       6.63676638      -0.32212796      -1.08126255       0.96325474       0.06178590      -0.05067373       0.17414053      -8.71818808
Si       8.63963093       7.33864096       0.41737183      -0.73145267      -0.85410474       1.19785458       0.15532546      -0.14551624       0.26574650      -8.76861127
Si      10.62892845       8.24442328       3.52750142      -0.07369877       0.41793008      -1.32365784      -0.26026445       0.54272025       0.76543634      -8.72175324
Si      12.52827930       9.49816212       6.65318946       1.08154836       0.56361775      -0.97127249      -0.54687625      -0.34015081      -0.10582528      -8.75000050
Si       8.67801787       0.45097191       0.47888909       0.08455129       0.68523830      -0.24632436       0.34251599      -0.04629122       0.01771553      -8.65964343
Si      10.63161962       1.76315731       3.51009358      -1.53671465      -0.89628541      -2.10182933      -0.35096510      -0.30487486       0.27381397      -8.77991180
Si      12.52598278       2.88072395       6.84221467       1.39475256      -0.77952595      -0.39089525      -1.24407571      -0.16385768      -0.73856133      -8.68051975
Si      10.60279462       3.81165791       0.40186850      -0.19113778       0.83482445      -0.14791301       1.47824074       0.57310369       0.17595025      -8.68319916
Si      12.62205623       4.99339227       3.51606544       0.49229171       0.31142023       0.02639099      -0.56912308       0.17782878      -0.27549826      -8.72181403
Si      14.55705601       5.97561232       6.79993635       0.11515743       0.45267882       0.65887731      -0.79330583       1.72591616      -0.61408678      -8.65415904
Si      12.46530585       7.23451193       0.28557316       0.22384352      -1.53093521      -0.07828811      -0.27769996       0.54298238       1.43925336      -8.70038158
Si      14.57660631       8.27432619       3.57755002       0.21123788       0.51275714       0.98394400      -0.59552238       0.51782928      -0.17570605      -8.75113694
Si      16.21758686       9.41524134       6.76032258       0.02757954       0.98189689       0.47223471       0.77302813       0.98408109      -0.12815270      -8.71950432
53
Lattice="11.5478352 0.0 0.0 5.773917198490155 10.000722372470358 0.0 5.773916394327279 3.333571176804646 9.428767828939895" Properties=species:S:1:pos:R:3:momenta:R:3:forces:R:3:energies:R:1 spacegroup="_JSON {\"number\": 1, \"setting\": 1}" unit_cell=conventional occupancy="_JSON {\"0\": {\"Si\": 1.0}, \"1\": {\"Si\": 1.0}, \"2\": {\"Si\": 1.0}, \"3\": {\"Si\": 1.0}, \"4\": {\"Si\": 1.0}, \"5\": {\"Si\": 1.0}, \"6\": {\"Si\": 1.0}, \"7\": {\"Si\": 1.0}, \"8\": {\"Si\": 1.0}, \"9\": {\"Si\": 1.0}, \"10\": {\"Si\": 1.0}, \"11\": {\"Si\": 1.0}, \"12\": {\"Si\": 1.0}, \"13\": {\"Si\": 1.0}, \"14\": {\"Si\": 1.0}, \"15\": {\"Si\": 1.0}, \"16\": {\"Si\": 1.0}, \"17\": {\"Si\": 1.0}, \"18\": {\"Si\": 1.0}, \"19\": {\"Si\": 1.0}, \"20\": {\"Si\": 1.0}, \"21\": {\"Si\": 1.0}, \"22\": {\"Si\": 1.0}, \"23\": {\"Si\": 1.0}, \"24\": {\"Si\": 1.0}, \"25\": {\"Si\": 1.0}, \"26\": {\"Si\": 1.0}, \"27\": {\"Si\": 1.0}, \"28\": {\"Si\": 1.0}, \"29\": {\"Si\": 1.0}, \"30\": {\"Si\": 1.0}, \"31\": {\"Si\": 1.0}, \"32\": {\"Si\": 1.0}, \"33\": {\"Si\": 1.0}, \"34\": {\"Si\": 1.0}, \"35\": {\"Si\": 1.0}, \"36\": {\"Si\": 1.0}, \"37\": {\"Si\": 1.0}, \"38\": {\"Si\": 1.0}, \"39\": {\"Si\": 1.0}, \"40\": {\"Si\": 1.0}, \"41\": {\"Si\": 1.0}, \"42\": {\"Si\": 1.0}, \"43\": {\"Si\": 1.0}, \"44\": {\"Si\": 1.0}, \"45\": {\"Si\": 1.0}, \"46\": {\"Si\": 1.0}, \"47\": {\"Si\": 1.0}, \"48\": {\"Si\": 1.0}, \"49\": {\"Si\": 1.0}, \"50\": {\"Si\": 1.0}, \"51\": {\"Si\": 1.0}, \"52\": {\"Si\": 1.0}}" energy=-458.22127279281915 stress="0.009770489365640438 -0.00020034818703992184 0.0009256348934280934 -0.00020034818703992184 0.00968559788401525 0.0006106311752001123 0.0009256348934280934 0.0006106311752001123 0.007303621756644879" free_energy=-458.22127279281915 pbc="T T T"
Si       6.70749115       3.75847189       2.61891916      -0.93505291       0.25563196       0.33542326       0.27841354       0.56031408       1.06645087      -8.70673400
Si       8.58201181       4.96403218       5.84483696      -0.87087639       2.20068640      -0.21061601       0.82305406      -0.48772881       0.27154938      -8.71770098
Si      10.63863809       6.09747819       9.08072539      -0.01896263       0.96020557       0.47569893      -0.81256011       0.97650588      -0.90728868      -8.72135566
Si       8.64139390       7.23873478       2.75862471      -0.65454386       0.16288994       0.51648990      -0.17090883      -0.16358652       0.69932053      -8.74132043
Si      10.62679085       8.26172745       5.94270742       1.31801170      -0.35537309      -1.14825102      -0.79886200       0.56649142      -0.63168645      -8.58288675
Si      12.58427308       9.38374169       8.95670716      -1.90331014      -1.48506762      -0.26872634       0.16157875      -0.16826215       0.30643432      -8.70026805
Si      10.56399869      10.52825177       2.81917614       1.69678818       0.13991864      -0.06828575      -0.25624560       0.22884401       0.81097728      -8.72960872
Si      12.49259493      11.70909706       5.87680014       0.50381821      -0.07815675       0.23312033      -0.18129287       0.11168131      -0.23941666      -8.70886150
Si      14.22831410      12.90084868       9.06725329      -0.67111479       0.72145264       0.22161047       0.06270798       0.01685073       0.42786316      -7.92959499
Si      10.56020271       3.97001905       2.74751895       0.62531902      -0.11811363       0.45129062       0.55770836      -0.10982017       0.18048659      -8.71074254
Si      12.58910763       5.05423162       5.88964138      -1.68188728       0.05877104       0.40642914      -0.13146438      -0.62505788       0.09793026      -8.71905933
Si      14.59638161       5.97948868       9.11036767      -1.00235291      -0.26407341       0.03743890      -0.70035385       0.38156423       0.14083916      -8.72510459
Si      12.60248492       7.25722855       2.73399898      -0.24155087      -0.45543778      -0.68612678       0.02925691      -0.36107227      -0.20946773      -8.72278086
Si      14.38629915       8.24402960       5.95166395       0.24128998      -1.55667922       0.69822845       0.80140382       0.45516129      -0.06871905      -8.71738227
Si      16.30642347       9.42278966       9.05243194       0.34010370      -0.24490114      -1.61110973      -0.21145756       0.29748832       0.63782468      -8.71987673
Si      14.46683945      10.54271890       2.78691890      -0.67827584      -0.17688489      -1.82183594       0.20320224      -0.69310043      -0.05803251      -8.76339959
Si      16.29034818      11.70540237       5.97499560       0.64114253      -0.27028345       1.56617353       1.61239649      -0.33482322      -1.17714381      -8.57386328
Si      18.10643262      12.82167514       9.15584605       0.28581168      -0.88695704      -0.38574359       0.58187029       0.07420506      -0.07548545      -8.62331272
Si      14.52961245       3.83013046       2.62389554       1.01690702       0.03610928       0.39800449      -0.66549134       0.30120336       0.45185075      -8.68073154
Si      16.33164192       5.06010584       5.85330292       0.18553773      -0.75650211       0.20770060       0.86577538      -0.14379612      -0.75253337      -8.71744334
Si      18.28249316       5.90699523       9.07539827      -1.27239681      -0.34997640       0.88556112       0.55165442       0.33997014      -0.02191182      -7.90650494
Si      16.44514150       7.24214100       2.57812930       1.00876214      -0.85889921       0.89942298      -0.27238811      -0.38259138       0.70767626      -8.67735135
Si      18.18556103       8.40385522       5.95951344       0.19792931      -0.66650488       0.58163753       0.02684172      -0.53208688      -0.39980914      -8.65097427
Si      20.20768404       9.51378888       8.89152794       2.25608235       0.11334174       0.36715705      -0.28979714       0.26371586       0.24522870      -8.74793140
Si      18.23784265      10.51871657       2.71915068       0.63846913       0.70702825      -1.69948579       0.48209461       0.98576545      -0.16513475      -7.90269873
Si      20.21171488      11.83382047       6.03027314       0.75911456      -0.54938628       0.09217084      -0.43299397      -0.94503669      -0.86294864      -8.73174799
Si      22.24688170      12.83074093       9.06578393      -0.12931652      -0.16901923       1.63825752       0.27085680      -0.24459487      -0.34351050      -7.90935187
Si       2.84135521       1.66173591       3.67775917       0.19612137      -0.75150147      -0.25904438      -0.00371765       0.04347784      -1.07401453      -8.66664772
Si       4.78368596       2.88720682       6.63699096       0.40734588       1.85984563       1.02104871       1.15663323      -0.16196522       1.02191677      -8.70533959
Si       2.87411805       4.01451231       0.24995456       1.08924322      -0.69665719       0.90809351       0.03780086      -1.64548820       0.35224497      -8.63833849
Si       4.83616363       5.01322456       3.44747504      -0.01278062       0.04866662       0.14961831       0.02729266      -0.03132306      -0.02275479      -8.70294635
Si       6.74886319       6.05769613       6.68007089       0.32306272      -0.97734572       1.45262191      -0.57218218       0.87346006       0.48999859      -8.71046104
Si       4.87912177       7.14902536       0.21540899       0.65749298       0.21292499      -0.22537847      -0.15875765       0.90555932       0.43131084      -8.73221005
Si       6.71913459       8.38572980       3.55091853       0.04499936       0.76253159      -0.40124847       0.01078875      -0.53809869       0.09811068      -8.74684415
Si       8.56526577       9.57249046       6.57621600      -0.24075134      -0.84453467      -1.81231808       1.13530490      -0.92101153       0.13253792      -8.65956441
Si       4.63788117       0.71813595       0.54902306      -0.81305874      -0.32369556      -2.12627187      -0.10441724      -1.66219286      -0.75862434      -8.70558379
Si       6.80091933       1.56386945       3.52845364       0.30442067       0.00841558      -0.40082425      -0.95727675       0.58969486       0.13605434      -8.72884980
Si       8.65331248       2.71454493       6.68969523      -0.41281397      -0.82375679      -1.34885772      -0.99411972       1.33258916       0.58219281      -8.74471070
Si       6.83831345       3.75904640       0.31450715       0.01186882       0.86587906       1.71260833       0.19068311       0.70955724      -0.37015886      -8.71692500
Si       8.57213193       4.97992992       3.51763565      -0.35462837       1.11844229      -0.36074376       0.19646764       0.12452873      -0.45863138      -8.73926567
Si      10.58249720       5.97489791       6.69381843      -0.33751553      -0.64834723       1.17254821      -0.11565365       0.71123607       0.01164145      -8.71632731
Si       8.60742645       7.29062261       0.47228277      -0.51605472      -0.93572692       0.55975235       0.08914673       0.02541562      -1.02065081      -8.69966706
Si      10.61828819       8.28163525       3.49045402      -0.25490535       0.84616930      -0.08168981       0.04002046      -0.06022685       0.78750609      -8.73017777
Si      12.55881897       9.50871861       6.60510647       0.03936533      -0.27146073      -0.72549033      -0.71228324      -0.75774339       0.42445279      -8.74925840
Si       8.68779417       0.47777750       0.46336266       0.13812150       0.19208995      -0.42973603      -0.24450821      -0.60337205      -0.31450742      -8.69706069
Si      10.54901813       1.70964216       3.42754981      -1.34971786      -1.02827119      -0.78573191       0.66960271       0.15011493       1.30019444      -8.66644321
Si      12.54317339       2.84254287       6.79940422      -0.77243116      -0.55170449      -1.09833494      -1.34076771       0.32050431      -0.18081269      -8.69014732
Si      10.64196093       3.87120415       0.40111818       1.39486207       1.23211772       0.08964107       0.37149895      -0.19754576       0.08014188      -8.73008901
Si      12.62769771       5.01247927       3.50724269      -0.22246948       0.33036764      -0.31431115      -0.35207815      -0.15989211      -0.08414264      -8.70166434
Si      14.52357598       6.05831297       6.81037247      -1.41260104       2.37181468      -0.27199854      -0.87239793       0.39474266      -0.62100824      -8.73241115
Si      12.47384138       7.17870492       0.33156784       0.24660336      -0.57280335       1.62921853       0.27687047       0.64217179       0.62472010      -8.71889480
Si      14.56706113       8.31531711       3.61140672      -0.50958915       0.88604668       0.12944790      -0.33727039      -0.12814172      -0.85515812      -8.69904542
Si      16.24071792       9.49106503       6.76996195       0.70036372       1.57667425      -0.29425385       0.17832039      -0.32425496      -0.84390324      -8.75381113
53
Lattice="11.5478352 0.0 0.0 5.773917198490155 10.000722372470358 0.0 5.773916394327279 3.333571176804646 9.428767828939895" Properties=species:S:1:pos:R:3:momenta:R:3:forces:R:3:energies:R:1 spacegroup="_JSON {\"number\": 1, \"setting\": 1}" unit_cell=conventional occupancy="_JSON {\"0\": {\"Si\": 1.0}, \"1\": {\"Si\": 1.0}, \"2\": {\"Si\": 1.0}, \"3\": {\"Si\": 1.0}, \"4\": {\"Si\": 1.0}, \"5\": {\"Si\": 1.0}, \"6\": {\"Si\": 1.0}, \"7\": {\"Si\": 1.0}, \"8\": {\"Si\": 1.0}, \"9\": {\"Si\": 1.0}, \"10\": {\"Si\": 1.0}, \"11\": {\"Si\": 1.0}, \"12\": {\"Si\": 1.0}, \"13\": {\"Si\": 1.0}, \"14\": {\"Si\": 1.0}, \"15\": {\"Si\": 1.0}, \"16\": {\"Si\": 1.0}, \"17\": {\"Si\": 1.0}, \"18\": {\"Si\": 1.0}, \"19\": {\"Si\": 1.0}, \"20\": {\"Si\": 1.0}, \"21\": {\"Si\": 1.0}, \"22\": {\"Si\": 1.0}, \"23\": {\"Si\": 1.0}, \"24\": {\"Si\": 1.0}, \"25\": {\"Si\": 1.0}, \"26\": {\"Si\": 1.0}, \"27\": {\"Si\": 1.0}, \"28\": {\"Si\": 1.0}, \"29\": {\"Si\": 1.0}, \"30\": {\"Si\": 1.0}, \"31\": {\"Si\": 1.0}, \"32\": {\"Si\": 1.0}, \"33\": {\"Si\": 1.0}, \"34\": {\"Si\": 1.0}, \"35\": {\"Si\": 1.0}, \"36\": {\"Si\": 1.0}, \"37\": {\"Si\": 1.0}, \"38\": {\"Si\": 1.0}, \"39\": {\"Si\": 1.0}, \"40\": {\"Si\": 1.0}, \"41\": {\"Si\": 1.0}, \"42\": {\"Si\": 1.0}, \"43\": {\"Si\": 1.0}, \"44\": {\"Si\": 1.0}, \"45\": {\"Si\": 1.0}, \"46\": {\"Si\": 1.0}, \"47\": {\"Si\": 1.0}, \"48\": {\"Si\": 1.0}, \"49\": {\"Si\": 1.0}, \"50\": {\"Si\": 1.0}, \"51\": {\"Si\": 1.0}, \"52\": {\"Si\": 1.0}}" energy=-458.2933768368339 stress="0.01149228347774204 -0.0014062671392138044 -0.0010773238854213509 -0.0014062671392138044 0.006544271630392686 0.0020289617771925435 -0.0010773238854213509 0.0020289617771925435 0.011089308544279886" free_energy=-458.2933768368339 pbc="T T T"
Si       6.67509748       3.79315423       2.67946484      -0.19331937       1.03857151       1.88339115       0.69653162       0.44303341       0.70917340      -8.71585730
Si       8.57313468       5.04622707       5.84271417       0.50418505       0.77719821       0.11097753       0.70235026      -1.10533395       0.20787851      -8.69495728
Si      10.61458311       6.17056225       9.07705944      -0.67716781       1.42722894      -0.44593620       0.05648152      -0.55421668      -0.25815989      -8.74759465
Si       8.60630774       7.24692129       2.80388660      -0.55969720       0.26411855       0.95477114       0.30939347       0.27695860      -0.28182588      -8.76227269
Si      10.65953667       8.25965502       5.86471527      -0.12487097       0.14899598      -1.64276575      -1.00033437       0.06826929       0.09420581      -8.64356008
Si      12.50418929       9.31130309       8.95183911      -0.95737053      -1.01788788       0.02357664       0.91181708       0.84692489       0.07841012      -8.69074683
Si      10.63007502      10.54426337       2.82784302       0.58664263       0.42182391       0.03353263      -1.15494246       0.04023258      -0.60859741      -8.70543666
Si      12.50329359      11.70674262       5.87677383      -0.21999921      -0.09268481      -0.23563164      -0.64662827      -0.19126698      -0.23654490      -8.70884134
Si      14.19209245      12.92940844       9.08791853      -0.79394080       0.18760925       0.42140460      -0.25569418      -0.68225820      -0.14091387      -7.95636935
Si      10.60505161       3.95954013       2.77550986       0.87892063      -0.29287662       0.54619369      -0.24935355      -0.15308310      -0.09203346      -8.70520960
Si      12.50372935       5.03546557       5.90915307      -1.44933336      -0.68274904       0.23579122       0.35459370      -0.26648919      -0.29227371      -8.71794755
Si      14.53071286       5.99245976       9.11763859      -1.24989006       0.89201349       0.19947099       0.29396588       0.89116401      -0.00472986      -8.67615753
Si      12.58912493       7.22623876       2.70352995      -0.30401241      -0.59271918      -0.19311129      -0.10948673       0.15508117       0.87407854      -8.75008092
Si      14.42700726       8.21211015       5.97372557       1.19934805       0.87826533      -0.10330116       0.36680929       2.43757016      -0.98067352      -8.68576445
Si      16.31818598       9.42759270       9.00298552       0.16576689       0.51165708      -0.17054646       0.00944684       0.61528827       1.03694158      -8.70719155
Si      14.43734481      10.51146000       2.69944459      -0.47969679      -0.84608203      -1.30607995       0.08591979      -0.03988966       0.73704657      -8.77715065
Si      16.36854881      11.68847867       6.00037062       1.81766815      -0.16400274      -0.73810088      -0.38775726       0.42917941      -1.72487671      -8.64266075
Si      18.13973677      12.77908439       9.13025654       0.88028687      -0.72525965      -0.63682577       0.17279314       0.11874004      -0.26048689      -8.63119800
Si      14.55102036       3.83995134       2.66306005      -0.27857555       0.26361538       1.08391880      -0.95758431       0.01257204       0.40194638      -8.69261241
Si      16.36146369       5.03557872       5.84130785       0.68951497       0.12303786      -0.49639170      -0.15934814       0.98779005      -0.06504934      -8.67919040
Si      18.24647089       5.89970213       9.12358920       0.03728219       0.01523623       1.00235409       1.08442853       0.12273947       0.17788605      -7.95408364
Si      16.48002919       7.19258569       2.64403442       0.20282420      -0.81348717       1.42469273      -0.73247700       0.46456229      -0.02852558      -8.65862017
Si      18.19368550       8.35025989       5.97090675       0.09823102      -1.29376758      -0.18530884      -0.01823684      -0.20072603      -0.54620238      -8.64350060
Si      20.29904171       9.52156573       8.91314528       0.98214573      -0.00616853       0.37314613      -1.22861902      -0.45134503      -0.09359787      -8.66277927
Si      18.28226912      10.58647554       2.62519397       0.89437099       1.66401320      -1.83864178      -0.15087234       0.16360689       0.00787882      -7.97205552
Si      20.23509622      11.77820315       6.00378284       0.15911903      -1.34856752      -1.02019460      -0.32924559      -0.09361542      -0.54227158      -8.69848978
Si      22.25415351      12.81815106       9.13422252       0.45746010      -0.17568739       0.92308051       0.46513789       0.28472277      -0.52638327      -7.96305320
Si       2.85769403       1.62960604       3.62751166       0.52669171      -0.36146717      -1.51230744       0.37885394       0.47464251      -0.50339438      -8.69371695
Si       4.84009820       2.95568021       6.72752919       1.48634300       0.37693769       2.28348031       0.16817941      -1.56881337       0.41809465      -8.70902876
Si       2.92329989       3.92943495       0.30645785       0.57375950      -2.15797973       1.16561244      -0.79307797      -0.13607699       0.04533158      -8.66157920
Si       4.83760881       5.01279659       3.45990412       0.06561392      -0.10202487       0.42163985       0.01233664      -0.16897021       0.35345152      -8.76460409
Si       6.73620359       6.04480167       6.77079247      -0.82311397       0.49224205       1.84825186      -0.63664105       0.89327542      -0.13537776      -8.73096014
Si       4.90682676       7.19244903       0.22992157       0.39630353       1.31471824       0.92489627      -0.17924302       0.38684984       0.98898537      -8.75173639
Si       6.72166091       8.40880468       3.53784116       0.03479488       0.23512631      -0.04502842      -0.05492066      -0.08720694       0.30335692      -8.73853226
Si       8.60187075       9.49726178       6.50225001       1.63023512      -1.89902279      -0.76022541       1.08804564      -0.42061283       1.10724171      -8.67128766
Si       4.60239624       0.64669587       0.42605737      -0.29489719      -2.08707734      -2.24066666       0.83421290      -0.46433534       0.50879669      -8.70309205
Si       6.78630984       1.58838922       3.51624722      -0.66762260       0.90530570      -0.02352203      -0.21772499       0.49985822       0.29564632      -8.74604784
Si       8.60649987       2.73061375       6.64818773      -1.00735210       1.43207085      -0.16454465       0.36185617       1.32517628       0.85773731      -8.68271388
Si       6.84050515       3.82071760       0.38418648      -0.06953918       1.24514284       0.92164014      -0.35403219      -0.23172311      -0.45647667      -8.74511122
Si       8.56419130       5.03582104       3.48641407       0.12608610       0.85454132      -0.67259721       0.48374435      -0.48526146       0.15003052      -8.72574322
Si      10.55804260       5.97703125       6.74894876      -0.60945240       0.85365640       0.76280156      -0.16446699       1.18235906      -0.63721534      -8.70814592
Si       8.58204009       7.24450217       0.46009531      -0.47149409      -0.76894812      -0.95814212       0.01137558       0.23744103      -0.77225547      -8.61407600
Si      10.60967840       8.31546459       3.50916576      -0.02925456       0.31896185       0.60223480       0.21055465      -0.53916480       0.01761962      -8.74010661
Si      12.53882713       9.46574530       6.58642729      -0.67632370      -1.28392060       0.03798096      -0.22273191      -0.42216354       0.51551390      -8.73141305
Si       8.68191948       0.46295123       0.42281990      -0.39256986      -0.71461967      -1.20421334      -0.35888350      -0.42082640      -0.63808186      -8.73285043
Si      10.51336390       1.66564009       3.43705018       0.10445704      -0.59062669       1.08872366       1.10577328       0.37774690       1.05073107      -8.61319492
Si      12.47010680       2.82342673       6.74142769      -1.54482549      -0.24390328      -0.98122564       0.48346009       0.07287078       0.33773561      -8.75954833
Si      10.71077580       3.91874491       0.40798737       0.91122831       0.44923556       0.17370064      -0.87667030      -0.71173365       0.07781990      -8.71251126
Si      12.60673522       5.02034806       3.49389739      -0.49355216      -0.07876701      -0.06514555      -0.02602562      -0.34573839       0.41877076      -8.71229393
Si      14.42947299       6.16153715       6.77891102      -1.90529852       0.89790323      -0.75818077       0.18030929      -2.09266108      -0.00325519      -8.69405997
Si      12.49989287       7.16959527       0.42013318       0.75239379       0.14310041       1.30913848       0.30331745       0.31496152      -1.07200505      -8.72064836
Si      14.53147892       8.34579360       3.58648689      -0.76502389       0.07788052      -0.99520460      -0.01102668      -0.88728645      -0.52644772      -8.65331054
Si      16.28225567       9.54333671       6.72314239       0.87652036       0.13008949      -1.36256298       0.14433655      -1.40281809      -0.34465367      -8.73368166
53
Lattice="11.5478352 0.0 0.0 5.773917198490155 10.000722372470358 0.0 5.773916394327279 3.333571176804646 9.428767828939895" Properties=species:S:1:pos:R:3:momenta:R:3:forces:R:3:energies:R:1 spacegroup="_JSON {\"number\": 1, \"setting\": 1}" unit_cell=conventional occupancy="_JSON {\"0\": {\"Si\": 1.0}, \"1\": {\"Si\": 1.0}, \"2\": {\"Si\": 1.0}, \"3\": {\"Si\": 1.0}, \"4\": {\"Si\": 1.0}, \"5\": {\"Si\": 1.0}, \"6\": {\"Si\": 1.0}, \"7\": {\"Si\": 1.0}, \"8\": {\"Si\": 1.0}, \"9\": {\"Si\": 1.0}, \"10\": {\"Si\": 1.0}, \"11\": {\"Si\": 1.0}, \"12\": {\"Si\": 1.0}, \"13\": {\"Si\": 1.0}, \"14\": {\"Si\": 1.0}, \"15\": {\"Si\": 1.0}, \"16\": {\"Si\": 1.0}, \"17\": {\"Si\": 1.0}, \"18\": {\"Si\": 1.0}, \"19\": {\"Si\": 1.0}, \"20\": {\"Si\": 1.0}, \"21\": {\"Si\": 1.0}, \"22\": {\"Si\": 1.0}, \"23\": {\"Si\": 1.0}, \"24\": {\"Si\": 1.0}, \"25\": {\"Si\": 1.0}, \"26\": {\"Si\": 1.0}, \"27\": {\"Si\": 1.0}, \"28\": {\"Si\": 1.0}, \"29\": {\"Si\": 1.0}, \"30\": {\"Si\": 1.0}, \"31\": {\"Si\": 1.0}, \"32\": {\"Si\": 1.0}, \"33\": {\"Si\": 1.0}, \"34\": {\"Si\": 1.0}, \"35\": {\"Si\": 1.0}, \"36\": {\"Si\": 1.0}, \"37\": {\"Si\": 1.0}, \"38\": {\"Si\": 1.0}, \"39\": {\"Si\": 1.0}, \"40\": {\"Si\": 1.0}, \"41\": {\"Si\": 1.0}, \"42\": {\"Si\": 1.0}, \"43\": {\"Si\": 1.0}, \"44\": {\"Si\": 1.0}, \"45\": {\"Si\": 1.0}, \"46\": {\"Si\": 1.0}, \"47\": {\"Si\": 1.0}, \"48\": {\"Si\": 1.0}, \"49\": {\"Si\": 1.0}, \"50\": {\"Si\": 1.0}, \"51\": {\"Si\": 1.0}, \"52\": {\"Si\": 1.0}}" energy=-458.7397105750091 stress="0.010594416010240498 -0.0013784430834216498 -0.0013336349187018678 -0.0013784430834216498 0.010088836083314883 -0.0001752894815950794 -0.0013336349187018678 -0.0001752894815950794 0.012713919107220447" free_energy=-458.7397105750091 pbc="T T T"
Si       6.69374366       3.86069054       2.78941170       0.89856691       1.43588710       1.98177519       0.65819358       0.04773177      -0.55594718      -8.73832665
Si       8.61155290       5.05365687       5.85777353       0.66604412      -0.25093749       0.47189175      -0.43544352      -0.15001051       0.23086675      -8.69902965
Si      10.59309649       6.20662293       9.05187173       0.00536831      -0.28765789      -0.37295811       0.60656650      -1.47133548       0.30436298      -8.69496283
Si       8.59261158       7.27240084       2.82923938       0.07581450       0.66757862      -0.20501152       0.45226461       0.12057209      -1.12636519      -8.72220913
Si      10.62275007       8.26359428       5.79460744      -1.03667335      -0.10031518      -0.81765555      -0.04888697      -0.32011426       0.88980666      -8.74522067
Si      12.48580251       9.30010110       8.95495103       0.13978688       0.69284944       0.10622715       0.45678563       1.21777649       0.12532320      -8.71553718
Si      10.61771547      10.56246185       2.79677652      -0.90714838       0.17882089      -1.32008673      -0.55814979      -0.32000127      -1.01259684      -8.68585649
Si      12.47268332      11.69152304       5.86365874      -0.76400490      -0.50800637      -0.08166055       0.05488097      -0.27373683       0.45864748      -8.70855939
Si      14.13903692      12.91080214       9.10072100      -1.18833866      -0.87138135       0.02543501      -0.08992177      -0.57692708      -0.30443614      -8.00928646
Si      10.63327881       3.93662599       2.79698791       0.07642181      -0.60712157       0.21581617      -0.71467897      -0.25155981      -0.31003168      -8.69742600
Si      12.44088124       4.99702305       5.90961871      -0.97344321      -0.64158911      -0.19497307       0.25732440       0.28320204      -0.19909526      -8.73757948
Si      14.48235637       6.06435972       9.12393233      -0.53142190       1.60394752      -0.03925429       0.52849679      -0.05323472      -0.32003092      -8.67327624
Si      12.56781062       7.20318365       2.73062060      -0.51876994      -0.28925901       1.14462372      -0.14527049       0.14208187       0.54856553      -8.76675192
Si      14.49245726       8.33303741       5.93048415       1.01825561       3.08509064      -1.46251378      -0.71410630       0.01012775      -0.68739046      -8.74604848
Si      16.33071432       9.47451070       9.02510520       0.36869538       1.14847354       0.79861358       0.22894153       0.10983918       0.19871810      -8.70227684
Si      14.41651736      10.47696526       2.66208548      -0.27694309      -0.28413710      -0.12996312       0.22332176       0.67612188       0.69251035      -8.72647236
Si      16.42337137      11.69362371       5.90270798      -0.06012767       0.23949279      -2.68326698      -1.66209743       0.00874925      -0.48889842      -8.69004673
Si      18.18689326      12.74430692       9.08450261       0.81598990      -0.62483790      -1.13896750      -0.22068000       0.02611890      -0.37751928      -8.69940963
Si      14.50469952       3.85286404       2.73139526      -1.32532892       0.22477573       1.41845820      -0.31862125      -0.00298475      -0.00141325      -8.72016667
Si      16.38280160       5.07042153       5.82880117      -0.01075139       0.92175097       0.33156590      -0.68957867      -0.08596684       1.12607846      -8.65473142
Si      18.28676519       5.90235995       9.18502720       1.34593857       0.03830232       1.34385259       0.46734554      -0.07081721       0.18230885      -8.05016506
Si      16.46292153       7.17464467       2.71120822      -0.80140273       0.19709978       1.04867034      -0.51551023       0.71687039      -0.36695564      -8.69400004
Si      18.20545167       8.28278886       5.94302158       0.51417629      -1.10961736      -0.79991175       0.61113392       0.45890125      -0.23893767      -8.67988779
Si      20.30721897       9.49898179       8.93168238      -0.50785968      -0.89790876       0.40293129      -0.59979165      -0.62780482       0.17363507      -8.60912462
Si      18.31740647      10.66863765       2.53118337       0.35692968       1.27725894      -1.68790380      -0.49350795      -0.58532248       0.23426677      -7.96863674
Si      20.23472308      11.71012933       5.93652404      -0.08118927      -1.17057035      -1.39144884       0.03621055       0.21495151       0.06058452      -8.59428634
Si      22.29485192      12.82628158       9.16690705       1.04247208       0.56935524       0.44075828       0.26182251       0.59884264      -0.06750191      -8.03566300
Si       2.89832131       1.63091496       3.53902925       0.92557402       0.40897968      -1.65764754      -0.00289032       0.45827203       0.29547306      -8.75146853
Si       4.91155850       2.92018864       6.84329866       1.00633360      -1.51966239       1.70287654      -0.74856938      -0.77607325      -1.22392972      -8.66637095
Si       2.91570103       3.83006429       0.37008520      -0.88918191      -1.32213651       1.27452144      -0.85375277       1.07516516       0.08604997      -8.66603730
Si       4.83767956       5.00132313       3.49668399      -0.14366968      -0.29703216       0.96450220      -0.29137863      -0.01615853       0.29557236      -8.78924674
Si       6.68141012       6.09520043       6.85084421      -1.00244030       1.20357922       1.01520237       0.38333894       0.00584589      -0.85127190      -8.71523936
Si       4.91950955       7.26191164       0.31398802       0.04594505       1.05548950       2.15142176      -0.33354598      -0.67826034       0.47762306      -8.73686071
Si       6.71950501       8.42436343       3.54492775      -0.14549532       0.45265863       0.24036421      -0.15872755       0.28358128       0.00535243      -8.69958074
Si       8.71202795       9.39161508       6.50656540       2.14165148      -1.88570721       0.90866276      -0.58404175       0.53782816       1.04507893      -8.71058323
Si       4.62443591       0.53607278       0.33514727       1.13141765      -1.86431593      -1.13936952       0.80852411       0.58700338       0.84307718      -8.63042799
Si       6.75166409       1.64774724       3.52387714      -0.54504150       1.17719182       0.24329873       0.21237982      -0.20484348       0.02023034      -8.76441228
Si       8.57717992       2.83904291       6.66774940      -0.04521791       2.27138929       0.78105483       0.64309823      -0.36550965       0.35251440      -8.65105807
Si       6.81712756       3.86875049       0.42432546      -0.89325428       0.48677013       0.77535047      -0.62162798      -0.60955347       0.17721745      -8.74308306
Si       8.59337617       5.05911025       3.46641031       1.04533044       0.04243480       0.07134662       0.70446608      -0.44139890       0.77783954      -8.72854181
Si      10.52385071       6.06373752       6.75667653      -0.59394024       2.29853688      -0.56817939       0.21939683       0.56361586      -1.00224172      -8.72916915
Si       8.55868487       7.21690774       0.39168896      -0.38306913      -0.21008708      -1.41862418       0.15537858       0.51877146       0.13450637      -8.62208507
Si      10.61482105       8.31377816       3.52764481       0.17421851      -0.28723149      -0.14186470       0.00788481      -0.16325509      -0.91235755      -8.73283672
Si      12.50035523       9.39385628       6.60395341      -0.69132497      -1.21541292       0.51812382       0.17240954       0.51380096       0.07719811      -8.72396062
Si       8.65276636       0.42174404       0.33973397      -0.57432479      -0.57878968      -1.78830818       0.20648973       0.65612663       0.04236765      -8.72259192
Si      10.55574898       1.64795500       3.52052184       1.34418449      -0.12248248       1.72647264       0.44750730       0.22338490      -0.41666115      -8.67981510
Si      12.42835496       2.81028006       6.70637031       0.21497203      -0.33413538      -0.34549101       1.47800379      -0.24770298       0.35023867      -8.75263658
Si      10.72028487       3.91682856       0.42075755      -0.56002844      -0.45020090       0.31075162      -0.91548035      -0.42840408       0.06541949      -8.70209848
Si      12.58121987       5.00388949       3.51061788      -0.48445278      -0.50694744       0.74563279      -0.05194182      -0.18194799       0.58013849      -8.74303269
Si      14.34589204       6.13718616       6.73896031      -1.09838198      -1.39030011      -0.81296737       0.89284064      -0.48375445      -0.14391361      -8.68586331
Si      12.54735186       7.18511871       0.43787136       0.96499010       0.37045077      -0.65404866      -0.05935833       0.00168872      -1.14739659      -8.74283717
Si      14.49397285       8.31569896       3.52279429      -0.61072305      -1.12562394      -1.24954890       0.19825875      -0.48576397       0.19435211      -8.70772842
Si      16.33782398       9.50444487       6.65253635       1.32487194      -1.29475915      -1.05857691       0.45429443      -0.18452921       0.70896777      -8.77720679
53
Lattice="11.5478352 0.0 0.0 5.773917198490155 10.000722372470358 0.0 5.773916394327279 3.333571176804646 9.428767828939895" Properties=species:S:1:pos:R:3:momenta:R:3:forces:R:3:energies:R:1 spacegroup="_JSON {\"number\": 1, \"setting\": 1}" unit_cell=conventional occupancy="_JSON {\"0\": {\"Si\": 1.0}, \"1\": {\"Si\": 1.0}, \"2\": {\"Si\": 1.0}, \"3\": {\"Si\": 1.0}, \"4\": {\"Si\": 1.0}, \"5\": {\"Si\": 1.0}, \"6\": {\"Si\": 1.0}, \"7\": {\"Si\": 1.0}, \"8\": {\"Si\": 1.0}, \"9\": {\"Si\": 1.0}, \"10\": {\"Si\": 1.0}, \"11\": {\"Si\": 1.0}, \"12\": {\"Si\": 1.0}, \"13\": {\"Si\": 1.0}, \"14\": {\"Si\": 1.0}, \"15\": {\"Si\": 1.0}, \"16\": {\"Si\": 1.0}, \"17\": {\"Si\": 1.0}, \"18\": {\"Si\": 1.0}, \"19\": {\"Si\": 1.0}, \"20\": {\"Si\": 1.0}, \"21\": {\"Si\": 1.0}, \"22\": {\"Si\": 1.0}, \"23\": {\"Si\": 1.0}, \"24\": {\"Si\": 1.0}, \"25\": {\"Si\": 1.0}, \"26\": {\"Si\": 1.0}, \"27\": {\"Si\": 1.0}, \"28\": {\"Si\": 1.0}, \"29\": {\"Si\": 1.0}, \"30\": {\"Si\": 1.0}, \"31\": {\"Si\": 1.0}, \"32\": {\"Si\": 1.0}, \"33\": {\"Si\": 1.0}, \"34\": {\"Si\": 1.0}, \"35\": {\"Si\": 1.0}, \"36\": {\"Si\": 1.0}, \"37\": {\"Si\": 1.0}, \"38\": {\"Si\": 1.0}, \"39\": {\"Si\": 1.0}, \"40\": {\"Si\": 1.0}, \"41\": {\"Si\": 1.0}, \"42\": {\"Si\": 1.0}, \"43\": {\"Si\": 1.0}, \"44\": {\"Si\": 1.0}, \"45\": {\"Si\": 1.0}, \"46\": {\"Si\": 1.0}, \"47\": {\"Si\": 1.0}, \"48\": {\"Si\": 1.0}, \"49\": {\"Si\": 1.0}, \"50\": {\"Si\": 1.0}, \"51\": {\"Si\": 1.0}, \"52\": {\"Si\": 1.0}}" energy=-458.360623805299 stress="0.010330602468090219 -2.8479559217652497e-05 0.0007756879410333432 -2.8479559217652497e-05 0.012865089705203362 -0.001566781719924208 0.0007756879410333432 -0.001566781719924208 0.01204218483408123" free_energy=-458.360623805299 pbc="T T T"
Si       6.75814358       3.93244599       2.86381984       1.35654672       1.19762891       0.76835372      -0.11743817      -0.35112726      -0.89544038      -8.76418123
Si       8.62317881       5.04975843       5.88898003      -0.28400263       0.34389515       0.66996087      -0.68222413       0.77041175       0.05703564      -8.68282523
Si      10.60772739       6.13989312       9.04658515       0.32911298      -2.06840215       0.17576813      -0.23878889      -0.72902863       0.32196799      -8.70030738
Si       8.60979361       7.30448581       2.77506742       0.46807841       0.40750959      -1.78682792       0.02160825      -0.45016961      -0.83337921      -8.69689972
Si      10.58255030       8.25035169       5.78067019      -0.24934607      -0.20763240       0.07926196       0.88423243       0.46757517       0.11024513      -8.75182352
Si      12.50076604       9.37195914       8.96991608       0.23217945       1.74583260       0.54379372      -0.32099940       0.05622274       0.42247705      -8.73587403
Si      10.56719136      10.55898969       2.69421857      -0.67867381      -0.28864003      -2.40278009       0.75300593      -0.22486581      -0.26731954      -8.70662534
Si      12.44539965      11.65712138       5.88029786      -0.10064766      -0.73661324       0.70027786       0.74230089      -0.00904256       0.39826377      -8.67381179
Si      14.08284627      12.85198390       9.09238662      -0.76261984      -1.16611986      -0.29301939       0.64526560       0.22557113      -0.10957503      -8.03238506
Si      10.61247854       3.89567147       2.79696459      -0.76224618      -0.91986426      -0.18944327      -0.29814992      -0.11451419      -0.20813817      -8.71739712
Si      12.39853896       4.97663465       5.89780220      -0.63466954      -0.12628862      -0.11196331       0.28320463       0.32054447       0.36262421      -8.74463537
Si      14.46785874       6.13496709       9.10619809      -0.20507530       0.91220679      -0.68440324      -0.18239504      -0.73836225      -0.50121611      -8.68204003
Si      12.53705322       7.18795361       2.79278439      -0.59418030      -0.40256171       0.85845096       0.08288855      -0.28159604      -0.86905283      -8.73039909
Si      14.50918354       8.46426258       5.83557852      -0.42431944       1.48099201      -1.95146290      -0.87126091      -1.72389936       0.13716171      -8.63346628
Si      16.35855303       9.52836934       9.06423125       0.65586820       0.70031904       0.51896612       0.08532043      -0.68783507      -0.48654403      -8.66659032
Si      14.41216549      10.48823537       2.67470778       0.12659998       0.66705997       0.45914541       0.28121584       0.50099611       0.09323904      -8.61817065
Si      16.36829264      11.70380377       5.77966492      -1.71322300       0.13059280      -1.29004241      -0.41770528      -0.08766399       2.21084426      -8.63172080
Si      18.22126318      12.71257442       9.01201052       0.54191752      -0.56150784      -1.54900252      -0.03007170       0.11954630      -0.08062292      -8.76712832
Si      14.43489041       3.86755990       2.80034630      -1.11306241       0.40384691       1.11566253       0.54852674       0.26252053      -0.36531259      -8.72678278
Si      16.35576539       5.10110889       5.89297482      -0.95845406       0.01011000       2.05467176      -0.43556690      -1.02870200       0.89343843      -8.68171019
Si      18.35736914       5.89959262       9.25687329       0.97287492      -0.18300160       1.25501377      -0.96951621      -0.21659795      -0.35222743      -8.06773217
Si      16.40919907       7.20485941       2.75552426      -1.05950302       0.75775049       0.73931559       0.21726831      -0.04363972       0.01222361      -8.74574768
Si      18.26149761       8.24840131       5.89708818       1.66802714      -0.10575515      -0.84212667       0.77700668       0.83003805       0.19165865      -8.70445655
Si      20.27044646       9.43063524       8.96386547      -0.65980114      -1.61879630       0.90025144       0.31734867      -0.26859615       0.47335031      -8.64076217
Si      18.31842136      10.71081014       2.45472548      -0.26064556       0.31472051      -1.17174651      -0.26641582      -0.65359659       0.44064430      -7.98100506
Si      20.23708747      11.65532466       5.87242048       0.25991300      -0.95742431      -0.93825426       0.37991392       0.06544882       0.50606367      -8.57429156
Si      22.35517126      12.87467702       9.19277429       1.16448506       1.13553354       0.59347444      -0.10225012       0.05649811       0.11312892      -8.07429091
Si       2.93648922       1.66370586       3.46964027       0.34845104       0.68331957      -0.90439740      -0.69142696      -0.16252969       0.61564476      -8.74375420
Si       4.92912901       2.82418261       6.87584627      -0.42612997      -1.89223105      -0.50407775      -1.09427399       0.20887069      -1.38419716      -8.59957526
Si       2.85458418       3.80522381       0.43903254      -1.02985313       0.37079738       1.31417938       0.71448448       1.04601888      -0.06425905      -8.69681436
Si       4.81863607       4.99004876       3.55621947      -0.54049159      -0.03906490       1.26937195      -0.12733152       0.34513971       0.15979761      -8.76465558
Si       6.65132597       6.14738316       6.87374907      -0.04411456       0.59579510      -0.04148344       0.77545389      -0.73239871      -0.47217254      -8.65635619
Si       4.90701543       7.28796326       0.43094592      -0.54532837      -0.04133604       1.99886487      -0.42170035      -0.60807053      -0.72271454      -8.68232425
Si       6.70748663       8.45821742       3.55051101      -0.25364157       0.79080815      -0.17426178       0.07169417       0.10220821      -0.56468514      -8.65115656
Si       8.78106468       9.32564383       6.58874792       0.20307323      -0.44927950       2.06469705      -1.66932556       1.21782916       0.39778505      -8.68896507
Si       4.70154642       0.46320101       0.30328763       1.51839212      -0.91465224      -0.21096333      -0.31209561       0.58272537       0.30081132      -8.64648396
Si       6.72913239       1.69329364       3.53378951      -0.35850860       0.43633075       0.08388071       0.04923975      -0.68088002      -0.17800779      -8.74702970
Si       8.59275394       2.92164172       6.71500652       0.50380394       0.51810175       0.88232694       0.11653858      -1.74715275      -0.20260255      -8.60148423
Si       6.75208951       3.87696950       0.47190757      -1.41517927      -0.02102990       0.97802459       0.03817089      -0.02902830      -0.04937399      -8.74823785
Si       8.67325951       5.05317076       3.50169113       1.89718240      -0.08374654       1.24984061       0.28864719       0.27442638       0.67915178      -8.74570983
Si      10.50481492       6.18707557       6.69711704      -0.08477683       1.95470365      -1.42489712       0.40242838      -1.19379809       0.07966384      -8.72706036
Si       8.54918241       7.22749308       0.32988821       0.12750909       0.61194171      -0.82669965       0.56816980       0.49960542       0.56737184      -8.69634244
Si      10.61928140       8.30128644       3.48610163      -0.10139446      -0.02193624      -1.31974310      -0.36473407       0.48344976      -0.45445001      -8.73522965
Si      12.47373667       9.35675882       6.62844237      -0.27359447      -0.11618365       0.33464637       0.36822305       0.83890241      -0.23332844      -8.72548378
Si       8.63903612       0.42699836       0.26050199       0.17780258       0.90903682      -1.00481612       0.69143431       1.15752240       0.92610166      -8.64343105
Si      10.63187148       1.64663745       3.56744945       1.33612754       0.00057894      -0.42309478      -0.42492572      -0.05858312      -2.22006693      -8.67041536
Si      12.48427245       2.77714897       6.69041734       1.58864574      -1.00296960      -0.51592758       0.22154967      -0.51644549      -0.61662641      -8.75085586
Si      10.66524237       3.88319314       0.43739732      -1.31090729      -0.69650205       0.27337185      -0.03148524       0.10560847      -0.13089364      -8.69150921
Si      12.54839323       4.97384639       3.56778235      -0.87810131      -0.57077816       1.29937730      -0.47374572       0.08089967       0.05027101      -8.75761809
Si      14.32531648       6.07181822       6.69139752       0.28205687      -0.68354375      -0.94443865       0.75235042       1.17980235       0.06354106      -8.61010513
Si      12.59041276       7.20143562       0.37729845       0.58236175       0.19447993      -1.27954989      -0.42219585      -0.22411636       0.30957645      -8.74625868
Si      14.46888959       8.25431330       3.47137923      -0.39479001      -0.87320015      -0.61487465      -0.00039035       0.83719967       0.56263026      -8.76440988
Si      16.42294241       9.44924887       6.62984168       1.77627171      -0.52483080       0.21934786      -0.11107803       0.92665854       0.80549314      -8.73629693
53
Lattice="11.5478352 0.0 0.0 5.773917198490155 10.000722372470358 0.0 5.773916394327279 3.333571176804646 9.428767828939895" Properties=species:S:1:pos:R:3:momenta:R:3:forces:R:3:energies:R:1 spacegroup="_JSON {\"number\": 1, \"setting\": 1}" unit_cell=conventional occupancy="_JSON {\"0\": {\"Si\": 1.0}, \"1\": {\"Si\": 1.0}, \"2\": {\"Si\": 1.0}, \"3\": {\"Si\": 1.0}, \"4\": {\"Si\": 1.0}, \"5\": {\"Si\": 1.0}, \"6\": {\"Si\": 1.0}, \"7\": {\"Si\": 1.0}, \"8\": {\"Si\": 1.0}, \"9\": {\"Si\": 1.0}, \"10\": {\"Si\": 1.0}, \"11\": {\"Si\": 1.0}, \"12\": {\"Si\": 1.0}, \"13\": {\"Si\": 1.0}, \"14\": {\"Si\": 1.0}, \"15\": {\"Si\": 1.0}, \"16\": {\"Si\": 1.0}, \"17\": {\"Si\": 1.0}, \"18\": {\"Si\": 1.0}, \"19\": {\"Si\": 1.0}, \"20\": {\"Si\": 1.0}, \"21\": {\"Si\": 1.0}, \"22\": {\"Si\": 1.0}, \"23\": {\"Si\": 1.0}, \"24\": {\"Si\": 1.0}, \"25\": {\"Si\": 1.0}, \"26\": {\"Si\": 1.0}, \"27\": {\"Si\": 1.0}, \"28\": {\"Si\": 1.0}, \"29\": {\"Si\": 1.0}, \"30\": {\"Si\": 1.0}, \"31\": {\"Si\": 1.0}, \"32\": {\"Si\": 1.0}, \"33\": {\"Si\": 1.0}, \"34\": {\"Si\": 1.0}, \"35\": {\"Si\": 1.0}, \"36\": {\"Si\": 1.0}, \"37\": {\"Si\": 1.0}, \"38\": {\"Si\": 1.0}, \"39\": {\"Si\": 1.0}, \"40\": {\"Si\": 1.0}, \"41\": {\"Si\": 1.0}, \"42\": {\"Si\": 1.0}, \"43\": {\"Si\": 1.0}, \"44\": {\"Si\": 1.0}, \"45\": {\"Si\": 1.0}, \"46\": {\"Si\": 1.0}, \"47\": {\"Si\": 1.0}, \"48\": {\"Si\": 1.0}, \"49\": {\"Si\": 1.0}, \"50\": {\"Si\": 1.0}, \"51\": {\"Si\": 1.0}, \"52\": {\"Si\": 1.0}}" energy=-458.3780914042786 stress="0.013568384504750631 0.0012841073688442499 0.001972670477132188 0.0012841073688442499 0.012932028063239618 -0.001634825868867903 0.001972670477132188 -0.001634825868867903 0.012937183294428535" free_energy=-458.3780914042786 pbc="T T T"
Si       6.81572367       3.97917730       2.87570153       0.70170042       0.55028899      -0.15586485      -0.65738635      -0.48387041      -0.27474477      -8.75757400
Si       8.58745330       5.09243791       5.92739865      -0.91897050       1.06031143       0.82456319      -0.04719002      -0.08773000       0.15529878      -8.72179921
Si      10.60840339       6.02186123       9.06391475      -0.38412629      -2.03467240       0.40052944      -0.56201434       0.82516102      -0.00635334      -8.65190714
Si       8.62963382       7.30559346       2.66209457       0.20703079      -0.37865070      -2.21328769      -0.29491842      -0.50285292       0.37707197      -8.67631011
Si      10.59774503       8.27526614       5.77893048       0.62884882       1.36748952      -0.23740793       0.12850816       1.22520711      -0.24839120      -8.72655493
Si      12.49517099       9.45093968       9.01377748      -0.48242000       1.03836139       1.07239909      -0.46027787      -0.83374328       0.20619175      -8.70495209
Si      10.56470882      10.54143765       2.57550363       0.57221490      -0.23946224      -1.76263979       0.72201472       0.32084808       1.12341106      -8.71443826
Si      12.46966918      11.62303272       5.92327851       0.97465546      -0.45049333       0.74810759       0.53223614       0.43372606      -0.34288323      -8.69967589
Si      14.07220858      12.80928874       9.07538823       0.40393777      -0.29755387      -0.30735694       0.83479369       0.86309706       0.07847384      -8.00291396
Si      10.56946664       3.84763329       2.78057384      -0.73317688      -0.80093033      -0.40937133       0.25895090       0.32087934      -0.10097381      -8.73309103
Si      12.38067499       4.97824171       5.91243414       0.05740557       0.09191498       0.74400721       0.68262940      -0.05274098       0.63530762      -8.71844944
Si      14.44132475       6.15600698       9.05276817      -0.91490749      -0.00693162      -1.27833069      -0.60139872      -0.32939540      -0.20599897      -8.71375932
Si      12.51132188       7.15506819       2.79649459      -0.37280441      -0.81057076      -0.77584240       0.13419582      -0.12108234      -1.10179376      -8.68562013
Si      14.46766421       8.47608755       5.75407256      -0.86985754      -0.93983974      -0.84938919       0.24044920      -1.37311352       1.32314106      -8.60252628
Si      16.39183943       9.53298553       9.07040206       0.52969447      -0.58755552      -0.28487615      -0.23591141      -0.93310310      -0.49174185      -8.66651172
Si      14.42768256      10.53689725       2.69549514       0.40602056       1.07596296       0.21303997       0.04400571       0.05853638      -0.38007681      -8.62033964
Si      16.27976952      11.70599523       5.79522617      -1.32558561      -0.09229799       1.55016183       0.91392826      -0.26116248       0.99928793      -8.64809003
Si      18.25616057      12.69140053       8.93409765       0.93185260      -0.17487828      -1.30434869       0.52220491       0.38746416       0.37234837      -8.76032230
Si      14.40178027       3.90142894       2.84497614      -0.12422062       0.90508159       0.62594685       0.65089076       0.32230999      -0.20804938      -8.74220404
Si      16.30050600       5.05788893       6.01968948      -0.89377737      -1.66599940       2.45078489       0.53659572      -1.04084299      -0.37180326      -8.71888471
Si      18.36325173       5.88350776       9.30461349      -0.76806648      -0.34501975       0.51842686      -1.05569005       0.11374289      -0.53958542      -8.03998048
Si      16.36986603       7.23425144       2.79972150      -0.34068789       0.24941434       0.99912518       0.59495790      -0.48228798       0.21564878      -8.74862437
Si      18.36964634       8.27407317       5.86448079       2.18817530       1.02217018      -0.34968483      -0.27254922       0.57831985       0.38186071      -8.73911719
Si      20.25270233       9.34504330       9.03049503       0.02108826      -1.40945648       1.61561587       0.47093874       0.65668208       0.36263072      -8.70861176
Si      18.30068923      10.70362858       2.40928005      -0.28644289      -0.55368432      -0.60548271       0.23500975      -0.51029963       0.26560158      -8.06517956
Si      20.26534017      11.60570119       5.84371130       0.76827616      -0.96326565      -0.17923767       0.17880013      -0.04973024       0.40768103      -8.68483437
Si      22.40834062      12.92725280       9.22229477       0.78620508       0.70630244       0.39586524      -0.40491676      -0.57892534      -0.40686274      -8.03205639
Si       2.92852707       1.68429359       3.44262045      -0.57963304      -0.03890570      -0.22404553      -0.41654394      -0.69961492       0.23727143      -8.69919909
Si       4.86817756       2.74027550       6.81153360      -1.74341042      -1.20324090      -1.60483228      -0.47176695       0.61193674      -0.04710896      -8.62917254
Si       2.83807828       3.85207395       0.50292110       0.45967885       1.06268603       1.06638443       0.96254849      -0.33944530      -0.27550750      -8.70070657
Si       4.79206408       5.00278922       3.63009111      -0.33916920       0.52013211       1.56717462       0.39119757       0.32426235       0.23136173      -8.71517004
Si       6.67481162       6.14962372       6.86008091       0.79375160      -0.45716722      -0.35969289       0.19624747      -0.52322785       0.01195524      -8.65994582
Si       4.86348436       7.27034620       0.49782511      -1.07234432      -0.47102895       0.44449701      -0.25454420       0.01731125      -1.12750201      -8.63311964
Si       6.70179270       8.49871389       3.51573163       0.12879105       0.64580690      -1.17155944       0.43223420      -0.32234680      -0.63577291      -8.62989325
Si       8.73972409       9.34392678       6.69887744      -1.40505718       0.98710044       1.87967424      -0.22828763       0.61374890      -0.57346533      -8.73057345
Si       4.75972089       0.43108109       0.29170755       0.57828895      -0.46493176      -0.46460311      -0.79051853      -0.02285313      -0.60150792      -8.67175051
Si       6.71240908       1.69167375       3.53194582      -0.25295712      -0.42101760      -0.13149629       0.14926366      -0.37981019      -0.09171257      -8.70623544
Si       8.61877220       2.88540138       6.74712359       0.39142217      -1.67594252       0.23438778      -0.27407641      -0.88207336      -0.61084007      -8.66236748
Si       6.68862056       3.87997097       0.51359643      -0.86581529       0.19144070       0.45898182       0.57859706       0.19555972      -0.64015050      -8.71580613
Si       8.77093947       5.06484945       3.58495735       1.54952660       0.58638330       1.71906731      -0.78713562       0.49937156      -0.12800619      -8.72398459
Si      10.51421940       6.22548211       6.64314532       0.38977735      -0.63808565      -0.36970720       0.19217333      -1.72278734       1.09610227      -8.69834489
Si       8.58128521       7.27184994       0.30644368       1.11006606       0.89618529      -0.16150667       0.61050792      -0.21422197       0.19157984      -8.75310697
Si      10.59912751       8.32112596       3.41029023      -0.63421002       0.75960969      -1.38230943      -0.23739032       0.40874396       0.28770753      -8.74032647
Si      12.47444927       9.37963820       6.63940649       0.31038615       0.88319560       0.16347412       0.40610872       0.42297495       0.07618002      -8.75463210
Si       8.67250678       0.51329426       0.24666583       1.00044953       2.18546336       0.48378299       0.31699027       0.38975125       0.95157225      -8.63061437
Si      10.67706978       1.64156226       3.47355600       0.22947280      -0.23943983      -2.62447174      -1.03372881      -0.23910835      -0.23250211      -8.72049971
Si      12.55970015       2.71048977       6.63327276       1.00848266      -1.37994827      -1.68223343      -0.87525335       0.09420643      -0.68983142      -8.71171542
Si      10.60459435       3.85608155       0.44376031      -0.87682424      -0.25902506      -0.09190457       0.45319284       0.40984668      -0.37229426      -8.66084969
Si      12.48293205       4.94839571       3.62741091      -1.57730479      -0.38464560       0.78335207      -0.31232419       0.14464108      -0.68336490      -8.74601491
Si      14.35569089       6.08848292       6.64884620       0.59256515       1.37541179      -0.60684675      -0.32927583       1.38904141       0.33457212      -8.63362052
Si      12.60411793       7.20138773       0.33451908      -0.04207238      -0.21625521      -0.18371781      -0.35664807      -0.29968486       0.96876963      -8.72132706
Si      14.44212983       8.25089265       3.45773986      -0.71848609       0.84548154      -0.01525658      -0.34791630       1.23542087       0.13550609      -8.76868182
Si      16.49704863       9.45450045       6.66298258       0.80256300       0.59470212       0.82795498      -1.06250813       0.42326348      -0.03770817      -8.67610458
53
Lattice="11.5478352 0.0 0.0 5.773917198490155 10.000722372470358 0.0 5.773916394327279 3.333571176804646 9.428767828939895" Properties=species:S:1:pos:R:3:momenta:R:3:forces:R:3:energies:R:1 spacegroup="_JSON {\"number\": 1, \"setting\": 1}" unit_cell=conventional occupancy="_JSON {\"0\": {\"Si\": 1.0}, \"1\": {\"Si\": 1.0}, \"2\": {\"Si\": 1.0}, \"3\": {\"Si\": 1.0}, \"4\": {\"Si\": 1.0}, \"5\": {\"Si\": 1.0}, \"6\": {\"Si\": 1.0}, \"7\": {\"Si\": 1.0}, \"8\": {\"Si\": 1.0}, \"9\": {\"Si\": 1.0}, \"10\": {\"Si\": 1.0}, \"11\": {\"Si\": 1.0}, \"12\": {\"Si\": 1.0}, \"13\": {\"Si\": 1.0}, \"14\": {\"Si\": 1.0}, \"15\": {\"Si\": 1.0}, \"16\": {\"Si\": 1.0}, \"17\": {\"Si\": 1.0}, \"18\": {\"Si\": 1.0}, \"19\": {\"Si\": 1.0}, \"20\": {\"Si\": 1.0}, \"21\": {\"Si\": 1.0}, \"22\": {\"Si\": 1.0}, \"23\": {\"Si\": 1.0}, \"24\": {\"Si\": 1.0}, \"25\": {\"Si\": 1.0}, \"26\": {\"Si\": 1.0}, \"27\": {\"Si\": 1.0}, \"28\": {\"Si\": 1.0}, \"29\": {\"Si\": 1.0}, \"30\": {\"Si\": 1.0}, \"31\": {\"Si\": 1.0}, \"32\": {\"Si\": 1.0}, \"33\": {\"Si\": 1.0}, \"34\": {\"Si\": 1.0}, \"35\": {\"Si\": 1.0}, \"36\": {\"Si\": 1.0}, \"37\": {\"Si\": 1.0}, \"38\": {\"Si\": 1.0}, \"39\": {\"Si\": 1.0}, \"40\": {\"Si\": 1.0}, \"41\": {\"Si\": 1.0}, \"42\": {\"Si\": 1.0}, \"43\": {\"Si\": 1.0}, \"44\": {\"Si\": 1.0}, \"45\": {\"Si\": 1.0}, \"46\": {\"Si\": 1.0}, \"47\": {\"Si\": 1.0}, \"48\": {\"Si\": 1.0}, \"49\": {\"Si\": 1.0}, \"50\": {\"Si\": 1.0}, \"51\": {\"Si\": 1.0}, \"52\": {\"Si\": 1.0}}" energy=-458.24183773819084 stress="0.015681326904204897 0.0007400314269915996 0.00030763042952697023 0.0007400314269915996 0.011333612057940645 -0.0005887672277424443 0.00030763042952697023 -0.0005887672277424443 0.014958406592550946" free_energy=-458.24183773819084 pbc="T T T"
Si       6.82670900       3.99014670       2.86555148      -0.26366521      -0.10474358      -0.09811263      -0.58546968      -0.37446868       0.24372897      -8.69214130
Si       8.55134270       5.12596347       5.97473865      -0.19116018      -0.10429129       0.90953765       0.97207471      -1.33245264      -0.10840991      -8.69569006
Si      10.57046227       5.96185836       9.08234712      -0.95211788      -0.07145169       0.27554609      -0.12822768       1.51702803      -0.11050237      -8.64903749
Si       8.63023335       7.27118169       2.57744999      -0.13492662      -0.81683849      -0.74507523      -0.10355634      -0.04717507       1.40267708      -8.66971725
Si      10.62412240       8.37715612       5.76472227       0.20445596       2.12079183      -0.14895648      -0.54236308      -0.28208593       0.34512638      -8.66760111
Si      12.45979862       9.47337179       9.07201246      -0.69174559      -0.11932791       1.02307608       0.20988631      -0.58739830      -0.28158687      -8.68421230
Si      10.61353020      10.54627759       2.53290091       1.08822193       0.47808698       0.12084695      -0.06911626       0.52818685       1.05801154      -8.71729884
Si      12.52923779      11.62098555       5.94186938       1.02655075       0.41964195      -0.15803072      -0.51884527       0.60257032      -0.80842094      -8.71782299
Si      14.12323082      12.82683904       9.06342978       1.46653111       0.88735303      -0.13914905       0.53285895       0.54672011       0.11351745      -8.02371547
Si      10.54097872       3.82372917       2.75644856      -0.40091559      -0.02860889      -0.48384051       0.07774425       0.63060399       0.00123645      -8.73282748
Si      12.41332602       4.97697509       5.96802829       1.19926517      -0.18675363       1.15756322       0.71319260      -0.22755943      -0.20425225      -8.70395780
Si      14.37492260       6.15554803       8.98555198      -1.47681904       0.22764432      -1.12430465      -0.06107540       0.58384530       0.41889428      -8.72981105
Si      12.49356477       7.11631037       2.72360795      -0.37311620      -0.49417658      -1.72342589      -0.13006235       0.54877848       0.00258940      -8.70827160
Si      14.43870566       8.38881604       5.76527223      -0.14901636      -1.99444988       1.21891383       0.58509492       0.20779113       1.07637686      -8.67933996
Si      16.40954640       9.47065229       9.04163819       0.15439708      -1.64997234      -0.69876134      -0.20195060      -0.38417590      -0.05756390      -8.71791843
Si      14.44447398      10.59126424       2.69015287       0.09438824       0.92097539      -0.41330443      -0.50436635      -0.24228605      -0.36444207      -8.72094270
Si      16.25610302      11.68850236       5.88647132       0.52814218      -0.59508858       1.43774160       1.30062231      -0.32991481      -0.94023737      -8.62187143
Si      18.32714714      12.69716661       8.88204979       1.75472053       0.35976967      -0.65704526       0.44364684       0.25176209       0.46820058      -8.68258865
Si      14.41530803       3.95594588       2.87517192       0.52485002       1.03302302       0.62028101       0.20344132      -0.22266989       0.15758954      -8.73284671
Si      16.27863203       4.94511640       6.12276979       0.04817202      -2.23060041       1.31647408       0.51345475       0.53194090      -1.01754554      -8.70124635
Si      18.29452309       5.87649627       9.31295029      -1.59321089       0.17762184      -0.15912927      -0.04513145       0.50052774      -0.37849267      -8.01816472
Si      16.36947852       7.23327875       2.85586497       0.17822970      -0.14901734       1.01910256       0.03109794       0.04664641      -0.25380956      -8.73936917
Si      18.45497866       8.34097062       5.85668834       0.73319402       1.33751070      -0.05326910      -1.54977949      -0.15951145      -0.01549631      -8.65862906
Si      20.26731167       9.30853678       9.12008787       0.41452685       0.16933904       1.59879708      -0.00621924       1.21299814      -0.40480878      -8.73313594
Si      18.29780897      10.65857865       2.38352050       0.18270102      -1.06518101      -0.45076085       0.25647112      -0.11903761      -0.02585723      -8.14871340
Si      20.30267117      11.55336008       5.84218285       0.43435427      -1.00480958      -0.05563458      -0.67202624       0.06782416      -0.27664809      -8.73912010
Si      22.43087519      12.93918519       9.22269191       0.01830211      -0.26632535      -0.44101885      -0.61960666      -0.64076125      -0.64506729      -7.95439210
Si       2.89080952       1.65780261       3.43458555      -0.68174965      -0.86074074      -0.16151125       0.27568529      -0.27577431      -0.07473481      -8.65146431
Si       4.77676506       2.69818147       6.74108929      -1.37278690      -0.49817994      -0.81253820       0.95046253       0.23122125       1.00808583      -8.62481208
Si       2.88888352       3.87360857       0.54698190       1.24941875      -0.54125333       0.59736091       0.06778812      -1.47395724      -0.34375559      -8.68747634
Si       4.79314708       5.03761664       3.72024986       0.41946914       0.68988750       1.82243207       0.54204344      -0.13347501       0.04119987      -8.70337671
Si       6.70992953       6.11539027       6.84719257       0.27925453      -0.64875476      -0.02983576      -0.81965714       0.24402654       0.40101387      -8.62295434
Si       4.80184026       7.25240879       0.48746814      -1.16465646      -0.10997173      -0.58797911       0.19826667       0.42612174      -0.15517369      -8.65273317
Si       6.72753432       8.51432872       3.43708728       0.86589630      -0.15642036      -1.64504467       0.47865244      -0.73409898       0.07216274      -8.64868283
Si       8.68040429       9.41008111       6.77371694      -0.47651650       1.35381870       1.01448886       1.24491355      -0.12120044      -0.43818983      -8.70679950
Si       4.76343513       0.39956033       0.24191161      -0.29982883      -0.78979235      -1.36606173      -0.24295128      -0.21342012      -0.34252250      -8.69965585
Si       6.70819002       1.66284002       3.52332327       0.15531096      -0.51327971      -0.15907403       0.39244188       0.26992567       0.05923381      -8.69213930
Si       8.62472555       2.78598985       6.73761652      -0.19661081      -1.68154256      -0.51155530      -0.37379555       0.80576542      -0.28724200      -8.69105969
Si       6.66429611       3.89497196       0.50976282      -0.12553724       0.31756766      -0.60948225       0.33028188      -0.04436998      -0.64974456      -8.71134657
Si       8.81243884       5.11025193       3.65888228      -0.08902653       1.01293958       0.90675715      -1.26733851      -0.01725042      -0.87667110      -8.67577502
Si      10.53774733       6.14992572       6.66392562       0.42767610      -1.72192081       1.06449025      -0.11160262       0.26981351       0.72388138      -8.71096417
Si       8.65518113       7.30084550       0.29515212       1.51985265       0.06599867      -0.44304972      -0.11669706      -0.77044007      -0.46503735      -8.72791047
Si      10.56283508       8.36830252       3.35340664      -0.62964377       0.86065929      -0.71247543       0.22747300      -0.27920153       0.58611279      -8.72937712
Si      12.50553713       9.43338628       6.65669118       0.83797539       0.98902582       0.58992504       0.25384457      -0.26597872       0.43934420      -8.75687406
Si       8.73005116       0.62708401       0.30146363       1.06553484       1.85017119       1.41254589      -0.18482735      -0.78397283       0.18275361      -8.65549300
Si      10.64969249       1.61951412       3.35638955      -1.15586304      -0.57950978      -1.39640477      -0.56450094      -0.14505642       1.54187467      -8.63609674
Si      12.57581816       2.65025774       6.53070829      -0.35344717      -0.77448091      -1.94497725      -0.70631257       0.65048150       0.40875503      -8.70384867
Si      10.57251935       3.85714284       0.42231926      -0.45213241       0.24771345      -0.74095804       0.04717075       0.20689593      -0.42248096      -8.68072930
Si      12.39789106       4.93436826       3.64076628      -1.44371521      -0.12569180      -0.23643827       0.55164698       0.24274924      -0.54383073      -8.73226317
Si      14.36975401       6.19963166       6.62940004      -0.03589424       2.41303227      -0.14412257      -0.27316523      -0.39431106       0.31920415      -8.73682702
Si      12.59106167       7.18006565       0.35753627      -0.40308922      -0.54386447       0.87964373      -0.15022332      -0.09098335       0.25003884      -8.75018382
Si      14.39398720       8.33334818       3.45526500      -1.01778018       2.03162391      -0.15538842       0.02655365       0.19127850      -0.14961811      -8.75505058
Si      16.49724002       9.48921234       6.69480248      -0.74641991       0.46284399       0.22119157      -0.87794311      -0.62251544      -0.67946694      -8.65756046
53
Lattice="11.5478352 0.0 0.0 5.773917198490155 10.000722372470358 0.0 5.773916394327279 3.333571176804646 9.428767828939895" Properties=species:S:1:pos:R:3:momenta:R:3:forces:R:3:energies:R:1 spacegroup="_JSON {\"number\": 1, \"setting\": 1}" unit_cell=conventional occupancy="_JSON {\"0\": {\"Si\": 1.0}, \"1\": {\"Si\": 1.0}, \"2\": {\"Si\": 1.0}, \"3\": {\"Si\": 1.0}, \"4\": {\"Si\": 1.0}, \"5\": {\"Si\": 1.0}, \"6\": {\"Si\": 1.0}, \"7\": {\"Si\": 1.0}, \"8\": {\"Si\": 1.0}, \"9\": {\"Si\": 1.0}, \"10\": {\"Si\": 1.0}, \"11\": {\"Si\": 1.0}, \"12\": {\"Si\": 1.0}, \"13\": {\"Si\": 1.0}, \"14\": {\"Si\": 1.0}, \"15\": {\"Si\": 1.0}, \"16\": {\"Si\": 1.0}, \"17\": {\"Si\": 1.0}, \"18\": {\"Si\": 1.0}, \"19\": {\"Si\": 1.0}, \"20\": {\"Si\": 1.0}, \"21\": {\"Si\": 1.0}, \"22\": {\"Si\": 1.0}, \"23\": {\"Si\": 1.0}, \"24\": {\"Si\": 1.0}, \"25\": {\"Si\": 1.0}, \"26\": {\"Si\": 1.0}, \"27\": {\"Si\": 1.0}, \"28\": {\"Si\": 1.0}, \"29\": {\"Si\": 1.0}, \"30\": {\"Si\": 1.0}, \"31\": {\"Si\": 1.0}, \"32\": {\"Si\": 1.0}, \"33\": {\"Si\": 1.0}, \"34\": {\"Si\": 1.0}, \"35\": {\"Si\": 1.0}, \"36\": {\"Si\": 1.0}, \"37\": {\"Si\": 1.0}, \"38\": {\"Si\": 1.0}, \"39\": {\"Si\": 1.0}, \"40\": {\"Si\": 1.0}, \"41\": {\"Si\": 1.0}, \"42\": {\"Si\": 1.0}, \"43\": {\"Si\": 1.0}, \"44\": {\"Si\": 1.0}, \"45\": {\"Si\": 1.0}, \"46\": {\"Si\": 1.0}, \"47\": {\"Si\": 1.0}, \"48\": {\"Si\": 1.0}, \"49\": {\"Si\": 1.0}, \"50\": {\"Si\": 1.0}, \"51\": {\"Si\": 1.0}, \"52\": {\"Si\": 1.0}}" energy=-457.6411505675625 stress="0.013450088612463024 -0.0009785525462533064 -0.000831370968912163 -0.0009785525462533064 0.009718955447415642 0.0005946831950809318 -0.000831370968912163 0.0005946831950809318 0.017052149847609818" free_energy=-457.6411505675625 pbc="T T T"
Si       6.79395881       3.97325268       2.86901774      -0.90421174      -0.46921771       0.17221185      -0.26761394      -0.09562121       0.02246238      -8.65216085
Si       8.57972965       5.06870728       6.01503405       1.16847805      -1.94887602       0.58578698       0.57997213      -0.82111276      -0.28209826      -8.73501749
Si      10.52502734       6.00497227       9.09364810      -0.57378945       1.38768122       0.17495632       0.68299217       0.25541925      -0.04068220      -8.70945589
Si       8.62452470       7.23301020       2.58746315       0.03559442      -0.52552063       0.90954207       0.36470955       0.39225627       0.57305260      -8.73020963
Si      10.61613080       8.46292262       5.77404582      -0.40270784       0.92313901       0.55079891      -0.13126668      -1.19098258       0.53150151      -8.56267953
Si      12.43774136       9.45396586       9.11015064      -0.07211419      -0.41948278       0.36797884       0.51587969       0.19893196      -0.52594431      -8.67489581
Si      10.65773590      10.58675583       2.56438432       0.42999512       0.92846235       0.77464561      -0.71519955      -0.00206442      -0.12124433      -8.69062794
Si      12.55219763      11.65894744       5.90307646      -0.28343378       0.84796775      -1.23559063      -1.01933511      -0.08397986      -0.45777312      -8.71392173
Si      14.21188599      12.88113539       9.05866266       1.70761203       0.89950043      -0.09018815      -0.26927936      -0.55614709      -0.06961593      -8.04255676
Si      10.51718295       3.84354353       2.73202059      -0.60185385       0.68947347      -0.42836494      -0.28625798       0.26968146       0.08398277      -8.71989651
Si      12.49377588       4.96237193       6.00914209       1.61298066      -0.26861837       0.22541678      -0.28205644       0.15755116      -0.93156853      -8.68575213
Si      14.30480264       6.19148005       8.94894065      -1.00814527       1.06834474      -0.17389300       0.68015261       0.30072965       0.80291832      -8.70532720
Si      12.46752602       7.11685150       2.65384281      -0.62359861       0.57712413      -0.56642473      -0.14353076       0.79488186       1.42179701      -8.69735330
Si      14.45047456       8.32370469       5.84794240       0.50008871       0.03456540       1.47868364       0.19064715       2.13429453      -0.65096008      -8.68406565
Si      16.41315247       9.38160990       9.00558476       0.04745690      -1.49087656      -0.66160596       0.04547847       0.61124023       0.00058265      -8.73929702
Si      14.42436914      10.62808286       2.66020284      -0.90380611       0.45190425      -0.59143985      -0.64616994      -0.36467064       0.17004920      -8.77296170
Si      16.31914070      11.64929518       5.91484974       1.49254415      -0.79701441      -0.47377031      -0.16581603       0.05518230      -1.40956830      -8.63500937
Si      18.42795328      12.72070383       8.86537165       1.89924425       0.43701328       0.00679905      -0.29530500      -0.14160354       0.40716176      -8.58097073
Si      14.44580219       3.99349151       2.91389919       0.56389471       0.26097814       0.81909528      -0.08901259      -0.76162857       0.01599020      -8.66128900
Si      16.29441212       4.87141771       6.15320402       0.44217441      -0.26574613      -0.08017696       0.07448755       1.72745608      -0.70964061      -8.65021382
Si      18.21994971       5.90396596       9.29185922      -1.07050949       0.81490176      -0.60440228       0.66442245       0.29069259      -0.21247193      -8.00253333
Si      16.37323695       7.23527814       2.89341432      -0.12930690       0.34150689       0.32214798      -0.34086010       0.49562328      -0.60579247      -8.67507701
Si      18.43315117       8.39889074       5.85102016      -1.44298805       0.78333559      -0.16337530      -1.07911196      -0.52177629      -0.02893355      -8.57027210
Si      20.28114995       9.35158031       9.18277710      -0.01122404       1.13800859       0.72779085      -0.48023686      -0.05689435      -0.66559620      -8.73325617
Si      18.31118307      10.60479119       2.35744140       0.20565390      -0.87230740      -0.55142836      -0.20927568       0.32055367      -0.05477080      -8.14125646
Si      20.29332375      11.51014996       5.82257215      -0.82067943      -0.48393388      -0.74465674      -0.78602532       0.67137558      -0.47461250      -8.71338021
Si      22.40682901      12.90434887       9.17664334      -0.93509850      -0.96761156      -1.23868176      -0.61310770      -0.26881313      -0.33976570      -7.96670230
Si       2.87172208       1.61142889       3.42331577       0.02809402      -0.73499795      -0.25662995       0.56162797       0.39877273      -0.03961407      -8.64362912
Si       4.74891829       2.67266735       6.74060056       0.32898656      -0.59905534       0.75276815       1.02719063      -0.23006602       0.83399980      -8.64084102
Si       2.94414104       3.80040299       0.56556750       0.59021711      -1.87306469       0.15151832      -0.98959774      -0.03423060      -0.17355881      -8.68910246
Si       4.83219156       5.06354854       3.81059596       0.95869195       0.23356020       1.45320990       0.10759407      -0.38490616      -0.63024115      -8.72916355
Si       6.69279181       6.09473143       6.86023165      -0.80676243      -0.11864583       0.44898170      -0.34054453       0.33884596       0.10130659      -8.61433142
Si       4.75731636       7.26505284       0.46368392      -0.36412511       0.59664033      -0.10903981       0.84506328       0.43402313       0.66873604      -8.67843874
Si       6.78602916       8.47699742       3.36380251       1.21444046      -1.22199580      -0.96697867      -0.11496759      -0.54525448       0.78921396      -8.68259556
Si       8.70231191       9.46537559       6.81425730       1.14750914       0.54439870       0.57348803       0.61704586      -0.92249109      -0.27232846      -8.71401755
Si       4.75361195       0.36013105       0.17068751       0.24833992      -0.46728445      -1.08412323       1.01101492       0.72813000       0.69124209      -8.64582273
Si       6.73171278       1.65342558       3.51871448       0.69962688       0.26142336      -0.00493954       0.21396978       0.68546441       0.09809211      -8.72614119
Si       8.60975324       2.73971554       6.70616798      -0.14808973       0.00843337      -0.58292946       0.47565043       1.15474932       0.12129862      -8.70069111
Si       6.66332462       3.90761018       0.46163135      -0.06074845       0.13877023      -1.01019199      -0.25527513      -0.14171180       0.19133352      -8.73311436
Si       8.76198968       5.15243535       3.67150916      -1.72348783       0.38865998      -0.37847015      -0.83055210      -0.82869960      -0.69378548      -8.68066854
Si      10.55606872       6.08568952       6.73746378       0.30788027      -0.52164984       1.50808466       0.02457541       1.09827789      -0.19209222      -8.64776679
Si       8.72114431       7.27643326       0.25717025       0.83953973      -0.91311661      -0.85990204      -0.72790006      -0.44736960       0.08407267      -8.66779891
Si      10.54178068       8.39772504       3.34090470      -0.13648861       0.21796628       0.27142783       0.37301464      -0.44907348       0.72723045      -8.70227221
Si      12.55374747       9.47046604       6.70330086       0.87139008       0.38887227       1.10866069      -0.25145880      -0.40736205       0.13025162      -8.73594200
Si       8.77560724       0.68779466       0.36682968       0.62363766       0.42586484       0.76290585      -0.37940909      -0.94745297      -1.04719928      -8.66351124
Si      10.58477078       1.58946987       3.34669403      -0.99182237      -0.43678074       1.01407536       0.69134725       0.34856952       1.49197366      -8.58568109
Si      12.54570429       2.63666998       6.45752922      -0.45798935       0.26446758      -0.63119992       0.58727375       0.68434444       1.25182593      -8.70901675
Si      10.54458491       3.87237905       0.37270182      -0.70416978       0.21223247      -1.00184020      -0.30659073      -0.26520914       0.16045811      -8.71188555
Si      12.35373767       4.93968237       3.61445865      -0.08579929       0.36826391      -0.63463486       1.14617101       0.39141515      -0.03154498      -8.69863661
Si      14.36539140       6.27407226       6.63768608       0.01705072      -0.17826473       0.51641620       0.31185082      -2.64434785       0.49053417      -8.67509635
Si      12.56554851       7.15288475       0.39513710      -0.54657887      -0.39486195       0.21619285      -0.05709419       0.29187767      -1.03845684      -8.73576380
Si      14.34729081       8.42891095       3.44737603      -0.67275782       1.28472808      -0.01004639       0.38135905      -1.07896616       0.36286730      -8.65715866
Si      16.43319876       9.47940232       6.67963678      -1.49883487      -0.94926520      -0.75865854      -0.10063966      -1.03790463      -0.52407495      -8.72592362
53
Lattice="11.5478352 0.0 0.0 5.773917198490155 10.000722372470358 0.0 5.773916394327279 3.333571176804646 9.428767828939895" Properties=species:S:1:pos:R:3:momenta:R:3:forces:R:3:energies:R:1 spacegroup="_JSON {\"number\": 1, \"setting\": 1}" unit_cell=conventional occupancy="_JSON {\"0\": {\"Si\": 1.0}, \"1\": {\"Si\": 1.0}, \"2\": {\"Si\": 1.0}, \"3\": {\"Si\": 1.0}, \"4\": {\"Si\": 1.0}, \"5\": {\"Si\": 1.0}, \"6\": {\"Si\": 1.0}, \"7\": {\"Si\": 1.0}, \"8\": {\"Si\": 1.0}, \"9\": {\"Si\": 1.0}, \"10\": {\"Si\": 1.0}, \"11\": {\"Si\": 1.0}, \"12\": {\"Si\": 1.0}, \"13\": {\"Si\": 1.0}, \"14\": {\"Si\": 1.0}, \"15\": {\"Si\": 1.0}, \"16\": {\"Si\": 1.0}, \"17\": {\"Si\": 1.0}, \"18\": {\"Si\": 1.0}, \"19\": {\"Si\": 1.0}, \"20\": {\"Si\": 1.0}, \"21\": {\"Si\": 1.0}, \"22\": {\"Si\": 1.0}, \"23\": {\"Si\": 1.0}, \"24\": {\"Si\": 1.0}, \"25\": {\"Si\": 1.0}, \"26\": {\"Si\": 1.0}, \"27\": {\"Si\": 1.0}, \"28\": {\"Si\": 1.0}, \"29\": {\"Si\": 1.0}, \"30\": {\"Si\": 1.0}, \"31\": {\"Si\": 1.0}, \"32\": {\"Si\": 1.0}, \"33\": {\"Si\": 1.0}, \"34\": {\"Si\": 1.0}, \"35\": {\"Si\": 1.0}, \"36\": {\"Si\": 1.0}, \"37\": {\"Si\": 1.0}, \"38\": {\"Si\": 1.0}, \"39\": {\"Si\": 1.0}, \"40\": {\"Si\": 1.0}, \"41\": {\"Si\": 1.0}, \"42\": {\"Si\": 1.0}, \"43\": {\"Si\": 1.0}, \"44\": {\"Si\": 1.0}, \"45\": {\"Si\": 1.0}, \"46\": {\"Si\": 1.0}, \"47\": {\"Si\": 1.0}, \"48\": {\"Si\": 1.0}, \"49\": {\"Si\": 1.0}, \"50\": {\"Si\": 1.0}, \"51\": {\"Si\": 1.0}, \"52\": {\"Si\": 1.0}}" energy=-457.9615118056589 stress="0.008537973565338927 0.0006536458134463282 0.0007632156955955779 0.0006536458134463282 0.012732763760542913 -0.0018550065441407897 0.0007632156955955779 -0.0018550065441407897 0.015738103786573508" free_energy=-457.9615118056589 pbc="T T T"
Si       6.73991099       3.94931007       2.87259555      -1.09671876      -0.36134878      -0.16070783      -0.03362499       0.22656465      -0.46760513      -8.68193072
Si       8.65008480       4.95791030       6.03268237       1.27958040      -1.76459697       0.02360198      -0.33983099       1.17405661      -0.52848034      -8.71145215
Si      10.52826991       6.07009119       9.10116976       0.72397953       0.83478679       0.11830230       0.75465377      -0.76396473      -0.00976573      -8.73253865
Si       8.64632069       7.22086383       2.64070809       0.87265120       0.01640059       0.84833779       0.64663150       0.21205939      -0.48640518      -8.74231566
Si      10.60022589       8.46105525       5.82186944      -0.01316658      -1.03736242       1.21731969       0.60476790      -1.34906708       0.31504992      -8.58634005
Si      12.45163582       9.44701903       9.11159075       0.52799427       0.24646685      -0.22960145       0.22564119       0.55565911      -0.19977667      -8.70004936
Si      10.65410400      10.62725566       2.59291507      -0.46602833       0.47675713       0.23132684      -0.31970292      -0.54830124      -0.45310168      -8.65928310
Si      12.50770833      11.69337173       5.83557955      -1.14179411       0.37320327      -1.02049703       0.02350258      -0.45196790       0.76347119      -8.70991263
Si      14.28418846      12.89716874       9.04964348       1.01076949      -0.40071437      -0.25833384      -0.41025766      -0.99692167      -0.08526304      -7.99981436
Si      10.47610447       3.88443166       2.71555123      -0.88381575       0.76931934      -0.12966978       0.02649422      -0.13002204       0.35621134      -8.68449791
Si      12.55300664       4.95805630       5.98363508       0.40971446       0.14848494      -1.17412294      -1.19310929       0.33890734      -0.83292890      -8.70502645
Si      14.28335067       6.24572144       8.97041201       0.22110533       0.73513768       0.93308524       0.78291855      -0.72835384       0.56087776      -8.70089090
Si      12.43318896       7.17441408       2.67846962      -0.58215203       1.50451002       1.32982896       0.26273818       0.34497165       0.75660732      -8.74342920
Si      14.47171329       8.38778053       5.89317370       0.02394977       1.76300386       0.19475445      -0.91576680      -0.27803202      -0.89556599      -8.73236651
Si      16.41804572       9.33560050       8.96741886       0.11961543      -0.16892156      -0.85205550      -0.03435927       0.97394665      -0.21504176      -8.72309716
Si      14.36451163      10.63742228       2.64159269      -1.06662037      -0.10270792      -0.04907889       0.55116620      -0.39205877       0.43717579      -8.76821991
Si      16.37613716      11.61176378       5.84458266       0.52322094      -0.60031553      -1.91213147      -0.78687360       0.20414765      -0.23496681      -8.69642788
Si      18.50719730      12.73478429       8.87885463       0.96851600       0.05301804       0.44696837      -0.90121012      -0.32541819       0.17213055      -8.59403453
Si      14.47160768       3.97612784       2.95227218       0.42447133      -0.90822985       0.54132018      -0.07854718      -0.69771194      -0.38602206      -8.62614129
Si      16.31843377       4.91219988       6.13364469       0.46333175       1.46043487      -0.43161390       0.04059761       0.34953903       0.17802492      -8.70996924
Si      18.19181096       5.95302770       9.25516695      -0.01052505       0.96061073      -0.72555044       0.62891497      -0.08439420       0.05702289      -8.01504709
Si      16.35473665       7.26960162       2.88830195      -0.51623417       0.86346680      -0.45147143      -0.11020589       0.09401872      -0.34690695      -8.65321230
Si      18.33469949       8.41641255       5.84376268      -1.91654549      -0.19225738      -0.08170671       0.46891587      -0.82030651       0.09279926      -8.52746074
Si      20.26459026       9.39525248       9.19703667      -0.50846637       0.34367631      -0.12743203      -0.05704204      -0.78773065      -0.44298627      -8.69331719
Si      18.31144043      10.57244065       2.32948250      -0.21378379      -0.36266888      -0.43445181      -0.28664966       0.32315574       0.25770949      -8.04392378
Si      20.23072562      11.51335856       5.77344161      -1.31255515       0.57615008      -0.92263562       0.20210106       0.55743852       0.31739589      -8.68499619
Si      22.33846930      12.84949235       9.10796687      -1.55584555      -0.99834184      -1.16700614      -0.16055298       0.22388289       0.49143261      -8.03546386
Si       2.89030597       1.59214629       3.40806461       0.54139226       0.03475582      -0.33708309       0.01846621       0.53583131      -0.08134501      -8.69954269
Si       4.79201399       2.63803592       6.79472568       1.01066056      -0.55396569       0.91268346      -0.15287462       0.40115051      -0.70907660      -8.67640871
Si       2.92741334       3.72246860       0.57249301      -1.29497633      -0.77014586       0.19555543      -1.21709638       1.25216415       0.13238777      -8.64877055
Si       4.87804208       5.06391931       3.85100111       0.61619953      -0.13382709      -0.11329634      -0.57597075      -0.05519808      -1.39427612      -8.72326831
Si       6.65364075       6.09884534       6.87949056      -0.38265037       0.23052129       0.14137614       0.84521746       0.16168336      -0.45893819      -8.61583034
Si       4.77147493       7.30607501       0.48457210       0.83662853       0.78560999       0.84976031       0.58577732      -0.27171503       0.45033921      -8.71913421
Si       6.83383802       8.40335712       3.34779971       0.40123054      -1.33437682       0.39823722      -0.90836056       0.42416201       0.94855988      -8.68258949
Si       8.76628234       9.45823062       6.83054928       0.90116032      -0.72071443      -0.02804824      -0.90632463      -0.56198185      -0.55989748      -8.70790457
Si       4.81381859       0.37209073       0.14794805       2.06156458       0.99994838       0.30363409       1.05526743       1.02447423       1.03303887      -8.58863294
Si       6.76636507       1.69168876       3.51901941       0.39245681       1.10390661      -0.06177633      -0.66710922       0.31401426      -0.19910357      -8.76326631
Si       8.62413709       2.76915241       6.68107896       0.68339178       0.70653240      -0.37107266       0.44258326      -0.42462502       0.14389440      -8.71194199
Si       6.64526567       3.91190142       0.42706758      -0.66488796       0.09497264      -0.13659039      -0.38258172       0.13217817       0.85505341      -8.72463127
Si       8.65042839       5.13445666       3.63440907      -2.29043939      -1.12114745      -0.84489410       0.12079659      -0.99300142       0.04892629      -8.71529265
Si      10.57621176       6.09869754       6.79605093       0.49955434       0.92219631       0.49482120       0.17829547       0.72289434      -1.08880926      -8.63627539
Si       8.73559692       7.21944853       0.22599051      -0.26285263      -1.09154813      -0.15430396      -0.62117403       0.21510329       0.76839348      -8.63328146
Si      10.54699896       8.39712908       3.38392922       0.27360288      -0.10887392       1.37523639       0.12985521       0.06268921       0.74828548      -8.72090920
Si      12.58283318       9.48019114       6.75693134       0.11727309       0.09610998       0.74201382      -0.72299855       0.03061981      -0.62552406      -8.70648049
Si       8.79263825       0.67983317       0.35984786       0.01194675      -0.58853415      -1.02537053      -0.43127100      -0.39595657      -1.02358005      -8.68293053
Si      10.56285671       1.58316979       3.44259959       0.12852034       0.22197029       2.24513396       0.60653243       0.45655099      -0.09055244      -8.63790685
Si      12.55138838       2.67291930       6.47465816       0.66716055       1.00461766       1.24724827       0.55936342       0.23930483       1.09687101      -8.73985074
Si      10.49797489       3.86992458       0.33575070      -0.96863412      -0.31390548      -0.24606393       0.11116597      -0.28467083       0.78784421      -8.73922358
Si      12.39022653       4.97253091       3.58245466       1.33839455       0.82695480      -0.56869618       0.60527342       0.16926039       0.03900776      -8.70559957
Si      14.38331466       6.18085388       6.67538928       0.72015418      -2.76687402       0.73423085       0.49562066      -0.36855999      -0.19295811      -8.73502793
Si      12.53536074       7.14722327       0.36689017      -0.58645377       0.23914919      -1.12987231       0.02011712       0.52668137      -0.42466321      -8.74374158
Si      14.32762100       8.45127167       3.46449922      -0.07960638      -0.39138197       0.69478592       0.37251210      -0.92674979       0.48828678      -8.65816542
Si      16.36247072       9.40283491       6.62713463      -0.95543907      -1.59991215      -1.07442800       0.84760716       0.38959918       0.13674311      -8.78374624
53
Lattice="11.5478352 0.0 0.0 5.773917198490155 10.000722372470358 0.0 5.773916394327279 3.333571176804646 9.428767828939895" Properties=species:S:1:pos:R:3:momenta:R:3:forces:R:3:energies:R:1 spacegroup="_JSON {\"number\": 1, \"setting\": 1}" unit_cell=conventional occupancy="_JSON {\"0\": {\"Si\": 1.0}, \"1\": {\"Si\": 1.0}, \"2\": {\"Si\": 1.0}, \"3\": {\"Si\": 1.0}, \"4\": {\"Si\": 1.0}, \"5\": {\"Si\": 1.0}, \"6\": {\"Si\": 1.0}, \"7\": {\"Si\": 1.0}, \"8\": {\"Si\": 1.0}, \"9\": {\"Si\": 1.0}, \"10\": {\"Si\": 1.0}, \"11\": {\"Si\": 1.0}, \"12\": {\"Si\": 1.0}, \"13\": {\"Si\": 1.0}, \"14\": {\"Si\": 1.0}, \"15\": {\"Si\": 1.0}, \"16\": {\"Si\": 1.0}, \"17\": {\"Si\": 1.0}, \"18\": {\"Si\": 1.0}, \"19\": {\"Si\": 1.0}, \"20\": {\"Si\": 1.0}, \"21\": {\"Si\": 1.0}, \"22\": {\"Si\": 1.0}, \"23\": {\"Si\": 1.0}, \"24\": {\"Si\": 1.0}, \"25\": {\"Si\": 1.0}, \"26\": {\"Si\": 1.0}, \"27\": {\"Si\": 1.0}, \"28\": {\"Si\": 1.0}, \"29\": {\"Si\": 1.0}, \"30\": {\"Si\": 1.0}, \"31\": {\"Si\": 1.0}, \"32\": {\"Si\": 1.0}, \"33\": {\"Si\": 1.0}, \"34\": {\"Si\": 1.0}, \"35\": {\"Si\": 1.0}, \"36\": {\"Si\": 1.0}, \"37\": {\"Si\": 1.0}, \"38\": {\"Si\": 1.0}, \"39\": {\"Si\": 1.0}, \"40\": {\"Si\": 1.0}, \"41\": {\"Si\": 1.0}, \"42\": {\"Si\": 1.0}, \"43\": {\"Si\": 1.0}, \"44\": {\"Si\": 1.0}, \"45\": {\"Si\": 1.0}, \"46\": {\"Si\": 1.0}, \"47\": {\"Si\": 1.0}, \"48\": {\"Si\": 1.0}, \"49\": {\"Si\": 1.0}, \"50\": {\"Si\": 1.0}, \"51\": {\"Si\": 1.0}, \"52\": {\"Si\": 1.0}}" energy=-458.1434306327281 stress="0.005866558343690668 0.0017461688440564853 0.0011946097547325181 0.0017461688440564853 0.012818993391070158 -0.0030790572284157065 0.0011946097547325181 -0.0030790572284157065 0.011867048331315065" free_energy=-458.1434306327281 pbc="T T T"
Si       6.68118254       3.94107313       2.84216147      -1.14791431       0.06476674      -1.03326054      -0.04471631       0.29579681      -0.58295276      -8.74509514
Si       8.69863681       4.92860514       6.01089990       0.49548602       0.79993889      -0.85541936      -0.64357192       1.74524150      -0.52025558      -8.64599885
Si      10.57827539       6.08606024       9.10737960       0.81673571      -0.11720004       0.09455006      -0.63853691      -0.33811422      -0.10792517      -8.75583383
Si       8.70969993       7.22291488       2.66576339       1.32252653      -0.06182843       0.17435090      -0.20444637      -0.26310349      -0.23091038      -8.72483152
Si      10.62415698       8.36315050       5.89334316       0.85843312      -2.40653170       1.41249754       0.33714127      -0.18410685      -0.06811617      -8.72265643
Si      12.48155647       9.47714600       9.09815319       0.48583715       0.77792764      -0.18163009      -0.26566824       0.07743652       0.18731280      -8.72489195
Si      10.62779103      10.62902279       2.59174864      -0.35927301      -0.41031812      -0.14690193       0.36331165      -0.55010277       0.05738517      -8.67900131
Si      12.46336626      11.69591593       5.81870996      -0.31954267      -0.24410742       0.40244378       0.91955215      -0.32110776       0.86528384      -8.68543825
Si      14.33204398      12.84326349       9.03588368       1.02953714      -1.49768521      -0.20408273       0.41978361      -0.38601332       0.15315562      -7.91814888
Si      10.43901661       3.91655554       2.72593111      -0.36914303       0.40494807       0.56778719       0.65638449      -0.32644344       0.51567165      -8.64390290
Si      12.53049909       4.97837145       5.89920448      -1.12168004       0.59792849      -1.81083726      -0.62592306       0.21923393       0.08368144      -8.74951538
Si      14.31385276       6.24884999       9.03148385       0.68020738      -0.69043511       1.20268264      -0.21013572      -1.01369432      -0.18106588      -8.69872066
Si      12.41902521       7.25638027       2.75705512       0.13446318       1.42293430       1.29284709       0.61012843      -0.42086353      -0.70428968      -8.73000097
Si      14.43069238       8.44057199       5.87402719      -1.54534778      -0.11858193      -0.74549741      -0.73688786      -1.74521038      -0.16852105      -8.65927644
Si      16.41791029       9.35752110       8.91659737      -0.22428443       0.83746330      -0.99720481      -0.41156142       0.33380373       0.13209749      -8.70916664
Si      14.34192782      10.61753059       2.65287468       0.33927618      -0.61457039       0.40778261       1.07357621      -0.22190733       0.16376215      -8.69782763
Si      16.38213894      11.59060655       5.76387361      -0.08955655      -0.16247934      -0.62662822      -0.00034864       0.37049468       1.80210710      -8.65872909
Si      18.52067757      12.72628190       8.90666422      -0.46221167      -0.32380479       0.58868655      -0.92826055      -0.11116327       0.07642772      -8.70386863
Si      14.49075885       3.90980404       2.96206593       0.28788581      -1.41214382      -0.22804772      -0.15172821       0.12347339      -0.62438461      -8.66269157
Si      16.34953489       4.98145410       6.11810109       0.84070354       0.84329804      -0.25643082       0.48182549      -0.96557627      -0.17297198      -8.71831887
Si      18.20753196       5.99656678       9.22155731       0.42887618       0.63544367      -0.53195845      -0.07188730      -0.33804155       0.15046935      -8.02829311
Si      16.32839505       7.30986475       2.85882171      -0.39897583       0.51149821      -0.51384397       0.23616413      -0.52927418       0.27137037      -8.68431481
Si      18.26818313       8.37240869       5.84248377      -0.38494424      -1.48351085       0.02673711       1.37617865      -0.79599162       0.07744160      -8.58165064
Si      20.24285950       9.38559052       9.17761680      -0.22468988      -0.60266223      -0.53567953       0.31393554      -0.35863486      -0.14285037      -8.66744510
Si      18.29088921      10.56462833       2.32124429      -0.53054220       0.04042139       0.19491699      -0.13262844       0.22330120       0.54672445      -7.94694716
Si      20.18173330      11.55599838       5.74597617      -0.36984972       0.87773761      -0.00824368       0.92317528      -0.10763484       0.77525154      -8.64589907
Si      22.25775092      12.80935954       9.07343975      -1.39030727      -0.49785792      -0.08330386       0.35923038       0.35703279       0.73640458      -8.03313744
Si       2.90955455       1.60976740       3.38759647       0.02492374       0.49578496      -0.41649910      -0.62991917      -0.02498836       0.02545717      -8.73343405
Si       4.82718911       2.63252051       6.80124760       0.16043460       0.46259751      -0.80116601      -0.81913682       0.86829610      -1.23817281      -8.63658693
Si       2.83037193       3.73042450       0.58455249      -1.98825556       1.00155721       0.17653675       0.38450700       0.98087044      -0.19755084      -8.68446358
Si       4.88112691       5.06003517       3.79334947      -0.60258432       0.07732848      -1.93858006      -0.97624523       0.30343316      -0.82910048      -8.69798460
Si       6.67371924       6.11580821       6.86716144       1.22333864       0.37756838      -0.61264051       1.13736465      -0.00097109      -0.46464289      -8.64161078
Si       4.82744306       7.32780941       0.53543096       1.08744615      -0.08279874       0.84758774      -0.23831626      -0.76159341      -0.49190516      -8.72440862
Si       6.82025639       8.35720166       3.40017848      -0.81451349      -0.34894019       1.45005775      -0.50850889       0.73200079       0.36094233      -8.66951017
Si       8.76849444       9.40906936       6.80500327      -0.90103370      -0.98930934      -0.97142918      -1.23286374       0.07813866      -0.65498556      -8.67147512
Si       4.94462609       0.45479785       0.19955181       2.52908910       1.90595124       1.53723046      -0.48307446       0.05518499       0.53495709      -8.65200747
Si       6.75506160       1.75012391       3.50633059      -0.85399187       0.87324440      -0.41542738      -0.78431121      -0.66340279      -0.17190393      -8.75709314
Si       8.67005589       2.77167291       6.66716278       0.93576361      -0.78788805      -0.16859909      -0.07261084      -1.09417211       0.10156033      -8.70644016
Si       6.60561800       3.92662020       0.45089690      -0.60843686       0.53825574       0.92581399       0.52365116       0.40332850       0.37850178      -8.72353926
Si       8.54835500       5.04941717       3.59772262      -1.35316363      -1.81957298      -0.47633066       1.08554103       0.17125792       0.35718003      -8.72968801
Si      10.60826398       6.16289476       6.77888876       0.68778315       1.23138714      -1.06518968       0.04141985      -0.45593970      -0.75117948      -8.71579032
Si       8.70718522       7.17752799       0.24919862      -0.60582879      -0.39411857       1.02536948       0.21271653       0.65444255       0.71498545      -8.69142925
Si      10.56186054       8.40003492       3.48305687       0.22006124       0.29750813       2.32946854      -0.14861932       0.35684533       0.44094687      -8.73783017
Si      12.55931322       9.48989648       6.76624967      -1.00778604       0.30405068      -0.43052491      -0.69226021       0.14835541      -0.78851638      -8.71739262
Si       8.77750645       0.64040405       0.28388593      -0.56077250      -0.80241123      -1.48999125      -0.32239995       0.04392351       0.45644390      -8.70583073
Si      10.58540988       1.61055999       3.52653919       0.59629847       0.77780257       0.41053393       0.07945096       0.27850733      -2.15634173      -8.62553980
Si      12.59209057       2.72792638       6.56942090       0.57229901       0.98450930       2.05522655      -0.64429399      -0.18413562      -0.12205261      -8.74029162
Si      10.46403311       3.85117501       0.35486640      -0.08538475      -0.21278966       0.95432305       1.02187145       0.43210995       0.70204337      -8.74697725
Si      12.47073743       5.01783375       3.55112389       1.47820553       0.81134351      -0.69472770      -0.38482725      -0.18081639      -0.22661427      -8.70550553
Si      14.42986462       6.05279486       6.70491142       0.77654248      -1.63487400       0.40211031      -0.56221907       1.53781089      -0.17881075      -8.66323308
Si      12.50801445       7.17910622       0.30905040      -0.39430374       0.90859204      -0.76110678       0.25671331       0.24935746       0.80533012      -8.72770608
Si      14.33529606       8.40760985       3.51544618       0.31757620      -1.01660090       1.12215256       0.16216586       0.07233275      -0.01032821      -8.75079821
Si      16.34920316       9.35180105       6.58198147       0.38458800      -0.12876667      -0.60051086       0.59011827       1.23099316       0.31345341      -8.76526182
53
Lattice="11.5478352 0.0 0.0 5.773917198490155 10.000722372470358 0.0 5.773916394327279 3.333571176804646 9.428767828939895" Properties=species:S:1:pos:R:3:momenta:R:3:forces:R:3:energies:R:1 spacegroup="_JSON {\"number\": 1, \"setting\": 1}" unit_cell=conventional occupancy="_JSON {\"0\": {\"Si\": 1.0}, \"1\": {\"Si\": 1.0}, \"2\": {\"Si\": 1.0}, \"3\": {\"Si\": 1.0}, \"4\": {\"Si\": 1.0}, \"5\": {\"Si\": 1.0}, \"6\": {\"Si\": 1.0}, \"7\": {\"Si\": 1.0}, \"8\": {\"Si\": 1.0}, \"9\": {\"Si\": 1.0}, \"10\": {\"Si\": 1.0}, \"11\": {\"Si\": 1.0}, \"12\": {\"Si\": 1.0}, \"13\": {\"Si\": 1.0}, \"14\": {\"Si\": 1.0}, \"15\": {\"Si\": 1.0}, \"16\": {\"Si\": 1.0}, \"17\": {\"Si\": 1.0}, \"18\": {\"Si\": 1.0}, \"19\": {\"Si\": 1.0}, \"20\": {\"Si\": 1.0}, \"21\": {\"Si\": 1.0}, \"22\": {\"Si\": 1.0}, \"23\": {\"Si\": 1.0}, \"24\": {\"Si\": 1.0}, \"25\": {\"Si\": 1.0}, \"26\": {\"Si\": 1.0}, \"27\": {\"Si\": 1.0}, \"28\": {\"Si\": 1.0}, \"29\": {\"Si\": 1.0}, \"30\": {\"Si\": 1.0}, \"31\": {\"Si\": 1.0}, \"32\": {\"Si\": 1.0}, \"33\": {\"Si\": 1.0}, \"34\": {\"Si\": 1.0}, \"35\": {\"Si\": 1.0}, \"36\": {\"Si\": 1.0}, \"37\": {\"Si\": 1.0}, \"38\": {\"Si\": 1.0}, \"39\": {\"Si\": 1.0}, \"40\": {\"Si\": 1.0}, \"41\": {\"Si\": 1.0}, \"42\": {\"Si\": 1.0}, \"43\": {\"Si\": 1.0}, \"44\": {\"Si\": 1.0}, \"45\": {\"Si\": 1.0}, \"46\": {\"Si\": 1.0}, \"47\": {\"Si\": 1.0}, \"48\": {\"Si\": 1.0}, \"49\": {\"Si\": 1.0}, \"50\": {\"Si\": 1.0}, \"51\": {\"Si\": 1.0}, \"52\": {\"Si\": 1.0}}" energy=-458.4306909419046 stress="0.00926632112176023 0.0013440214998528925 0.0008304290444340145 0.0013440214998528925 0.007524877701158099 -0.0002779708949289638 0.0008304290444340145 -0.0002779708949289638 0.01020494097266476" free_energy=-458.4306909419046 pbc="T T T"
Si       6.62086917       3.95382287       2.77480543      -1.08917124       0.36448134      -1.26968136       0.19674698       0.07048134       0.44378784      -8.77891760
Si       8.70152378       5.01621375       5.95334455      -0.29813669       2.03899108      -1.18468795      -0.28944695      -0.19531248       0.06993540      -8.67725274
Si      10.58843106       6.08041714       9.10432338      -0.47806959       0.16539624      -0.26299905      -0.84512001       0.66967105      -0.30219138      -8.67180863
Si       8.75890706       7.20899931       2.67718147       0.37425995      -0.43377642       0.49013823      -0.90647414      -0.12865274       0.66154403      -8.65470975
Si      10.66822801       8.25993435       5.95846685       0.53262464      -0.96215551       0.95027675      -0.79013447       1.94820470      -0.51184313      -8.72060363
Si      12.49505708       9.51388787       9.09447162       0.05293766       0.51419988      -0.02346060      -0.16937246      -0.34546975      -0.05789296      -8.72339374
Si      10.62220232      10.59128247       2.59731241       0.06183643      -0.92037820       0.56455940       0.04035772      -0.13516768       0.85099023      -8.71921255
Si      12.48091348      11.67653444       5.86113958       0.87362619      -0.35625672       0.95318435       0.47299711       0.21850414      -0.15147966      -8.72420507
Si      14.40821239      12.76061949       9.03240283       1.94437529      -1.44127626       0.07897423       0.70554888       0.44864928       0.18369050      -7.80087412
Si      10.45004379       3.92600904       2.77239810       0.85199520       0.00269837       1.10318723       0.89792730      -0.13591812       0.12029438      -8.68185803
Si      12.46402594       5.01285637       5.81978724      -1.08511953       0.58872280      -1.03420018       0.66038575      -0.28080001       0.78912681      -8.73403553
Si      14.33579124       6.18223019       9.08342978       0.14567275      -1.60276365       0.74496273      -0.26891315      -0.05443338      -0.32295829      -8.69753176
Si      12.44573743       7.31061306       2.78904831       0.75458485       0.60949326      -0.16076624       0.11493939      -0.56727914      -1.05277635      -8.70187573
Si      14.34169381       8.37389207       5.84654400      -1.47661073      -2.18985273       0.02309457       0.69163825      -0.83183173       1.07156710      -8.66913321
Si      16.39003615       9.40738272       8.87805944      -0.79149463       0.95554829      -0.30754054      -0.22815025      -0.09921294       0.76597029      -8.67831512
Si      14.39300176      10.58282309       2.67728570       1.39077816      -0.58480438       0.46166199       0.23090264       0.25767600      -0.07839900      -8.63368296
Si      16.38616629      11.59700900       5.79675189       0.38761213       0.41492961       1.55190944       0.56792266       0.40378108       0.58328242      -8.70566964
Si      18.46605398      12.71136356       8.94175210      -1.48951392      -0.11713683       0.76370604      -0.41755374       0.37884246       0.12113567      -8.74766548
Si      14.49658287       3.85311573       2.92514737      -0.14261031      -0.54746390      -1.17433000      -0.45155844       0.89125950      -0.59943098      -8.69608185
Si      16.41148989       4.98888141       6.08799619       1.41248007      -0.42056084      -1.04879000       0.06205827      -0.42163781      -0.79098618      -8.71327343
Si      18.22124057       6.01533783       9.19805376       0.04035164       0.06880737      -0.39211284      -0.27900524      -0.38017118       0.04535871      -8.00569959
Si      16.31792796       7.31353912       2.84681350       0.00623219      -0.37085469       0.08051254       0.26616759      -0.52332894       0.35779236      -8.73231369
Si      18.29521953       8.27392305       5.84847606       1.17911276      -2.00686546       0.22520869       0.45531764       0.23473369       0.15062293      -8.72968547
Si      20.24081512       9.35147597       9.14447110       0.07537642      -0.46228354      -0.74592713       0.04134470       0.56401110      -0.21103817      -8.65086560
Si      18.26022295      10.57340064       2.35227167      -0.58893882       0.24212459       0.94793188       0.06593566       0.01338544       0.38710984      -7.95801866
Si      20.19568911      11.59425116       5.77287003       0.77252373       0.54001903       0.93572374       0.41389648      -0.27910141       0.39164321      -8.67614991
Si      22.20294922      12.79429758       9.08767313      -0.63786607      -0.13130203       0.40466782       0.59434557       0.14919941      -0.11165753      -7.96888638
Si       2.88606231       1.62387908       3.37050143      -0.87168103      -0.14001454      -0.15341302      -0.44283917      -0.71367593       0.34661206      -8.71261999
Si       4.80773863       2.68841837       6.72423356      -0.74075076       1.56086056      -1.82245350      -0.18623124       0.43794247      -0.02998973      -8.72431250
Si       2.75659581       3.80991510       0.58205572      -0.61783022       1.77675583      -0.34742141       1.20046103      -0.01605868      -0.50324117      -8.69547978
Si       4.81490323       5.07655801       3.67533533      -1.79233258       0.52461513      -2.25369864      -0.46469146       0.18761902       0.37540672      -8.70110636
Si       6.77346047       6.13032068       6.82244938       2.33134783       0.05315172      -0.95062227       0.15727514      -0.47850125       0.09588236      -8.74146497
Si       4.86693567       7.29661555       0.55200242       0.27482224      -1.01071275      -0.31968182      -0.80454558      -0.39063009      -0.89399389      -8.72039958
Si       6.77026908       8.36293835       3.47844684      -0.86654480       0.46162826       1.30618812       0.36693514       0.31767169      -0.52680311      -8.63146381
Si       8.68588064       9.36163134       6.73291244      -1.93506603      -0.79430147      -1.64046669      -0.00749327       0.20242060      -0.11279569      -8.67297444
Si       5.04268413       0.54140896       0.29073837       0.95514627       1.13708040       1.73974513      -1.49452817      -0.94160659      -0.24430598      -8.65149028
Si       6.69056226       1.76187899       3.48314781      -1.35048266      -0.50343016      -0.35684884       0.21185927      -0.96107560       0.26171630      -8.72358215
Si       8.71198446       2.70580526       6.66101766       0.58548961      -1.32083893      -0.06796476      -0.37793483       0.44999097       0.09801809      -8.73719505
Si       6.60067577       3.96733299       0.49709277       0.47135794       0.89816786       0.46286705       0.73689115      -0.04503306      -1.06612449      -8.72040343
Si       8.52265307       4.97430537       3.58474572       0.34858717      -0.84401832      -0.08833047       0.99069448       0.95693338       0.08480991      -8.72610049
Si      10.64211152       6.18818290       6.71104355       0.50883674      -0.64240451      -1.17609118      -0.33058111      -1.84735777       0.57112922      -8.71813356
Si       8.69188317       7.18159636       0.32403415       0.11547412       0.49011183       1.67096773       0.57218810       0.42252135       0.10340675      -8.77581689
Si      10.56865219       8.42406734       3.61168152       0.08267651       0.46508907       2.32240084       0.01392980      -0.23485965      -0.54725297      -8.71186527
Si      12.48714473       9.50752824       6.72164986      -1.54743900       0.26799419      -1.05330384       0.08294873      -0.23435817       0.05510243      -8.74470350
Si       8.73759065       0.60040764       0.23899172      -0.91848396      -0.75322897       0.01852457      -0.14899075      -0.07294489       1.40209203      -8.71130531
Si      10.61685215       1.65826761       3.47081979       0.56015365       0.94594439      -2.15814390      -0.09579882      -0.09801142      -0.74596191      -8.71487817
Si      12.59037988       2.77152450       6.65580839      -0.68668525       0.66755933       0.96730338      -0.83848491      -0.23033031      -1.16951976      -8.70185651
Si      10.49848715       3.86061520       0.42300783       1.26928569       0.58515086       1.42537841       0.52906458       0.49068052      -0.14870158      -8.73702233
Si      12.52581637       5.05037830       3.50403864       0.52007510       0.38452188      -1.09641160      -0.78714348      -0.35485375      -0.20345714      -8.68977736
Si      14.43985324       6.02902330       6.71934070      -0.44329900       0.65336598       0.13524251      -0.75345745       1.24635209      -0.21467758      -8.66181350
Si      12.49884831       7.22594135       0.30618306       0.04979741       0.65704480       0.69439250       0.27574813      -0.59721405       0.97241088      -8.70304097
Si      14.35698981       8.36544925       3.56374144       0.50377193      -0.47365059       0.53634229       0.13523182       0.53840621      -0.70411748      -8.77853789
Si      16.37669113       9.38222687       6.55656845       0.41492457       0.99587746      -0.46970432      -0.37321090       0.09589103      -0.05884235      -8.77162702
53
Lattice="11.5478352 0.0 0.0 5.773917198490155 10.000722372470358 0.0 5.773916394327279 3.333571176804646 9.428767828939895" Properties=species:S:1:pos:R:3:momenta:R:3:forces:R:3:energies:R:1 spacegroup="_JSON {\"number\": 1, \"setting\": 1}" unit_cell=conventional occupancy="_JSON {\"0\": {\"Si\": 1.0}, \"1\": {\"Si\": 1.0}, \"2\": {\"Si\": 1.0}, \"3\": {\"Si\": 1.0}, \"4\": {\"Si\": 1.0}, \"5\": {\"Si\": 1.0}, \"6\": {\"Si\": 1.0}, \"7\": {\"Si\": 1.0}, \"8\": {\"Si\": 1.0}, \"9\": {\"Si\": 1.0}, \"10\": {\"Si\": 1.0}, \"11\": {\"Si\": 1.0}, \"12\": {\"Si\": 1.0}, \"13\": {\"Si\": 1.0}, \"14\": {\"Si\": 1.0}, \"15\": {\"Si\": 1.0}, \"16\": {\"Si\": 1.0}, \"17\": {\"Si\": 1.0}, \"18\": {\"Si\": 1.0}, \"19\": {\"Si\": 1.0}, \"20\": {\"Si\": 1.0}, \"21\": {\"Si\": 1.0}, \"22\": {\"Si\": 1.0}, \"23\": {\"Si\": 1.0}, \"24\": {\"Si\": 1.0}, \"25\": {\"Si\": 1.0}, \"26\": {\"Si\": 1.0}, \"27\": {\"Si\": 1.0}, \"28\": {\"Si\": 1.0}, \"29\": {\"Si\": 1.0}, \"30\": {\"Si\": 1.0}, \"31\": {\"Si\": 1.0}, \"32\": {\"Si\": 1.0}, \"33\": {\"Si\": 1.0}, \"34\": {\"Si\": 1.0}, \"35\": {\"Si\": 1.0}, \"36\": {\"Si\": 1.0}, \"37\": {\"Si\": 1.0}, \"38\": {\"Si\": 1.0}, \"39\": {\"Si\": 1.0}, \"40\": {\"Si\": 1.0}, \"41\": {\"Si\": 1.0}, \"42\": {\"Si\": 1.0}, \"43\": {\"Si\": 1.0}, \"44\": {\"Si\": 1.0}, \"45\": {\"Si\": 1.0}, \"46\": {\"Si\": 1.0}, \"47\": {\"Si\": 1.0}, \"48\": {\"Si\": 1.0}, \"49\": {\"Si\": 1.0}, \"50\": {\"Si\": 1.0}, \"51\": {\"Si\": 1.0}, \"52\": {\"Si\": 1.0}}" energy=-458.1477105163981 stress="0.008087612730979403 -0.0001221248088457551 0.0007410142908196958 -0.0001221248088457551 0.002941510098425104 0.0013422131881816086 0.0007410142908196958 0.0013422131881816086 0.011206173604419872" free_energy=-458.1477105163981 pbc="T T T"
Si       6.57637552       3.97114294       2.73806691      -0.51542348       0.20760815      -0.01052581       0.55928412      -0.27515250       0.89967255      -8.74693296
Si       8.68640548       5.09194786       5.89773001      -0.04848503       0.45039019      -0.89371151       0.58340364      -1.76006587       0.24946236      -8.63415779
Si      10.53982679       6.11718425       9.08137658      -1.16110595       1.17136460      -0.54299519      -0.00595038       0.42657115      -0.04225762      -8.63798301
Si       8.74475527       7.18798929       2.73467540      -0.84180048      -0.22192241       1.73537077      -0.63106742       0.44063364       0.78431899      -8.64457666
Si      10.65510221       8.27914217       5.99127758      -1.16718644       1.32803256       0.40633734      -1.29632736       0.60478116      -0.13211154      -8.73846752
Si      12.49870920       9.52823638       9.08608493       0.22170051       0.08290655      -0.37125410       0.34566918      -0.15364999      -0.34511029      -8.71092837
Si      10.61735771      10.54111236       2.66167956      -0.41844506      -0.94194663       1.83915851      -0.62053772       0.07709118       0.65813361      -8.74149918
Si      12.53119003      11.67177963       5.89523194       0.78640658       0.22647382       0.20593597      -0.52067419       0.41531636      -0.70124131      -8.72129124
Si      14.53539823      12.70999885       9.04164821       2.82472726      -0.38391432       0.22335096       0.38174972       0.84934695      -0.01535427      -7.79007264
Si      10.52509248       3.92710032       2.82632686       1.86143633       0.15363880       0.78053649       0.30876011       0.29731457      -0.55767818      -8.73510947
Si      12.44452884       5.02665623       5.79318456       0.50540519      -0.14505269      -0.08553294       1.28851430      -0.59047383       0.39797546      -8.71791477
Si      14.34089705       6.11086037       9.11178849       0.20204129      -0.89306966       0.36551313       0.33008202       0.81384129      -0.20696084      -8.67293965
Si      12.48189146       7.32342402       2.74761212       0.50778286      -0.05913263      -1.19658709      -0.33623542      -0.32594177      -0.17441655      -8.72113736
Si      14.29655855       8.24980150       5.88743348      -0.20966005      -2.03177287       1.34911871       0.84726085       1.17704890       0.36092289      -8.68471111
Si      16.34766761       9.45135323       8.89363272      -0.65838454       0.68176251       0.88225399       0.41583563      -0.25761850       0.69531897      -8.65190864
Si      14.46162488      10.56578906       2.69715621       0.98922590      -0.01906012       0.29799459      -0.69589654       0.43961173      -0.06125912      -8.64781811
Si      16.42763931      11.63285817       5.87300494       1.08166381       0.88018768       0.89861348       0.11485462       0.10519015      -1.21557021      -8.68387280
Si      18.37890255      12.72120736       8.98328466      -1.70631473       0.45953995       0.73931818       0.08070391       0.25608113      -0.18215857      -8.74102941
Si      14.46824066       3.85481092       2.84473804      -0.98219449       0.44690445      -1.78092212      -0.61799871       0.26644144      -0.17002940      -8.71710720
Si      16.47534457       4.97015710       6.00156793       0.79630018       0.07462305      -2.21165243      -0.81908768       0.99028360      -0.64693460      -8.63008114
Si      18.21851830       6.00640406       9.17914926      -0.01417531      -0.36035756      -0.31875319       0.21536042      -0.19093613       0.08257540      -7.94764564
Si      16.32733891       7.28177933       2.85607128       0.32799658      -0.65676684       0.06881225       0.16891038       0.18384770      -0.42855576      -8.74272737
Si      18.35325048       8.19226702       5.86212864       0.63873326      -0.89217191       0.19691761      -1.07510775       1.06526556      -0.21117367      -8.71424231
Si      20.24179966       9.35739986       9.09411617      -0.12333003       0.78383742      -1.21945864      -0.29870897       0.93000744      -0.38074856      -8.65321005
Si      18.23492951      10.58184515       2.41053426      -0.31820075      -0.01753346       1.13315475       0.28837152      -0.36412800      -0.15972095      -8.01544689
Si      20.23708857      11.61187253       5.82794786       0.51586699       0.13954235       0.99080170      -0.70449250      -0.24035263      -0.28013858      -8.66063722
Si      22.19060197      12.79238741       9.09710849       0.10039332       0.05550115      -0.13818774       0.33384089       0.13089047      -0.48355861      -7.87483067
Si       2.83159147       1.59285581       3.37970574      -1.03185405      -0.87604574       0.56715400       0.22939607      -0.07976812       0.59329362      -8.68966545
Si       4.77699587       2.77352479       6.64318396      -0.16478225       1.41684069      -1.00883671       0.83991695      -0.58716154       0.98198230      -8.74429260
Si       2.76635061       3.88853689       0.54071466       0.84709561       0.99480345      -1.29520634       0.64978570      -0.88649818      -0.76286063      -8.73216118
Si       4.71628831       5.10358658       3.58236026      -1.70834840       0.33529198      -1.13439904       0.54108652      -0.47145074       0.98579031      -8.72301663
Si       6.88098575       6.10996474       6.78636611       1.36789571      -0.86509446      -0.25476020      -1.39083312      -0.61033669       0.74036279      -8.73468675
Si       4.84831615       7.23701353       0.50646143      -0.96294369      -1.09253937      -1.26812975      -0.70773202       0.27423676      -0.32794790      -8.74185997
Si       6.74347448       8.39270747       3.52071986      -0.11864689       0.54395781       0.24919206       0.51477189      -0.19218033      -0.75116292      -8.61647481
Si       8.60308548       9.33379433       6.65505442      -0.90236499      -0.11638872      -1.08862025       1.21867938       0.77954148       0.81261822      -8.67112421
Si       5.03062948       0.56580812       0.36682928      -1.44669803      -0.08793994       1.10418733      -1.60737942      -0.48702452      -0.46279318      -8.70302924
Si       6.64229811       1.70813963       3.47890533      -0.24301190      -1.30525548       0.25824937       1.16977840      -0.03690441       0.50558098      -8.67278744
Si       8.72738687       2.66917738       6.66378877       0.03160540       0.14105688       0.21211029      -0.25585771       1.30641214       0.23803059      -8.68225457
Si       6.64809250       4.00334946       0.46981684       1.20039168       0.30934828      -1.53805833       0.20181438      -0.68999850      -1.19652032      -8.74166949
Si       8.56831832       4.96527180       3.57761854       1.17110557       0.40083015      -0.27845177       0.13078339       0.57272842      -0.28341828      -8.73914026
Si      10.65015168       6.09658840       6.67788138      -0.29244892      -2.36904497      -0.05428951      -0.66511047      -0.05474565       0.73107833      -8.74353175
Si       8.71386178       7.21598386       0.40831477       0.56248682       0.67773267       1.43982883      -0.04303365      -0.12937820      -0.29291719      -8.80385580
Si      10.57602551       8.43026497       3.69847296       0.22978011      -0.38127202       0.75898267       0.13657140      -0.83690838      -1.42409447      -8.67465026
Si      12.42338670       9.50967015       6.68085775      -0.62098225      -0.19446876      -0.30303477       1.09657892      -0.26984164       0.82525489      -8.71670570
Si       8.68734554       0.55411965       0.29363799      -0.91342594      -1.05812732       1.96228277       0.17803115      -0.24149810       0.99413297      -8.75906989
Si      10.64130130       1.69815232       3.35956243       0.35018835       0.47596509      -1.56276370      -0.18067559      -0.47676706       1.30444077      -8.68016828
Si      12.53224690       2.79755725       6.66306788      -1.25640370       0.33048944      -0.55251865       0.23464021      -0.20377142      -0.64013916      -8.72513928
Si      10.57042099       3.90476774       0.48092152       1.20334584       0.97939886       0.60567435      -0.52118819       0.02435480      -0.84331186      -8.69620227
Si      12.52510702       5.05809358       3.44555117      -0.44999765      -0.03497838      -0.97282965      -0.39940672      -0.13245700       0.42086434      -8.70915900
Si      14.39963050       6.09168057       6.71980696      -0.82963969       1.27316716      -0.03782257       0.26038285      -0.57198758       0.10024482      -8.68836701
Si      12.50900558       7.23253647       0.37054442       0.26600546      -0.41319219       1.49458492      -0.00453133      -0.62911182      -0.07271359      -8.72899216
Si      14.38906656       8.36020382       3.56625377       0.71005425       0.20931210      -0.32517519       0.09551169       0.28907297      -0.27127030      -8.76976331
Si      16.38233855       9.42047351       6.53291071      -0.19338017       0.18654065      -0.32095786      -0.36249735      -0.96980190       0.36207329      -8.68166404
53
Lattice="11.5478352 0.0 0.0 5.773917198490155 10.000722372470358 0.0 5.773916394327279 3.333571176804646 9.428767828939895" Properties=species:S:1:pos:R:3:momenta:R:3:forces:R:3:energies:R:1 spacegroup="_JSON {\"number\": 1, \"setting\": 1}" unit_cell=conventional occupancy="_JSON {\"0\": {\"Si\": 1.0}, \"1\": {\"Si\": 1.0}, \"2\": {\"Si\": 1.0}, \"3\": {\"Si\": 1.0}, \"4\": {\"Si\": 1.0}, \"5\": {\"Si\": 1.0}, \"6\": {\"Si\": 1.0}, \"7\": {\"Si\": 1.0}, \"8\": {\"Si\": 1.0}, \"9\": {\"Si\": 1.0}, \"10\": {\"Si\": 1.0}, \"11\": {\"Si\": 1.0}, \"12\": {\"Si\": 1.0}, \"13\": {\"Si\": 1.0}, \"14\": {\"Si\": 1.0}, \"15\": {\"Si\": 1.0}, \"16\": {\"Si\": 1.0}, \"17\": {\"Si\": 1.0}, \"18\": {\"Si\": 1.0}, \"19\": {\"Si\": 1.0}, \"20\": {\"Si\": 1.0}, \"21\": {\"Si\": 1.0}, \"22\": {\"Si\": 1.0}, \"23\": {\"Si\": 1.0}, \"24\": {\"Si\": 1.0}, \"25\": {\"Si\": 1.0}, \"26\": {\"Si\": 1.0}, \"27\": {\"Si\": 1.0}, \"28\": {\"Si\": 1.0}, \"29\": {\"Si\": 1.0}, \"30\": {\"Si\": 1.0}, \"31\": {\"Si\": 1.0}, \"32\": {\"Si\": 1.0}, \"33\": {\"Si\": 1.0}, \"34\": {\"Si\": 1.0}, \"35\": {\"Si\": 1.0}, \"36\": {\"Si\": 1.0}, \"37\": {\"Si\": 1.0}, \"38\": {\"Si\": 1.0}, \"39\": {\"Si\": 1.0}, \"40\": {\"Si\": 1.0}, \"41\": {\"Si\": 1.0}, \"42\": {\"Si\": 1.0}, \"43\": {\"Si\": 1.0}, \"44\": {\"Si\": 1.0}, \"45\": {\"Si\": 1.0}, \"46\": {\"Si\": 1.0}, \"47\": {\"Si\": 1.0}, \"48\": {\"Si\": 1.0}, \"49\": {\"Si\": 1.0}, \"50\": {\"Si\": 1.0}, \"51\": {\"Si\": 1.0}, \"52\": {\"Si\": 1.0}}" energy=-458.41130306311084 stress="0.003854499158497666 -0.0009129234929578622 -8.719526167765897e-05 -0.0009129234929578622 0.005310923748013941 -0.0005255398757868188 -8.719526167765897e-05 -0.0005255398757868188 0.0113504745431383" free_energy=-458.41130306311084 pbc="T T T"
Si       6.57405177       3.96840371       2.75983772       0.47223287      -0.35512588       0.56747286       0.73596798      -0.44602446      -0.14623749      -8.66285164
Si       8.70596597       5.04398908       5.86217598       0.66124562      -2.20191760      -0.40803365       0.08484489      -1.45304201       0.45081004      -8.70382283
Si      10.49173442       6.18114811       9.05392090      -0.42210069       0.98029469      -0.47531615       0.97976033      -0.69247366       0.07284968      -8.66594680
Si       8.68443489       7.19918554       2.84361614      -1.28108362       0.71147735       2.12344467       0.06779634       0.66905738      -0.35543797      -8.70918756
Si      10.55629850       8.34679626       6.00991330      -2.20322117       0.85790017       0.29117338       0.24626802      -0.96751750      -0.17553758      -8.71705172
Si      12.52372810       9.53151449       9.05558444       0.68146802       0.11924112      -0.69799323       0.15654557       0.14007387       0.02254716      -8.72277150
Si      10.57176940      10.49830247       2.77188438      -1.22812026      -0.60431898       2.13032383      -0.26514493       0.40530583      -0.23933637      -8.74017505
Si      12.54854029      11.69416826       5.88278310      -0.11204553       0.50158835      -0.53166240      -0.47502638      -0.06501168      -0.11927399      -8.73894354
Si      14.68517589      12.71653595       9.04830134       2.54721341       0.41553015      -0.07884548      -0.95658445      -0.00971676      -0.45435219      -7.82721411
Si      10.61867813       3.94516245       2.83850139       1.37664961       0.44111325      -0.43308520      -0.96737879      -0.05698779      -1.01394203      -8.72573477
Si      12.51291053       5.00155463       5.79906555       1.84487023      -0.66034454       0.24818857       0.30099748      -0.01259716       0.14952071      -8.73692464
Si      14.36952807       6.09204642       9.12396400       0.96673635       0.02705921       0.12127864       0.63278527       0.24879650      -0.11702847      -8.67261494
Si      12.49704900       7.31067937       2.69584112       0.14050666      -0.37704024      -0.46363312      -0.06353282      -0.13016693       1.02309997      -8.71765148
Si      14.31366804       8.21100684       5.95302109       0.76131002       0.78066787       0.84933613       0.45317746       2.00976281      -0.80239089      -8.68371428
Si      16.33462492       9.47579487       8.95894804       0.21577720       0.23310574       1.43730298       0.62266129      -0.32076388       0.02930006      -8.66238979
Si      14.48200738      10.58023792       2.71631139      -0.23306644       0.51740898       0.57717371      -0.77530264       0.23218326       0.49802946      -8.72770891
Si      16.47116001      11.67208572       5.86634392       0.24993330       0.39851187      -1.17742323      -1.12462159      -0.71556304      -1.30899055      -8.63630014
Si      18.29561939      12.74900377       9.01273209      -1.43405921       0.49906867       0.37091711       0.22154501      -0.13249446      -0.23335845      -8.68166222
Si      14.39695785       3.87715801       2.75109462      -1.60179152       0.22578704      -1.68529255      -0.09221106      -0.43785634       0.23585372      -8.70088680
Si      16.48052104       5.01471671       5.87301764      -0.64916023       1.52198275      -2.36004445      -1.01951013       0.60984537       0.65210914      -8.61867773
Si      18.22915608       5.98227479       9.16728323       0.43652224      -0.52507771      -0.10074503       0.28465350      -0.05486724       0.20819854      -7.92639168
Si      16.34940810       7.26061695       2.83493899       0.47231722      -0.10099120      -0.98196837       0.00367046       0.37351654      -0.85130231      -8.71637513
Si      18.34011909       8.18453388       5.86420515      -1.09817721       0.50478140      -0.06103498      -0.92825921       0.71638740      -0.00140979      -8.69538676
Si      20.22076628       9.42640025       9.01828949      -0.71623572       1.62591651      -1.57552555      -0.44021407       0.07880587      -0.00338179      -8.69787534
Si      18.23054266      10.56477756       2.45765411       0.15592100      -0.62966694       0.57000961       0.30791684      -0.34511539      -0.52489909      -8.02441376
Si      20.23264244      11.61369519       5.86559627      -0.66392781       0.03811011       0.42513404      -0.62670211       0.18475876      -0.36166406      -8.65526013
Si      22.20278826      12.80040222       9.07401854       0.24924416       0.24373564      -0.64833847      -0.11556459       0.10580170      -0.11776873      -7.85413848
Si       2.79145307       1.55662560       3.43228211      -0.45437213      -0.29064750       1.40304016       0.39985289       0.76085006       0.45413425      -8.68148555
Si       4.80148662       2.82125166       6.62915649       1.01464484       0.41935555       0.39817494       0.52047285      -0.53634867       0.69084180      -8.74128010
Si       2.82344584       3.90846835       0.44368377       1.06764462      -0.10433493      -2.34182653      -0.38536303      -0.38866425      -0.51000277      -8.76021752
Si       4.65426426       5.09775138       3.55688687      -0.58808404      -0.59749290      -0.01773079       0.81842945      -0.62906691       0.26700290      -8.76815578
Si       6.89288191       6.04780255       6.79740849      -0.88440280      -1.35189694       0.48694185      -1.29169926      -0.02063587       0.01573618      -8.73500584
Si       4.78199328       7.19721177       0.43432189      -1.29485285      -0.31041032      -1.37047787       0.34310391       0.72673475       0.11377449      -8.73078235
Si       6.75208000       8.40960576       3.50984458       0.30942173       0.05185971      -0.52997917      -0.02944761      -0.37800881      -0.22680150      -8.67870138
Si       8.59880728       9.36282197       6.63336520       0.48702914       1.25485967       0.25606541       0.24874527       0.90570533       0.79249814      -8.74592530
Si       4.90528373       0.55735381       0.41327021      -2.94807559       0.08376230       0.84228317      -0.08907080       0.77251285       0.22879401      -8.74779928
Si       6.67492965       1.64907957       3.50942141       1.37608678      -0.78656165       0.80913909       0.73376623       0.59911305       0.13277833      -8.70503898
Si       8.72547953       2.72387519       6.68172982       0.00776529       1.78317922       0.39842187       0.17184689       0.66219507      -0.04370400      -8.71299389
Si       6.71018415       3.99115259       0.36229656       1.00379417      -0.74593605      -2.15473346      -0.43268033      -0.57910432       0.37302727      -8.75075019
Si       8.62698772       4.99704572       3.55211825       0.94585557       0.58543020      -0.66049236      -0.34925042      -0.30100917      -0.15700133      -8.72996138
Si      10.61455700       5.99496806       6.69684929      -0.88649747      -1.15865052       0.62405331       0.01316675       1.33162726       0.12663685      -8.69142561
Si       8.73369638       7.24442228       0.47419026       0.07438281       0.40592408       1.11929824      -0.50888742      -0.14215108      -0.12199971      -8.77193405
Si      10.59185204       8.37600067       3.68570823       0.32422082      -1.66783788      -1.08789030      -0.05853745      -0.74699749      -0.81634136      -8.70898674
Si      12.43486622       9.49300149       6.69516106       0.97139309      -0.36500483       0.72692750       0.76234661       0.03276734       0.35654807      -8.74631194
Si       8.65024713       0.49449410       0.41677242      -0.44242783      -1.08052993       2.32552734       0.40732982       0.27343708      -0.59184401      -8.77182198
Si      10.65255298       1.70543980       3.33766393       0.08757120      -0.14651212       0.80732129      -0.14541367      -0.28503073       1.62395081      -8.65856851
Si      12.49293139       2.80830675       6.62460800       0.02621793       0.08842719      -0.63511160       1.25076060      -0.18507473       0.43910834      -8.74117481
Si      10.60867190       3.95051276       0.47907216       0.23029592       0.63459235      -0.64752542      -0.62477112      -0.49166525      -0.73679360      -8.68284524
Si      12.49769133       5.05803025       3.41883806      -0.35509484       0.16978825       0.08668471       0.52537490       0.39100930       0.93877375      -8.72321933
Si      14.37730698       6.11449012       6.72838631       0.16005677      -0.64422254       0.43640409       0.97958045      -1.46058010       0.35693785      -8.67416543
Si      12.51877861       7.19634498       0.42668816       0.03488029      -0.75448364       0.31298141      -0.28589224       0.19835332      -1.34414100      -8.73904879
Si      14.42687591       8.37611275       3.54852317       0.66656783       0.29060952      -0.19244550      -0.15400659      -0.12298596       0.35072123      -8.72414481
Si      16.36158639       9.39596887       6.53677537      -0.52297978      -0.95206407       0.57213498      -0.06829435      -0.32107904       0.77135827      -8.66748655
53
Lattice="11.5478352 0.0 0.0 5.773917198490155 10.000722372470358 0.0 5.773916394327279 3.333571176804646 9.428767828939895" Properties=species:S:1:pos:R:3:momenta:R:3:forces:R:3:energies:R:1 spacegroup="_JSON {\"number\": 1, \"setting\": 1}" unit_cell=conventional occupancy="_JSON {\"0\": {\"Si\": 1.0}, \"1\": {\"Si\": 1.0}, \"2\": {\"Si\": 1.0}, \"3\": {\"Si\": 1.0}, \"4\": {\"Si\": 1.0}, \"5\": {\"Si\": 1.0}, \"6\": {\"Si\": 1.0}, \"7\": {\"Si\": 1.0}, \"8\": {\"Si\": 1.0}, \"9\": {\"Si\": 1.0}, \"10\": {\"Si\": 1.0}, \"11\": {\"Si\": 1.0}, \"12\": {\"Si\": 1.0}, \"13\": {\"Si\": 1.0}, \"14\": {\"Si\": 1.0}, \"15\": {\"Si\": 1.0}, \"16\": {\"Si\": 1.0}, \"17\": {\"Si\": 1.0}, \"18\": {\"Si\": 1.0}, \"19\": {\"Si\": 1.0}, \"20\": {\"Si\": 1.0}, \"21\": {\"Si\": 1.0}, \"22\": {\"Si\": 1.0}, \"23\": {\"Si\": 1.0}, \"24\": {\"Si\": 1.0}, \"25\": {\"Si\": 1.0}, \"26\": {\"Si\": 1.0}, \"27\": {\"Si\": 1.0}, \"28\": {\"Si\": 1.0}, \"29\": {\"Si\": 1.0}, \"30\": {\"Si\": 1.0}, \"31\": {\"Si\": 1.0}, \"32\": {\"Si\": 1.0}, \"33\": {\"Si\": 1.0}, \"34\": {\"Si\": 1.0}, \"35\": {\"Si\": 1.0}, \"36\": {\"Si\": 1.0}, \"37\": {\"Si\": 1.0}, \"38\": {\"Si\": 1.0}, \"39\": {\"Si\": 1.0}, \"40\": {\"Si\": 1.0}, \"41\": {\"Si\": 1.0}, \"42\": {\"Si\": 1.0}, \"43\": {\"Si\": 1.0}, \"44\": {\"Si\": 1.0}, \"45\": {\"Si\": 1.0}, \"46\": {\"Si\": 1.0}, \"47\": {\"Si\": 1.0}, \"48\": {\"Si\": 1.0}, \"49\": {\"Si\": 1.0}, \"50\": {\"Si\": 1.0}, \"51\": {\"Si\": 1.0}, \"52\": {\"Si\": 1.0}}" energy=-458.39818733753657 stress="0.0029912128362012424 0.0012469170446079167 0.00020993423734066643 0.0012469170446079167 0.008838806062053652 -0.0030155243369409195 0.00020993423734066643 -0.0030155243369409195 0.007675346357441078" free_energy=-458.39818733753657 pbc="T T T"
Si       6.62554791       3.93331530       2.77438508       1.42064749      -0.94460073      -0.14931741       0.45824764      -0.29686060      -0.69432709      -8.61569067
Si       8.73084444       4.89903471       5.85817320       0.09490459      -2.67085148       0.18290799      -0.66727653       1.11057212       0.15983258      -8.73055475
Si      10.51365955       6.19655589       9.03183209       1.26901844      -0.48095650      -0.34742898       1.00395955      -1.02810977       0.15320990      -8.72845412
Si       8.62927556       7.25289785       2.92714357      -0.66692868       1.07821372       0.84356465       0.65966522      -0.32153940      -1.21135360      -8.71499340
Si      10.47620974       8.34876939       6.01306020      -0.49313939      -0.78893057      -0.24922389       1.61947293      -0.97930739      -0.46878355      -8.63968044
Si      12.55897854       9.54160698       9.02924260       0.53899226       0.20121268      -0.13487401      -0.32555755      -0.10592635       0.68033270      -8.72194747
Si      10.51011366      10.48443303       2.86772911      -0.87675389       0.08047405       1.44706510       0.68286659       0.43423494      -0.54520960      -8.68518476
Si      12.53445001      11.71341150       5.86374709      -0.22029724       0.17090140       0.04046930       0.31230232      -0.30887731       0.78440175      -8.72701719
Si      14.76207809      12.72051109       9.02036436       0.16216434      -0.49401303      -1.02752010      -1.77095698      -0.85231238      -0.56593982      -7.77603982
Si      10.64636788       3.95925713       2.77832220      -0.32153659       0.01310402      -1.74596710      -0.97887940      -0.38285073      -0.55660168      -8.72017101
Si      12.60355467       4.97430146       5.81890201       1.31216462      -0.26120921       0.54760054      -0.86810905       0.45142075       0.30944846      -8.72014821
Si      14.44197032       6.09156460       9.12680936       1.67841832      -0.23739530      -0.00306255       0.17010689      -0.50217788      -0.08230424      -8.70885589
Si      12.50904065       7.28700034       2.70917332       0.44997597      -0.50523272       0.79900079       0.45088196      -0.04156235       0.38082030      -8.73752336
Si      14.36521527       8.30237685       5.96684846       1.08372190       2.07716286      -0.26177361      -0.01763140      -0.36817905      -0.59022351      -8.73988315
Si      16.36265415       9.47689344       9.02743250       0.64928441      -0.15835931       1.04312042      -0.16874239      -0.19787323      -0.48066768      -8.69093998
Si      14.44966398      10.61053082       2.76982335      -0.75476140       0.50568744       1.44644698       0.17819660      -0.28780669       0.42094814      -8.76556215
Si      16.44200401      11.66426793       5.77210676      -1.20464726      -0.63712212      -1.92924160      -0.54798406      -0.50881091       0.60497808      -8.64411936
Si      18.22853462      12.77012582       9.02598501      -1.13246772       0.33695369       0.19431747       0.18723784      -0.01347262       0.00014408      -8.61778400
Si      14.32113602       3.87115517       2.67329493      -1.07245136      -0.42554714      -1.26981417       0.74741031      -0.32945610       0.28487062      -8.66508468
Si      16.41226444       5.10013358       5.79543050      -1.79811124       1.38687488      -0.30693374      -0.40614100      -0.75521946       1.73462447      -8.67444781
Si      18.25854471       5.95301459       9.16977129       0.58037552      -0.59348394       0.15924245      -0.11591218      -0.06893921       0.05918948      -7.95243328
Si      16.37079582       7.26271789       2.75434762       0.27032640       0.02853632      -1.96341539      -0.28185340      -0.21010114      -0.35879714      -8.71085476
Si      18.26265762       8.23025833       5.86656531      -1.53512311       1.06879423       0.23026445       0.31156000       0.05326333       0.30763986      -8.66066629
Si      20.17022653       9.50204229       8.94549054      -1.08483283       1.05623114      -0.98970158       0.05052136      -0.71148931       0.81519920      -8.71162077
Si      18.24817447      10.52566002       2.46801866       0.45485309      -0.69446002      -0.12244570       0.06878032       0.30231322      -0.32251825      -7.98478204
Si      20.18694638      11.63007850       5.87821029      -0.78686841       0.70003198       0.14816355       0.50980159       0.62438065      -0.00582028      -8.69110183
Si      22.20815557      12.81618036       9.04335336      -0.08062395       0.33932727      -0.37682090      -0.25920842       0.03798137       0.43890316      -7.89014749
Si       2.77746632       1.57319825       3.51588251      -0.20467847       0.91069250       1.60413227      -0.07722686       0.72210439      -0.25232513      -8.70355500
Si       4.86098898       2.83127960       6.66388519       0.97936020       0.13118068       0.68273515      -0.54445419       0.11792897      -0.24640959      -8.68758630
Si       2.85359041       3.90016743       0.31213592      -0.04466161      -0.01547331      -2.45282206      -0.86011848       0.36767326       0.34000464      -8.71974799
Si       4.65185370       5.04766341       3.54702782       0.42424550      -1.19320872      -0.68995898       0.54751541      -0.17187335      -0.99055760      -8.75465640
Si       6.81212569       5.98307233       6.80890532      -1.88450760      -0.99763972      -0.26659548      -0.08382006       0.44963069      -0.82764101      -8.67700023
Si       4.73929327       7.21011283       0.36806933      -0.17325235       0.77982454      -1.16139641       0.96905469       0.63850344       0.09233676      -8.70966395
Si       6.75610677       8.40154306       3.48262710      -0.36633407      -0.25724925      -0.33395713      -0.84164816       0.00782075       0.45091375      -8.72240373
Si       8.61199506       9.45508122       6.66552584      -0.28706093       2.02900507       0.68024062      -0.90852112      -0.01924219      -0.34167458      -8.76737331
Si       4.77565279       0.60467621       0.47683401      -1.58961231       1.83145521       1.70251610       1.43513447       1.15026989       0.66376010      -8.68626772
Si       6.75632515       1.63251077       3.54952767       1.32795950       0.16430430       0.60844282      -0.81924058       0.64341970      -0.29167757      -8.73522073
Si       8.73287161       2.81860187       6.69714503       0.24875049       1.25580105       0.15136074       0.08339596      -1.58219137      -0.18926800      -8.72651742
Si       6.74353892       3.93849973       0.27807102       0.28962683      -1.07949754      -0.84805833      -0.34124265       0.12456945       1.20577723      -8.69223722
Si       8.66102721       5.01052603       3.51628545       0.33123067      -0.11735132      -0.60695089      -0.43258232      -0.49093158       0.22585594      -8.73144758
Si      10.57850331       5.98503964       6.72448711      -0.35140524       0.67648605       0.23886726       0.55512672       0.93242985      -0.61925262      -8.64999322
Si       8.71933258       7.26238192       0.52819419      -0.55348516       0.30243985       0.91248179      -0.25031122      -0.05512542      -0.22444578      -8.72771938
Si      10.60230533       8.27217395       3.61411270       0.00462378      -1.98651187      -1.32213389      -0.31781339       0.43051774       0.43086029      -8.73198336
Si      12.49940936       9.47914267       6.73353436       1.18539526      -0.09135143       0.49014864      -0.41650562       0.30533035      -0.59360135      -8.74195877
Si       8.64255376       0.45493345       0.49909887       0.12778454      -0.32860709       0.60875620       0.32559295       0.66514681      -1.38500789      -8.70836722
Si      10.65325620       1.69088844       3.42902589      -0.02667847      -0.33959256       2.27546620      -0.01252963      -0.01179098       0.03571536      -8.73975961
Si      12.53319794       2.80159105       6.61267306       1.17983129      -0.41772156       0.19879310      -0.00568486      -0.44040944       0.53687181      -8.77096379
Si      10.60383097       3.95931068       0.42330803      -0.23739066      -0.37807546      -1.33672295       0.07077910      -0.79649750      -0.18627332      -8.72076476
Si      12.50324829       5.08161329       3.45913653       0.53402951       0.62640735       1.36757017       0.41096918      -0.01092805       0.61375879      -8.76375039
Si      14.42487497       6.04682837       6.75768353       1.59539892      -1.41539830       0.53054317       0.73195543       0.51652092      -0.20131879      -8.72892740
Si      12.50844253       7.17446754       0.39507568      -0.42315672       0.09398706      -1.28182526      -0.26223119       0.88303230      -0.44970014      -8.75520144
Si      14.45414264       8.38571755       3.55349445       0.36097967       0.08092496       0.37232164      -0.19964374      -0.11331668       0.31692202      -8.70836767
Si      16.33573944       9.35121408       6.59655666      -0.38329685      -0.41617412       1.67142252       0.24129141       0.99411357       0.63438033      -8.71106405
53
Lattice="11.5478352 0.0 0.0 5.773917198490155 10.000722372470358 0.0 5.773916394327279 3.333571176804646 9.428767828939895" Properties=species:S:1:pos:R:3:momenta:R:3:forces:R:3:energies:R:1 spacegroup="_JSON {\"number\": 1, \"setting\": 1}" unit_cell=conventional occupancy="_JSON {\"0\": {\"Si\": 1.0}, \"1\": {\"Si\": 1.0}, \"2\": {\"Si\": 1.0}, \"3\": {\"Si\": 1.0}, \"4\": {\"Si\": 1.0}, \"5\": {\"Si\": 1.0}, \"6\": {\"Si\": 1.0}, \"7\": {\"Si\": 1.0}, \"8\": {\"Si\": 1.0}, \"9\": {\"Si\": 1.0}, \"10\": {\"Si\": 1.0}, \"11\": {\"Si\": 1.0}, \"12\": {\"Si\": 1.0}, \"13\": {\"Si\": 1.0}, \"14\": {\"Si\": 1.0}, \"15\": {\"Si\": 1.0}, \"16\": {\"Si\": 1.0}, \"17\": {\"Si\": 1.0}, \"18\": {\"Si\": 1.0}, \"19\": {\"Si\": 1.0}, \"20\": {\"Si\": 1.0}, \"21\": {\"Si\": 1.0}, \"22\": {\"Si\": 1.0}, \"23\": {\"Si\": 1.0}, \"24\": {\"Si\": 1.0}, \"25\": {\"Si\": 1.0}, \"26\": {\"Si\": 1.0}, \"27\": {\"Si\": 1.0}, \"28\": {\"Si\": 1.0}, \"29\": {\"Si\": 1.0}, \"30\": {\"Si\": 1.0}, \"31\": {\"Si\": 1.0}, \"32\": {\"Si\": 1.0}, \"33\": {\"Si\": 1.0}, \"34\": {\"Si\": 1.0}, \"35\": {\"Si\": 1.0}, \"36\": {\"Si\": 1.0}, \"37\": {\"Si\": 1.0}, \"38\": {\"Si\": 1.0}, \"39\": {\"Si\": 1.0}, \"40\": {\"Si\": 1.0}, \"41\": {\"Si\": 1.0}, \"42\": {\"Si\": 1.0}, \"43\": {\"Si\": 1.0}, \"44\": {\"Si\": 1.0}, \"45\": {\"Si\": 1.0}, \"46\": {\"Si\": 1.0}, \"47\": {\"Si\": 1.0}, \"48\": {\"Si\": 1.0}, \"49\": {\"Si\": 1.0}, \"50\": {\"Si\": 1.0}, \"51\": {\"Si\": 1.0}, \"52\": {\"Si\": 1.0}}" energy=-457.9789914268928 stress="0.005763591880062902 0.0017952206531429828 0.0019522401230925095 0.0017952206531429828 0.008564355012206964 -0.0011136274661516332 0.0019522401230925095 -0.0011136274661516332 0.005639314485756208" free_energy=-457.9789914268928 pbc="T T T"
Si       6.70899574       3.87765095       2.73983379       1.57808816      -1.05955464      -1.12370234      -0.25437086       0.16646498      -0.52030665      -8.69515015
Si       8.71049310       4.83338008       5.86507130      -0.82444244       0.48305872      -0.01011060      -0.49334083       2.30207878      -0.16595425      -8.66254147
Si      10.60149219       6.14369776       9.02122011       1.70136930      -1.21988040      -0.06781814      -0.44310195       0.18843221       0.10148297      -8.77449724
Si       8.61646562       7.28460962       2.92457314       0.02313145      -0.02181869      -0.86265315       0.07413461      -0.92236517      -0.90644820      -8.71581417
Si      10.50403467       8.28636983       5.98404664       1.29326313      -1.20115208      -0.79940207       0.63875260       0.52630475      -0.25514458      -8.64116352
Si      12.57129577       9.54278104       9.04856800      -0.10255844      -0.24855987       0.79262210      -0.45638920      -0.46625077       0.37836036      -8.71330806
Si      10.49452303      10.50337355       2.92530605       0.27885085       0.61005056       0.83198716       0.67922504       0.30976344      -0.22543733      -8.65428546
Si      12.53897682      11.71140291       5.89668294       0.39348487      -0.20488791       1.14107686       0.31209789      -0.14402590       0.50789759      -8.71819635
Si      14.72080946      12.67615901       8.96242094      -1.33619722      -0.85583191      -0.78779984      -0.27031944       0.42764390       0.93026500      -7.79558796
Si      10.60592240       3.94741649       2.68140272      -0.93933083      -0.41128324      -1.62815916       0.11043657      -0.18250414       0.68870621      -8.67659688
Si      12.63472650       4.97802438       5.86364399      -0.12922750       0.36909052       1.22600567      -0.90739873       0.32265570       0.56094727      -8.71139661
Si      14.52278167       6.05822677       9.12199235       1.13872668      -1.00047274      -0.21272401      -0.84777062      -0.36950413      -0.20127991      -8.72532753
Si      12.55047910       7.26149375       2.75063370       1.06865119      -0.41118527       0.54481885       0.21317536       0.16977932      -0.54477170      -8.72628036
Si      14.41713792       8.37600407       5.93740920       0.85292092       0.47440807      -0.69206126      -0.18752151      -1.39642210       0.08159558      -8.68760401
Si      16.37795486       9.46228506       9.06348605      -0.24357149      -0.37314367       0.39288921      -0.85259321      -0.09060499      -0.23690456      -8.68611409
Si      14.42872928      10.61956545       2.84779377       0.09331448      -0.23617038       1.24475339       0.69807544      -0.56907916      -0.66035256      -8.73736687
Si      16.37306876      11.61856508       5.72714206      -1.14746877      -0.97638500       0.70225751       0.54946857       0.00186156       2.42745720      -8.57888682
Si      18.17669989      12.79222762       9.03863474      -0.83452807       0.61600249       0.32826733       0.22448535       0.41877048       0.16103469      -8.59340089
Si      14.29801350       3.84288066       2.61751611       0.21639162      -0.50615015      -0.86485789       0.86086722       0.24174684       0.25108570      -8.64995605
Si      16.31891930       5.12937069       5.82848490      -1.39457605      -0.51766291       1.05331527       1.01151223      -1.71719444      -0.21036529      -8.70070721
Si      18.28001621       5.91761372       9.17401356       0.18096405      -0.79333315      -0.13025942      -0.33572921      -0.21367205      -0.45686534      -7.97294610
Si      16.37118318       7.25165078       2.64919290      -0.29402194      -0.49794194      -1.81743268      -0.43204034      -0.40259688       0.53460906      -8.69683316
Si      18.20379315       8.28206855       5.88941425      -0.60474739       0.81784048       0.60243693       0.72603127      -0.30018298       0.16441289      -8.62991329
Si      20.12493017       9.52894550       8.93080156      -0.48312238       0.01612665       0.43623095       0.66491788      -0.53176530       0.83224601      -8.72103783
Si      18.27105439      10.50808092       2.45523414       0.35730606       0.11869995      -0.24615134      -0.16759841       0.67315091       0.14140067      -7.93331813
Si      20.17792614      11.68942390       5.88872281       0.61334244       1.49266942       0.29168010       1.16176260       0.36070501       0.15335043      -8.71062372
Si      22.19611064      12.83627251       9.04199664      -0.31506849       0.46280675       0.29725861      -0.01114966       0.18241531       0.33499834      -7.94568458
Si       2.76114930       1.64097548       3.57919720      -0.42148728       1.49410346       0.62345575      -0.09877687       0.02295588      -0.97660640      -8.69959997
Si       4.88365444       2.84688675       6.68578836      -0.18747912       0.50052218       0.13636771      -0.83030936       0.26150114      -0.31889142      -8.65367592
Si       2.82815650       3.91224797       0.20456076      -0.67711885       0.38686446      -1.52258936       0.07814326       0.03213341       0.84972974      -8.67793237
Si       4.69233791       4.98390812       3.47589661       1.06044944      -1.13990297      -1.84863011       0.31049746       0.21361591      -0.36134035      -8.70708468
Si       6.72235828       5.95195228       6.76620991      -1.33716163      -0.12499677      -1.23091968       0.71174420       0.70753958      -0.33909078      -8.61759727
Si       4.76343446       7.26816890       0.30842450       0.95297136       1.26120397      -1.14579477       0.43001918      -0.03578809      -0.02854670      -8.73577537
Si       6.70324683       8.39167607       3.48582899      -1.56799598      -0.09720017       0.46111156      -0.53648478       0.10033290       0.47399083      -8.73963055
Si       8.57044147       9.54257878       6.67401793      -1.05538718       0.99372869      -0.52016121       0.00810121      -1.23018562      -0.97023583      -8.72337889
Si       4.73734948       0.71982537       0.57791460      -0.13657168       1.97998865       1.83708599       0.45741231      -1.05898411      -0.52187087      -8.70327293
Si       6.78129494       1.66288185       3.57238271      -0.49513042       0.88350792       0.33880874      -1.27887239       0.19890179      -0.00961820      -8.73549919
Si       8.74636707       2.80093130       6.69812477       0.22169186      -2.05215230      -0.16599786      -0.09363759      -2.01436805      -0.40364957      -8.74332685
Si       6.75591268       3.89296512       0.28060757       0.39166873      -0.57463937       0.88848569       0.45869103       0.44802133       0.98573203      -8.68107224
Si       8.66355991       4.98997908       3.49602198      -0.17775473      -0.55990691      -0.14228506      -0.21082531      -0.07967739       0.31935469      -8.75298039
Si      10.58098589       6.04114645       6.70955345       0.40994483       1.13881249      -0.79465915       0.41873033      -0.32998048      -0.56653661      -8.70608775
Si       8.68656849       7.27361520       0.56307211      -0.59188953       0.06607567       0.32930169       0.15468645      -0.28500709      -0.57182285      -8.72923587
Si      10.59366351       8.19954316       3.57010908      -0.21396870      -0.56884200      -0.26165315       0.13844369       1.27225489       0.80556283      -8.71787773
Si      12.53768387       9.48479728       6.73352343       0.19494221       0.23034268      -0.46320167      -0.73705436       0.00512727      -0.50015080      -8.72882430
Si       8.65854462       0.46303612       0.48687243       0.40215906       0.58485474      -0.82073221       0.00921294       0.45502983      -0.41449233      -8.69563799
Si      10.65286171       1.67487499       3.51672483       0.04178713      -0.23013228       0.53094135       0.10558802       0.14847615      -1.98086874      -8.69122988
Si      12.57198488       2.76797077       6.64069222      -0.07041353      -0.71183798       0.81309711      -1.44194834       0.13047586       0.31365920      -8.70688047
Si      10.60467944       3.91173583       0.35232076       0.44578457      -1.33032771      -1.26566418       0.75249227      -0.39327122       0.22937176      -8.74676397
Si      12.53688877       5.10043019       3.54114132       0.57432651      -0.14329205       1.48399004      -0.26527445      -0.91372959      -0.45342293      -8.75348491
Si      14.51661863       6.01218466       6.77701457       1.42222210       0.38814048       0.24372632      -1.11624343       1.69091882      -0.08261400      -8.66298548
Si      12.48012494       7.21545546       0.33202511      -0.57531610       1.42987463      -0.75496307       0.04823178       0.72422635       0.98519997      -8.74772648
Si      14.46797498       8.38604544       3.57968673       0.23078235      -0.07680873       0.49481904       0.04943630      -0.14994107      -0.19757428      -8.72799564
Si      16.32636136       9.37497700       6.70091576       0.01800037       1.34667956       2.11359246       0.21237776       1.09381643      -0.13128797      -8.73889585
53
Lattice="11.5478352 0.0 0.0 5.773917198490155 10.000722372470358 0.0 5.773916394327279 3.333571176804646 9.428767828939895" Properties=species:S:1:pos:R:3:momenta:R:3:forces:R:3:energies:R:1 spacegroup="_JSON {\"number\": 1, \"setting\": 1}" unit_cell=conventional occupancy="_JSON {\"0\": {\"Si\": 1.0}, \"1\": {\"Si\": 1.0}, \"2\": {\"Si\": 1.0}, \"3\": {\"Si\": 1.0}, \"4\": {\"Si\": 1.0}, \"5\": {\"Si\": 1.0}, \"6\": {\"Si\": 1.0}, \"7\": {\"Si\": 1.0}, \"8\": {\"Si\": 1.0}, \"9\": {\"Si\": 1.0}, \"10\": {\"Si\": 1.0}, \"11\": {\"Si\": 1.0}, \"12\": {\"Si\": 1.0}, \"13\": {\"Si\": 1.0}, \"14\": {\"Si\": 1.0}, \"15\": {\"Si\": 1.0}, \"16\": {\"Si\": 1.0}, \"17\": {\"Si\": 1.0}, \"18\": {\"Si\": 1.0}, \"19\": {\"Si\": 1.0}, \"20\": {\"Si\": 1.0}, \"21\": {\"Si\": 1.0}, \"22\": {\"Si\": 1.0}, \"23\": {\"Si\": 1.0}, \"24\": {\"Si\": 1.0}, \"25\": {\"Si\": 1.0}, \"26\": {\"Si\": 1.0}, \"27\": {\"Si\": 1.0}, \"28\": {\"Si\": 1.0}, \"29\": {\"Si\": 1.0}, \"30\": {\"Si\": 1.0}, \"31\": {\"Si\": 1.0}, \"32\": {\"Si\": 1.0}, \"33\": {\"Si\": 1.0}, \"34\": {\"Si\": 1.0}, \"35\": {\"Si\": 1.0}, \"36\": {\"Si\": 1.0}, \"37\": {\"Si\": 1.0}, \"38\": {\"Si\": 1.0}, \"39\": {\"Si\": 1.0}, \"40\": {\"Si\": 1.0}, \"41\": {\"Si\": 1.0}, \"42\": {\"Si\": 1.0}, \"43\": {\"Si\": 1.0}, \"44\": {\"Si\": 1.0}, \"45\": {\"Si\": 1.0}, \"46\": {\"Si\": 1.0}, \"47\": {\"Si\": 1.0}, \"48\": {\"Si\": 1.0}, \"49\": {\"Si\": 1.0}, \"50\": {\"Si\": 1.0}, \"51\": {\"Si\": 1.0}, \"52\": {\"Si\": 1.0}}" energy=-458.34621623170744 stress="0.009713773974580203 -0.0002772263594661668 0.0010794673416612858 -0.0002772263594661668 0.0068708896116293165 0.0009783851226020574 0.0010794673416612858 0.0009783851226020574 0.009621789243261014" free_energy=-458.34621623170744 pbc="T T T"
Si       6.77450697       3.83442323       2.67059291       0.81783810      -0.50469152      -1.26862475      -0.65661649       0.49034875       0.46191406      -8.76388067
Si       8.65555278       4.91934317       5.86532653      -1.09634242       2.18844619       0.12941106       0.18983528      -0.01050275       0.23891031      -8.68463731
Si      10.66202427       6.10378707       9.01626198       0.47522699      -0.06630869      -0.19382785      -0.98110138       1.10025020      -0.16282848      -8.69874751
Si       8.61102520       7.25373341       2.85805435      -0.34089208      -0.98298002      -1.37941537      -0.36151188      -0.25994435       0.23394255      -8.72054818
Si      10.58132419       8.25997885       5.93586637       1.38209585       0.39072111      -0.95413681      -0.43897907       1.28317801       0.08192133      -8.66014588
Si      12.55189675       9.51077864       9.09295367      -0.54025485      -0.96063744       0.67067185      -0.08329144      -0.42820729      -0.51463390      -8.69306697
Si      10.52588107      10.54562899       2.96395776       0.70198258       0.94981828       0.67799557      -0.15963873       0.10320052      -0.09169460      -8.67276239
Si      12.56014709      11.69885314       5.96424698       0.14782898      -0.21733954       1.19577772      -0.71478393       0.06711768      -0.42097642      -8.71691569
Si      14.64991701      12.65850723       8.96611810      -1.26463415       0.31476608       0.95899260       0.15279421       0.96220944       1.06732485      -7.75819599
Si      10.57007441       3.92116273       2.63192776      -0.29440636      -0.54601329      -0.16376533       0.64485457      -0.00691880       1.06946600      -8.64880837
Si      12.59983587       5.00436657       5.94507388      -1.04082461       0.51421989       1.71777694      -0.27636645      -0.15397341      -0.06896418      -8.73543575
Si      14.54551981       6.00350710       9.10345428      -0.25650841      -0.80242104      -0.46868455      -0.80018495       0.73042542      -0.10971543      -8.71426824
Si      12.60407067       7.24699086       2.75790273       0.76621036      -0.16224116      -0.20431688      -0.59699951       0.09322243      -0.30683364      -8.71885726
Si      14.45639803       8.35452660       5.91486074       0.67475850      -1.03964902      -0.01101337      -0.07634326      -0.40204369       0.67132310      -8.71042082
Si      16.33728795       9.44164044       9.08494609      -1.12998032      -0.36753016       0.61350740      -0.17431986       0.08371954       0.47941238      -8.68200565
Si      14.45118670      10.59125185       2.88022190       0.53426059      -0.69298141      -0.08729469      -0.16682708      -0.00026705      -0.98396762      -8.70032853
Si      16.34524365      11.57285977       5.83539886       0.27814254      -0.64874807       2.76259347       1.29055202       0.48034506      -0.06747326      -8.67528895
Si      18.14298362      12.84452183       9.06284017      -0.42277087       1.40375012       0.60507039       0.33675780       0.50861790       0.20511548      -8.61892583
Si      14.33793839       3.83196873       2.58094299       1.19472567       0.17979201      -0.55118178       0.42881897       0.59275035       0.17035450      -8.67278979
Si      16.29225336       5.03962893       5.85324215       0.31820745      -2.61637410      -0.37213133       0.81581699      -0.57602739      -1.27954589      -8.70413795
Si      18.28008265       5.86666063       9.14515182      -0.06847419      -1.16093795      -1.02667286       0.08940405      -0.26204812      -0.68605326      -7.98248667
Si      16.34110823       7.21296474       2.58232553      -0.78344021      -0.89611200      -0.63902510      -0.16027079      -0.08964554       0.90306471      -8.68538667
Si      18.19382451       8.31311009       5.92420393       0.05548370       0.38018978       0.65557530       0.07865766      -0.24671865      -0.10896302      -8.67581320
Si      20.12484533       9.51911421       8.97176454       0.41235057      -0.19014260       0.83102395       0.41316911       0.23877256      -0.29980989      -8.71637616
Si      18.28236462      10.53697837       2.45149557       0.06994958       0.87084046       0.15053358      -0.18539280       0.23822724       0.32942905      -7.94865577
Si      20.24402232      11.77363893       5.90926880       1.54669832       1.53436350       0.45429261      -0.23675721      -0.37394395      -0.00090729      -8.74334908
Si      22.18410926      12.87114297       9.06350493      -0.04820320       0.92569317       0.38878626       0.35996196       0.40644443      -0.17838958      -7.97023848
Si       2.74033021       1.71080807       3.57411817      -0.25978439       1.01766595      -0.73679245       0.34085849      -0.56657379      -0.67268281      -8.68249524
Si       4.85042888       2.87740106       6.68785778      -0.84262338       0.50463789       0.11853940       0.08982206      -0.35916857       0.37395351      -8.72437720
Si       2.80469105       3.92492208       0.16104600      -0.10379226      -0.06079011      -0.10139725       0.53699224      -0.57497069       0.98674143      -8.64676713
Si       4.75591629       4.93532122       3.37713657       1.28674860      -0.67803579      -1.71204792       0.00932723       0.35334743       0.45497179      -8.65315317
Si       6.68214316       5.97401524       6.69846919      -0.22495526       0.96170882      -1.17868263       0.59809261       0.68426711       0.34029474      -8.66724002
Si       4.81891732       7.32352650       0.25045964       0.95534562       0.69799319      -0.97265354      -0.38170636      -0.62575347       0.32555295      -8.74394552
Si       6.61383198       8.38794898       3.52100796      -1.58753478      -0.08997109       0.71837116       0.45226855      -0.07375042      -0.15177574      -8.70118192
Si       8.53009401       9.54591107       6.61931232      -0.21068509      -0.77337651      -1.31461911       1.08534519      -0.88318553      -0.01361588      -8.67030430
Si       4.73977082       0.76354160       0.64384309       0.12118306      -0.50826726       0.53867407       0.01727465      -1.83307524      -1.08431746      -8.65946316
Si       6.72101991       1.70515114       3.59379922      -1.43787967       0.52376515       0.54185187       0.12614641      -0.58068221       0.24353857      -8.74072722
Si       8.75236626       2.65486659       6.67117893      -0.04053966      -2.69866589      -0.77556025      -0.27902161       1.13527800      -0.06050272      -8.79430080
Si       6.79675392       3.87776316       0.35213219       1.13526623      -0.08764210       1.51693891       0.35196099       0.13317625      -0.27982899      -8.71437134
Si       8.65036792       4.96294404       3.49826729      -0.24870629      -0.38242036       0.17182800       0.08919084       0.26767448       0.10849521      -8.76433697
Si      10.61320695       6.07683424       6.65671776       0.67894648       0.11365209      -1.00341920      -0.13958220      -0.74088772       0.26713304      -8.76166988
Si       8.66311929       7.26363271       0.55461837      -0.30498553      -0.47532477      -0.69597193       0.14352800      -0.39488376      -0.74049954      -8.77411332
Si      10.59383503       8.21657481       3.58104752       0.27571930       1.10272129       0.49201342       0.35542820       0.83655634       0.08015121      -8.73559753
Si      12.52465210       9.48835519       6.69896040      -0.55068465      -0.25317060      -0.67175443      -0.18903715      -0.60337134       0.21212927      -8.72505585
Si       8.67423566       0.50177355       0.44207864       0.08767484       0.68424231      -0.64815305      -0.41349796      -0.34850148       0.52470087      -8.68884362
Si      10.65950588       1.66917919       3.48067536       0.20146905       0.00924621      -1.47214660       0.06688998       0.13577077      -0.38569414      -8.71166981
Si      12.51489973       2.74219965       6.69239059      -1.90393110      -0.18013625       1.09833641      -0.66912347       0.50684274       0.08810441      -8.70347522
Si      10.65535993       3.83510674       0.29850024       1.36266510      -1.44201097      -0.71874729       0.27727388       0.19528749       0.50277030      -8.74294545
Si      12.55417911       5.05730828       3.59230350       0.06743333      -1.42528598       0.35952459      -0.34382820      -0.63359953      -0.88128694      -8.69411544
Si      14.53503089       6.09453895       6.78534249      -0.72610630       2.49752683      -0.03156566      -1.17378146       0.67973061      -0.47046960      -8.71746105
Si      12.45415604       7.30462281       0.33545636      -0.38328061       1.67360027       0.88615343       0.17837778      -0.41483990       1.00188120      -8.74824412
Si      14.48473520       8.37332350       3.59139601       0.44121806      -0.46681086      -0.13723185       0.17614549      -0.37477605      -0.53836466      -8.75463199
Si      16.33176553       9.47169080       6.79384510       0.12279120       1.93765596       1.23659386      -0.03658198      -0.48850005      -0.86280191      -8.75325516
53
Lattice="11.5478352 0.0 0.0 5.773917198490155 10.000722372470358 0.0 5.773916394327279 3.333571176804646 9.428767828939895" Properties=species:S:1:pos:R:3:momenta:R:3:forces:R:3:energies:R:1 spacegroup="_JSON {\"number\": 1, \"setting\": 1}" unit_cell=conventional occupancy="_JSON {\"0\": {\"Si\": 1.0}, \"1\": {\"Si\": 1.0}, \"2\": {\"Si\": 1.0}, \"3\": {\"Si\": 1.0}, \"4\": {\"Si\": 1.0}, \"5\": {\"Si\": 1.0}, \"6\": {\"Si\": 1.0}, \"7\": {\"Si\": 1.0}, \"8\": {\"Si\": 1.0}, \"9\": {\"Si\": 1.0}, \"10\": {\"Si\": 1.0}, \"11\": {\"Si\": 1.0}, \"12\": {\"Si\": 1.0}, \"13\": {\"Si\": 1.0}, \"14\": {\"Si\": 1.0}, \"15\": {\"Si\": 1.0}, \"16\": {\"Si\": 1.0}, \"17\": {\"Si\": 1.0}, \"18\": {\"Si\": 1.0}, \"19\": {\"Si\": 1.0}, \"20\": {\"Si\": 1.0}, \"21\": {\"Si\": 1.0}, \"22\": {\"Si\": 1.0}, \"23\": {\"Si\": 1.0}, \"24\": {\"Si\": 1.0}, \"25\": {\"Si\": 1.0}, \"26\": {\"Si\": 1.0}, \"27\": {\"Si\": 1.0}, \"28\": {\"Si\": 1.0}, \"29\": {\"Si\": 1.0}, \"30\": {\"Si\": 1.0}, \"31\": {\"Si\": 1.0}, \"32\": {\"Si\": 1.0}, \"33\": {\"Si\": 1.0}, \"34\": {\"Si\": 1.0}, \"35\": {\"Si\": 1.0}, \"36\": {\"Si\": 1.0}, \"37\": {\"Si\": 1.0}, \"38\": {\"Si\": 1.0}, \"39\": {\"Si\": 1.0}, \"40\": {\"Si\": 1.0}, \"41\": {\"Si\": 1.0}, \"42\": {\"Si\": 1.0}, \"43\": {\"Si\": 1.0}, \"44\": {\"Si\": 1.0}, \"45\": {\"Si\": 1.0}, \"46\": {\"Si\": 1.0}, \"47\": {\"Si\": 1.0}, \"48\": {\"Si\": 1.0}, \"49\": {\"Si\": 1.0}, \"50\": {\"Si\": 1.0}, \"51\": {\"Si\": 1.0}, \"52\": {\"Si\": 1.0}}" energy=-457.8361574433097 stress="0.008133721423012639 -0.0005496049163870453 -0.0004317789297673399 -0.0005496049163870453 0.006681816820444879 0.001552751279590885 -0.0004317789297673399 0.001552751279590885 0.01225205043536819" free_energy=-457.8361574433097 pbc="T T T"
Si       6.79350471       3.82479030       2.63833209      -0.02218192       0.06126253       0.27617811      -0.37832347       0.20114677       1.35551575      -8.75090810
Si       8.61525235       5.01282228       5.87861030      -0.29303145       1.07430143       0.30552890       0.75582725      -1.21785718      -0.02228819      -8.61605575
Si      10.65278852       6.13642331       9.00409675      -0.70769953       1.09566808      -0.16869171      -0.51508634       0.28202495       0.21407698      -8.65736956
Si       8.58347257       7.20389791       2.80511539      -0.60502182      -0.70809990      -0.52518401       0.03873247       0.56208311       0.68655745      -8.66268323
Si      10.62762226       8.31809749       5.89516595       0.25347409       1.50053568      -0.50226279      -0.94528415       0.04201969       0.44121604      -8.73184043
Si      12.52568100       9.44840884       9.10126682      -0.38362549      -1.31249125      -0.43782312       0.20975894      -0.01618685      -0.85180527      -8.67284381
Si      10.54615887      10.59387686       2.99002315      -0.07628409       0.78738408       0.16433899      -0.72414509      -0.28835426      -0.67861087      -8.70159139
Si      12.53202008      11.68824170       6.00386487      -1.25621149      -0.24366289       0.26153339      -0.84478598      -0.14469022      -0.63201838      -8.70844096
Si      14.58630571      12.70810403       9.04356370      -1.26252847       1.43730924       1.70267762      -0.24912957       0.42720043      -0.05968332      -7.80337745
Si      10.57974364       3.89463599       2.65811461       0.61935394      -0.42374682       0.98963204       0.47355774       0.15382026       0.40435848      -8.69741771
Si      12.54513641       5.01896412       6.01721128      -0.85421716      -0.05684852       0.75207898       0.45443348      -0.53319947      -1.16273673      -8.71049852
Si      14.51227570       6.00052095       9.07632593      -0.77187088       0.77833631      -0.54236865       0.13411475       1.07400497      -0.01635498      -8.70965552
Si      12.61529270       7.23859496       2.74528612      -0.39966933      -0.22358303      -0.06706815      -0.84555041      -0.16324177       0.51419266      -8.72470684
Si      14.48750458       8.30890462       5.93314423       0.47443720      -0.22441747       0.48277346      -0.21730915       1.42399695      -0.17890559      -8.70869312
Si      16.28595747       9.42553497       9.13544108      -0.55091928      -0.26994345       1.23135854       0.90938723      -0.00299320       0.18417830      -8.67084829
Si      14.46467149      10.56057513       2.84219065      -0.11681020      -0.40990501      -1.22257568      -0.55613678       0.26602360      -0.43508208      -8.67124245
Si      16.40517963      11.56551069       5.94403879       1.75468973       0.47793910       0.89930662       0.30708634       0.86640856      -1.96545562      -8.62935001
Si      18.13569477      12.92766008       9.10175039       0.18351968       1.50442339       0.84900846       0.49248626      -0.50982354       0.08685759      -8.69116859
Si      14.40977379       3.86179661       2.55908769       1.39875449       0.86096975      -0.25299493      -0.14567373       0.22055287       0.28838160      -8.71270601
Si      16.32526276       4.91656880       5.78840019       0.71328560      -1.45933388      -1.96709860      -0.08131337       1.77673427      -0.74069500      -8.59926928
Si      18.28683311       5.79733882       9.06689152       0.42268002      -1.43296281      -1.88253542       0.46153107      -0.06595247      -0.39064970      -7.99313410
Si      16.30115274       7.16804269       2.57982179      -0.58636160      -0.72106162       0.42555579       0.44468122       0.28441195       0.45069407      -8.69509222
Si      18.19228158       8.32646173       5.94997304      -0.19393199       0.20396872       0.24986969      -0.22283280       0.04901822      -0.41151319      -8.72296139
Si      20.15462912       9.52207942       8.99476567       0.57643668       0.30344096      -0.05880163      -0.16096794       0.25008649      -0.72356664      -8.66127693
Si      18.28044756      10.58191941       2.47086321      -0.10291010       0.65183288       0.54863189      -0.02791947      -0.50938484       0.18150928      -7.97556214
Si      20.28946375      11.82731750       5.92750343      -0.22382123       0.31345585       0.14558629      -1.81292584      -1.13638744      -0.35571357      -8.62783957
Si      22.19829781      12.93330112       9.07561421       0.61943258       1.36904099       0.10424740       0.48027876       0.11954212      -0.05444227      -7.98869677
Si       2.74470352       1.74164333       3.52089000       0.48687775       0.19639667      -1.07481060       0.57185921      -0.42593721       0.17599384      -8.67767028
Si       4.82334129       2.88044729       6.71763096      -0.01425511      -0.50327627       1.11786613       0.75171143      -0.78131500       0.73454345      -8.75423623
Si       2.81783427       3.89927789       0.18938011       0.52409451      -0.85352731       1.05001920       0.22244084      -0.33528105       0.47347254      -8.68401191
Si       4.82007896       4.91316283       3.31181708       1.09219533      -0.17238956      -0.66968630      -0.26055018       0.33990080       0.88751695      -8.69064154
Si       6.68308577       6.04402511       6.65349304       0.05553494       1.53658808      -0.51564251      -0.18417169       0.01785558       0.41974898      -8.72395325
Si       4.84846239       7.33591538       0.21802187       0.11242773      -0.17265009      -0.16973012      -0.61529225      -0.43020505       0.69666694      -8.73061952
Si       6.55587741       8.37969457       3.54617398      -0.51507093      -0.22772470       0.14804058       0.88525199      -0.08669567      -0.52120322      -8.62820792
Si       8.56740205       9.48622763       6.56169636       1.64591924      -1.21586917      -0.70119611       1.11991446       0.23309937       0.70533223      -8.64315683
Si       4.74586929       0.68247379       0.63145827       0.09876528      -2.15637682      -0.91520242      -0.04104386      -0.18843306      -0.70838700      -8.72386699
Si       6.66814653       1.70986733       3.63102513      -0.31069235      -0.29639204       0.83192617       1.17388393      -0.42401591       0.06207469      -8.69100387
Si       8.73883187       2.58297786       6.64446773      -0.45050912       0.26064542       0.00766562      -0.18958435       2.35455676       0.90587119      -8.65899734
Si       6.85967158       3.87311741       0.40210010       1.04555750      -0.16790641       0.12507967      -0.50748167      -0.17317225      -1.27564587      -8.71940727
Si       8.64304994       4.95421395       3.51045375       0.00836427       0.04561642       0.28989855       0.24853511       0.25876885       0.09307284      -8.76129791
Si      10.63205705       6.06714510       6.62108685      -0.16660783      -0.17627823      -0.26847280      -0.92923736       0.42405339       0.61753882      -8.74901137
Si       8.64803387       7.22686511       0.49443710      -0.37656858      -0.82198804      -1.45111369      -0.26786196       0.01332247      -0.16912097      -8.81256945
Si      10.61646981       8.29524879       3.59736923       0.45752500       1.67132505      -0.07501425      -0.14898613      -0.05003554      -0.71557315      -8.70203606
Si      12.49823758       9.45198522       6.67862302      -0.27597804      -1.05427502      -0.01013911       0.51636069      -0.30232225       0.58084453      -8.70453536
Si       8.66117501       0.51840754       0.43104654      -0.56922134      -0.06627464       0.20005295      -0.34500893      -0.40801602       0.42257662      -8.71196804
Si      10.66981188       1.67277525       3.41082612       0.12574064       0.07643327      -0.84801643      -0.19147710      -0.06726780       0.98708780      -8.66360592
Si      12.41423797       2.75530278       6.75272757      -1.44397418       0.73756279       1.21551337       1.24358160       0.72896912       0.13262607      -8.69161473
Si      10.72396779       3.77218845       0.28356047       1.02046764      -0.88471053       0.20041742      -0.62085252       0.47817851       0.70329319      -8.69048813
Si      12.54692054       4.96978755       3.58141923      -0.27581285      -1.67436755      -0.64740234      -0.07200330       0.29579647      -0.39210356      -8.65252337
Si      14.47143088       6.21591334       6.76144444      -1.35271380       1.43445931      -0.86991739       0.17761252      -2.00486612      -0.46148208      -8.69058146
Si      12.44153186       7.36672674       0.40873704      -0.09145645       0.58618849       1.62760370       0.20708907      -0.85715189      -0.09158358      -8.71744386
Si      14.51170551       8.33437989       3.56744995       0.49798857      -0.97819886      -0.65593504      -0.17456802      -0.21477368      -0.08296628      -8.76268876
Si      16.33639846       9.53016976       6.83006722       0.06243420      -0.05682261       0.29729428      -0.00461297      -1.80601679      -0.30821177      -8.70478993
53
Lattice="11.5478352 0.0 0.0 5.773917198490155 10.000722372470358 0.0 5.773916394327279 3.333571176804646 9.428767828939895" Properties=species:S:1:pos:R:3:momenta:R:3:forces:R:3:energies:R:1 spacegroup="_JSON {\"number\": 1, \"setting\": 1}" unit_cell=conventional occupancy="_JSON {\"0\": {\"Si\": 1.0}, \"1\": {\"Si\": 1.0}, \"2\": {\"Si\": 1.0}, \"3\": {\"Si\": 1.0}, \"4\": {\"Si\": 1.0}, \"5\": {\"Si\": 1.0}, \"6\": {\"Si\": 1.0}, \"7\": {\"Si\": 1.0}, \"8\": {\"Si\": 1.0}, \"9\": {\"Si\": 1.0}, \"10\": {\"Si\": 1.0}, \"11\": {\"Si\": 1.0}, \"12\": {\"Si\": 1.0}, \"13\": {\"Si\": 1.0}, \"14\": {\"Si\": 1.0}, \"15\": {\"Si\": 1.0}, \"16\": {\"Si\": 1.0}, \"17\": {\"Si\": 1.0}, \"18\": {\"Si\": 1.0}, \"19\": {\"Si\": 1.0}, \"20\": {\"Si\": 1.0}, \"21\": {\"Si\": 1.0}, \"22\": {\"Si\": 1.0}, \"23\": {\"Si\": 1.0}, \"24\": {\"Si\": 1.0}, \"25\": {\"Si\": 1.0}, \"26\": {\"Si\": 1.0}, \"27\": {\"Si\": 1.0}, \"28\": {\"Si\": 1.0}, \"29\": {\"Si\": 1.0}, \"30\": {\"Si\": 1.0}, \"31\": {\"Si\": 1.0}, \"32\": {\"Si\": 1.0}, \"33\": {\"Si\": 1.0}, \"34\": {\"Si\": 1.0}, \"35\": {\"Si\": 1.0}, \"36\": {\"Si\": 1.0}, \"37\": {\"Si\": 1.0}, \"38\": {\"Si\": 1.0}, \"39\": {\"Si\": 1.0}, \"40\": {\"Si\": 1.0}, \"41\": {\"Si\": 1.0}, \"42\": {\"Si\": 1.0}, \"43\": {\"Si\": 1.0}, \"44\": {\"Si\": 1.0}, \"45\": {\"Si\": 1.0}, \"46\": {\"Si\": 1.0}, \"47\": {\"Si\": 1.0}, \"48\": {\"Si\": 1.0}, \"49\": {\"Si\": 1.0}, \"50\": {\"Si\": 1.0}, \"51\": {\"Si\": 1.0}, \"52\": {\"Si\": 1.0}}" energy=-458.2342619060522 stress="0.0053479090514146526 0.0014376297463626567 -0.0005030849469527146 0.0014376297463626567 0.013677676042707703 -0.0011341355112956728 -0.0005030849469527146 -0.0011341355112956728 0.011459699113003914" free_energy=-458.2342619060522 pbc="T T T"
Si       6.78618210       3.83013629       2.69464036      -0.08287075       0.04188605       1.56256281       0.29517987      -0.19160937       0.19738219      -8.74917265
Si       8.62516478       5.02182099       5.89221446       0.52167756      -0.63832205       0.20631474       0.18810085      -0.85826429      -0.05915170      -8.68715068
Si      10.60672696       6.18915738       9.00549997      -0.83187700       0.63809999       0.22669070       0.32651698      -0.80661163       0.24216658      -8.62657893
Si       8.55881818       7.19327601       2.79840189      -0.23534364       0.33994191       0.12092031       0.43607251       0.71029895       0.11873788      -8.63673571
Si      10.60991529       8.38041781       5.88283412      -0.71350952       0.58914310      -0.07881926      -0.10856574      -1.08654831       0.01906598      -8.76308412
Si      12.51203217       9.38600743       9.04979577      -0.19816379      -0.93680506      -1.37770548      -0.02416956       0.49405047      -0.27021408      -8.71467814
Si      10.52101087      10.62290772       2.96508318      -0.65205140       0.32987554      -1.21315924       0.16230345      -0.26015150      -1.06466034      -8.72110372
Si      12.45134980      11.66740906       6.00111147      -1.42040645      -0.57879259      -0.18153528       0.69022562      -0.25238280       0.07507302      -8.73602729
Si      14.50278151      12.78876977       9.11937109      -2.05479361       1.45054873       1.02757803      -0.75902798      -0.29791107      -0.69241907      -7.87743733
Si      10.62160316       3.87833341       2.71488561       0.78155256      -0.22462590       0.98793049      -0.28311020       0.04836036      -0.32690971      -8.73320162
Si      12.51768912       4.99902466       6.00618557      -0.28804290      -0.56479459      -1.19759662       0.09948564      -0.00171106      -1.27392508      -8.72940344
Si      14.48807414       6.06840945       9.04732797       0.01960772       1.47968122      -0.57482188       0.79349882      -0.18799211      -0.06387364      -8.71250170
Si      12.56619081       7.21910740       2.76899106      -1.34757230      -0.53081173       1.03922257      -0.36135974      -0.20845684       0.77127967      -8.73749739
Si      14.50124869       8.35323794       5.94127017      -0.00264265       1.67130365      -0.28416416      -0.41776681       0.51248049      -0.63347113      -8.74027113
Si      16.29862990       9.40958166       9.19791410       1.05782563      -0.35071928       0.98946619       1.00110458      -0.04821323      -0.45005488      -8.68243366
Si      14.44036261      10.54718129       2.77430154      -0.70874550      -0.16246504      -1.10586833      -0.16480011       0.03117160       0.57922473      -8.68896670
Si      16.48358107      11.61369213       5.91983500       0.82997181       1.12661389      -1.56374337      -1.25272328       0.01488965      -0.96784665      -8.64837017
Si      18.16532240      12.97120357       9.14591859       0.93049422      -0.09157183       0.77187497       0.41811880      -1.47958798      -0.15216524      -8.71360172
Si      14.47066012       3.90675400       2.56108241       0.81277716       0.69700513       0.40629748      -0.57879300      -0.38814960       0.58537463      -8.72186825
Si      16.35648400       4.90763229       5.67645422       0.43522335       0.92527807      -1.84475246      -0.25896876       1.09138421       1.03503108      -8.54783483
Si      18.32334179       5.72529945       8.96306426       0.86253408      -1.20098061      -1.85789170       0.05675771       0.37379736       0.46415676      -8.00858591
Si      16.29447008       7.14335117       2.61149434       0.42767554      -0.19420507       0.64366423       0.81667013       0.39915662      -0.08722623      -8.71320444
Si      18.18155070       8.34296494       5.94543520      -0.01359731       0.47263584      -0.44153330       0.54951586       0.22932846      -0.48901744      -8.73239011
Si      20.17420959       9.54059411       8.96777274       0.11499914       0.26257666      -0.84388161      -0.38120433      -0.29147498      -0.22863060      -8.62910387
Si      18.27652095      10.59067653       2.50409919      -0.00589129      -0.37820732       0.67829480       0.12893192      -0.74842125       0.02422330      -7.96766454
Si      20.21504672      11.80238132       5.92377295      -2.30916592      -1.13826622      -0.19830175      -0.66642815      -0.66771818      -0.02470324      -8.60197913
Si      22.24655869      13.00330919       9.08769105       1.14785756       1.18660249       0.53347113       0.20123315      -0.32880635       0.62253246      -8.01011089
Si       2.78712786       1.74140314       3.47845833       0.97201794      -0.09222533      -0.43790794      -0.04418567       0.01258484       0.60166664      -8.70438599
Si       4.84026134       2.83429404       6.78936417       0.34924430      -1.00395182       1.23862730      -0.42301051       0.17146084      -0.69751779      -8.77788639
Si       2.84549130       3.85128017       0.25195125       0.35875440      -0.78944903       1.13215250      -0.44693990       0.39313316      -0.32158120      -8.67665374
Si       4.86384959       4.91827803       3.31124228       0.52198338       0.38630836       0.59488289      -0.47160204       0.40583735       0.67901617      -8.76139414
Si       6.67624219       6.11440348       6.63607046      -0.30091332       0.96190551      -0.31249977      -0.13850308      -0.70402755      -0.21251592      -8.72155292
Si       4.83546317       7.31681365       0.23595255      -0.48080099      -0.43342402       0.81277344      -0.12722252       0.04650930       0.53929395      -8.69700470
Si       6.56285299       8.36589426       3.53497578       0.74325180      -0.26031271      -0.51689648       0.74360936       0.06314840      -0.29784546      -8.65076318
Si       8.67666840       9.44136183       6.55410426       2.03041730      -0.33666109       0.41177443      -0.77734638       0.86718757       0.71499875      -8.69018688
Si       4.74821797       0.58663533       0.56857998      -0.03428914      -1.10414105      -1.25893531      -0.13642934       1.35189484       0.14133118      -8.68827710
Si       6.69458243       1.68108868       3.66964700       1.16331567      -0.75983471       0.48803963       0.58709506      -0.25474100      -0.52630949      -8.70708262
Si       8.71079182       2.67638355       6.67786357      -0.58359493       2.96248480       1.15845402      -0.04921914       1.04131862       0.50812270      -8.66598744
Si       6.88327157       3.85830332       0.37081765      -0.33776210      -0.36249213      -0.98814077      -1.24856764      -0.04921823      -0.03892427      -8.73492894
Si       8.65481829       4.96467900       3.52991245       0.46796772       0.31760728       0.45582079       0.35573130       0.12142921       0.10367748      -8.75820409
Si      10.58907367       6.08323958       6.62941940      -1.32890954       0.85994738       0.52272284      -0.38853939       0.71227418       0.37427215      -8.73481102
Si       8.61525026       7.19202771       0.42258908      -0.86775166      -0.38512698      -1.10781831      -0.23900200       0.48294819       0.53703829      -8.77745248
Si      10.62731877       8.37118161       3.56679951      -0.18089240       1.06677272      -0.99424093      -0.69214957      -0.67074395      -0.35553891      -8.67523120
Si      12.50643879       9.39582195       6.69756812       0.56267472      -0.88703393       0.60907820       0.41438226       0.47651292       0.09367867      -8.72592257
Si       8.62695042       0.51094989       0.44762365      -0.52586567       0.03184449       0.22418372       0.47340039       0.55604088      -0.37750728      -8.71295918
Si      10.66571281       1.67092295       3.40938210      -0.32822849      -0.20520056       0.80695089      -0.37136548      -0.29603359       1.04758118      -8.69643958
Si      12.39924476       2.81907966       6.82079341       0.94006644       1.54044822       1.30584539       1.51088648       0.11759695      -0.17494454      -8.71912130
Si      10.75192750       3.74311253       0.32002767       0.08732656      -0.27577235       1.13354937      -0.47417605       0.28404999       0.48361297      -8.64934399
Si      12.53576212       4.90378303       3.54165245      -0.03045742      -0.68030804      -0.69443553       0.38771146       0.93479815       0.29003274      -8.65281454
Si      14.41684232       6.20443584       6.70150116      -0.57237367      -1.75762267      -1.39985342       0.81040246      -1.60607679      -0.38484603      -8.65512502
Si      12.44513877       7.36682586       0.47564634       0.24398570      -0.51545856       0.70243868       0.27092968      -0.60700891      -0.94786785      -8.68472186
Si      14.52372839       8.28288835       3.53683570      -0.16828832      -0.81611982      -0.40270034      -0.67139538       0.43841703       0.34287064      -8.73051158
Si      16.34218413       9.47260580       6.83863939       0.22159941      -1.68280895       0.08562070       0.23870745      -0.09020002      -0.07177397      -8.75454139
53
Lattice="11.5478352 0.0 0.0 5.773917198490155 10.000722372470358 0.0 5.773916394327279 3.333571176804646 9.428767828939895" Properties=species:S:1:pos:R:3:momenta:R:3:forces:R:3:energies:R:1 spacegroup="_JSON {\"number\": 1, \"setting\": 1}" unit_cell=conventional occupancy="_JSON {\"0\": {\"Si\": 1.0}, \"1\": {\"Si\": 1.0}, \"2\": {\"Si\": 1.0}, \"3\": {\"Si\": 1.0}, \"4\": {\"Si\": 1.0}, \"5\": {\"Si\": 1.0}, \"6\": {\"Si\": 1.0}, \"7\": {\"Si\": 1.0}, \"8\": {\"Si\": 1.0}, \"9\": {\"Si\": 1.0}, \"10\": {\"Si\": 1.0}, \"11\": {\"Si\": 1.0}, \"12\": {\"Si\": 1.0}, \"13\": {\"Si\": 1.0}, \"14\": {\"Si\": 1.0}, \"15\": {\"Si\": 1.0}, \"16\": {\"Si\": 1.0}, \"17\": {\"Si\": 1.0}, \"18\": {\"Si\": 1.0}, \"19\": {\"Si\": 1.0}, \"20\": {\"Si\": 1.0}, \"21\": {\"Si\": 1.0}, \"22\": {\"Si\": 1.0}, \"23\": {\"Si\": 1.0}, \"24\": {\"Si\": 1.0}, \"25\": {\"Si\": 1.0}, \"26\": {\"Si\": 1.0}, \"27\": {\"Si\": 1.0}, \"28\": {\"Si\": 1.0}, \"29\": {\"Si\": 1.0}, \"30\": {\"Si\": 1.0}, \"31\": {\"Si\": 1.0}, \"32\": {\"Si\": 1.0}, \"33\": {\"Si\": 1.0}, \"34\": {\"Si\": 1.0}, \"35\": {\"Si\": 1.0}, \"36\": {\"Si\": 1.0}, \"37\": {\"Si\": 1.0}, \"38\": {\"Si\": 1.0}, \"39\": {\"Si\": 1.0}, \"40\": {\"Si\": 1.0}, \"41\": {\"Si\": 1.0}, \"42\": {\"Si\": 1.0}, \"43\": {\"Si\": 1.0}, \"44\": {\"Si\": 1.0}, \"45\": {\"Si\": 1.0}, \"46\": {\"Si\": 1.0}, \"47\": {\"Si\": 1.0}, \"48\": {\"Si\": 1.0}, \"49\": {\"Si\": 1.0}, \"50\": {\"Si\": 1.0}, \"51\": {\"Si\": 1.0}, \"52\": {\"Si\": 1.0}}" energy=-458.468304391929 stress="0.008812557902002612 0.0018806286916632385 0.0005498243311737891 0.0018806286916632385 0.01666661839479305 -0.0002929160963073944 0.0005498243311737891 -0.0002929160963073944 0.008348043317371193" free_energy=-458.468304391929 pbc="T T T"
Si       6.79733707       3.82377567       2.76878687       0.52584335      -0.26982221       1.03631604       0.37143378      -0.13844917      -0.71051317      -8.71236580
Si       8.64918349       4.97303556       5.90058872       0.22825060      -0.81683168       0.08650024      -0.45955153       0.71985807      -0.16720377      -8.74651159
Si      10.58078893       6.18575369       9.02447393      -0.14231566      -0.79742085       0.45256886       0.38510874      -0.92466013       0.06619743      -8.69065345
Si       8.56635906       7.23178831       2.80150267       0.55476322       0.95222161      -0.13493434       0.55783003       0.02300100      -0.40658786      -8.68830442
Si      10.58420076       8.36923632       5.87260585      -0.07015187      -0.88500042      -0.39920601       0.63768886      -0.57276789      -0.32041522      -8.75110345
Si      12.49642344       9.35945953       8.98264726      -0.46676001      -0.04585715      -0.87456041      -0.29699515       0.61356852       0.91902956      -8.73475052
Si      10.50817676      10.63237509       2.86493037       0.37349422       0.07870518      -2.44623786       0.97605793      -0.06963954      -0.43951379      -8.72538154
Si      12.41749350      11.63118685       6.00059547       0.28366509      -0.68065774       0.22161054       1.30607750       0.22910490       0.31346136      -8.69049261
Si      14.36821737      12.85228411       9.14786102      -2.96399758       1.00891328       0.14283366      -0.33975547      -0.16382896      -0.37284854      -7.99074821
Si      10.64487102       3.86468239       2.75132751       0.04292524      -0.36187866       0.41125080      -0.52959527      -0.20626421      -0.29463508      -8.74255402
Si      12.49729663       4.97941456       5.90478257      -0.62145907      -0.03101420      -2.38968911      -0.41077018       0.59039005      -0.17300436      -8.74021921
Si      14.51531064       6.12723063       9.01289890       0.83344998       0.63219965      -0.77411785       0.08685692      -0.71416173      -0.20716130      -8.70595246
Si      12.49082935       7.18599722       2.84232097      -1.35594957      -0.65291190       1.48285768       0.30061508       0.10414966      -0.28222207      -8.73446561
Si      14.48655615       8.43091331       5.90568392      -0.46612015       0.80401636      -0.96751688      -0.06033478      -1.38746660      -0.21843785      -8.70852530
Si      16.37910118       9.39161258       9.22770847       1.70054883      -0.29473979       0.07693263      -0.19434826       0.09891897      -0.73202193      -8.70620682
Si      14.40485738      10.53659776       2.74596066      -0.49160912      -0.29353739       0.07192345       0.43852737      -0.17509985       0.76119604      -8.71093524
Si      16.47928364      11.66972604       5.83094461      -0.89268865       0.98733447      -1.21025220      -0.89812371      -0.10026440       1.43439343      -8.56242671
Si      18.22220928      12.91036170       9.18034617       1.07222672      -2.09777028       0.54755884      -0.20716239      -0.97175746      -0.14238650      -8.74923477
Si      14.48998021       3.92528946       2.60454737      -0.05634988      -0.00689049       1.19464051      -0.50614213      -0.46054494       0.36772590      -8.73108791
Si      16.36814620       4.98027756       5.63957625       0.00141344       1.50406547       0.67762263      -0.28385197      -0.26074453       1.95733837      -8.61426013
Si      18.36413290       5.68116407       8.89392748       0.58226475      -0.41592813      -0.63210069      -0.38166734       0.64137413       1.03635322      -7.99235364
Si      16.34404300       7.14978334       2.64042686       1.31361283       0.46214629       0.47389241       0.24347825       0.48489936      -0.03793188      -8.74334797
Si      18.20978404       8.37344304       5.90530961       1.16550761       0.61093938      -1.02413366       0.84400090      -0.06915707      -0.23501777      -8.70190199
Si      20.16740599       9.53919362       8.92660040      -0.31028537      -0.36079602      -0.47976013      -0.13141386      -0.47601055       0.73695080      -8.64329449
Si      18.28049975      10.54741196       2.53997571       0.12564566      -1.11745486       0.68500818       0.00814638      -0.14984461       0.00355477      -7.96706378
Si      20.09207889      11.72798159       5.91656111      -1.96510281      -1.48580780      -0.03594220       0.96206526       0.17406305       0.13578986      -8.61742042
Si      22.30988498      13.04869146       9.14063391       1.18587900       0.47391666       1.41145755      -0.11631650      -0.61013635       0.34472038      -8.01853999
Si       2.82577930       1.73879505       3.48005002       0.35122364      -0.02300030       0.49305426      -0.62106370      -0.05350594       0.57838806      -8.71743899
Si       4.82989062       2.79706145       6.81550876      -0.87198219      -0.31211047      -0.33554115      -0.92823930       0.58846198      -1.08776615      -8.65210919
Si       2.84219066       3.83019805       0.29316735      -0.51530041       0.03353935       0.37948009      -0.56763058       0.58421598      -0.56156282      -8.63716653
Si       4.87415126       4.95178579       3.35899428      -0.06942948       0.81031649       1.04369396      -0.24213044       0.09283583      -0.00846134      -8.77815514
Si       6.66154928       6.13589240       6.60514000      -0.12860447      -0.11148855      -0.92290567       0.37654749      -0.58966649      -0.42501424      -8.68993181
Si       4.81188042       7.29934299       0.29190882      -0.31935128      -0.18536956       1.15512783       0.26288208       0.23979109      -0.10442867      -8.64926224
Si       6.62484035       8.35720379       3.50278305       1.49813485      -0.03035051      -0.58237431       0.27035256       0.21967571       0.20240976      -8.73044052
Si       8.73199425       9.45785984       6.59767444      -0.14688667       0.88330319       1.08803017      -1.65458277       0.53243063       0.07847883      -8.73425752
Si       4.74090067       0.58193311       0.50848839      -0.24027685       0.80743578      -1.10532554      -0.12169561       0.90601229      -0.12726218      -8.71206275
Si       6.76287102       1.63342459       3.67182941       1.15503114      -1.00020816      -0.39847570      -0.53044404      -0.02660279      -0.50656348      -8.73458444
Si       8.67826041       2.84230631       6.74914528      -0.65927551       2.76151931       1.40604450      -0.05905025      -1.31676966      -0.09105576      -8.62076740
Si       6.82144854       3.83913509       0.33218212      -1.81175617      -0.34574160      -0.28710405      -0.44875250       0.04892919       0.75643880      -8.72794989
Si       8.69212148       4.98513951       3.55539900       0.91522322       0.45049087       0.45349263       0.20420807       0.07177331      -0.14104533      -8.74597650
Si      10.51901907       6.14610346       6.66507179      -1.09287758       1.29695210       0.71873561       0.58559238      -0.22354737      -0.08406270      -8.71661697
Si       8.56941048       7.19021179       0.38793579      -0.69610920       0.27981446      -0.20671453       0.46816800       0.35458475       0.57127181      -8.69514964
Si      10.58787580       8.39947368       3.51101839      -1.32960302       0.02855708      -0.95760273      -0.70994925      -0.61034184       0.32463248      -8.71015468
Si      12.54123391       9.37230177       6.71994201       0.55262091       0.02358543       0.00288691      -0.39767550       0.61182751      -0.83048033      -8.74679914
Si       8.62736073       0.54151200       0.44042286       0.66321132       1.20096360      -0.50988417       0.94278678       0.82028582      -0.42798634      -8.68293487
Si      10.63566534       1.64770636       3.48036834      -0.76754155      -0.68448077       1.60467570      -0.18108251      -0.31792068      -0.09714584      -8.75557753
Si      12.48692184       2.88772380       6.86998789       1.97021854       0.80906994       0.34120101      -0.15672254      -0.91047269      -1.04920977      -8.73213456
Si      10.74586212       3.73603917       0.39071652      -0.17118387      -0.05322463       1.39878236       0.09669963       0.05091460      -0.15713246      -8.64458552
Si      12.54992870       4.90393166       3.52034489       0.51641121       0.60636669      -0.10489169       0.17543507       0.62710882       0.33914852      -8.72887652
Si      14.42121772       6.08064702       6.61427004       0.72651250      -2.39184219      -1.85046823       0.74543297       0.62041105      -0.08651550      -8.66315386
Si      12.47031152       7.31980965       0.47994447       0.75111883      -1.21846122      -0.36785424       0.40546820      -0.37885487      -0.29931573      -8.71064766
Si      14.48937229       8.26200049       3.52877287      -1.07349747       0.06132721       0.05157357      -0.41343893       0.60698494       0.17636410      -8.72219011
Si      16.36422841       9.40412401       6.83927461       0.60726877      -0.59710234      -0.11215927       0.19702622       1.22290908      -0.27893374      -8.70927837
53
Lattice="11.5478352 0.0 0.0 5.773917198490155 10.000722372470358 0.0 5.773916394327279 3.333571176804646 9.428767828939895" Properties=species:S:1:pos:R:3:momenta:R:3:forces:R:3:energies:R:1 spacegroup="_JSON {\"number\": 1, \"setting\": 1}" unit_cell=conventional occupancy="_JSON {\"0\": {\"Si\": 1.0}, \"1\": {\"Si\": 1.0}, \"2\": {\"Si\": 1.0}, \"3\": {\"Si\": 1.0}, \"4\": {\"Si\": 1.0}, \"5\": {\"Si\": 1.0}, \"6\": {\"Si\": 1.0}, \"7\": {\"Si\": 1.0}, \"8\": {\"Si\": 1.0}, \"9\": {\"Si\": 1.0}, \"10\": {\"Si\": 1.0}, \"11\": {\"Si\": 1.0}, \"12\": {\"Si\": 1.0}, \"13\": {\"Si\": 1.0}, \"14\": {\"Si\": 1.0}, \"15\": {\"Si\": 1.0}, \"16\": {\"Si\": 1.0}, \"17\": {\"Si\": 1.0}, \"18\": {\"Si\": 1.0}, \"19\": {\"Si\": 1.0}, \"20\": {\"Si\": 1.0}, \"21\": {\"Si\": 1.0}, \"22\": {\"Si\": 1.0}, \"23\": {\"Si\": 1.0}, \"24\": {\"Si\": 1.0}, \"25\": {\"Si\": 1.0}, \"26\": {\"Si\": 1.0}, \"27\": {\"Si\": 1.0}, \"28\": {\"Si\": 1.0}, \"29\": {\"Si\": 1.0}, \"30\": {\"Si\": 1.0}, \"31\": {\"Si\": 1.0}, \"32\": {\"Si\": 1.0}, \"33\": {\"Si\": 1.0}, \"34\": {\"Si\": 1.0}, \"35\": {\"Si\": 1.0}, \"36\": {\"Si\": 1.0}, \"37\": {\"Si\": 1.0}, \"38\": {\"Si\": 1.0}, \"39\": {\"Si\": 1.0}, \"40\": {\"Si\": 1.0}, \"41\": {\"Si\": 1.0}, \"42\": {\"Si\": 1.0}, \"43\": {\"Si\": 1.0}, \"44\": {\"Si\": 1.0}, \"45\": {\"Si\": 1.0}, \"46\": {\"Si\": 1.0}, \"47\": {\"Si\": 1.0}, \"48\": {\"Si\": 1.0}, \"49\": {\"Si\": 1.0}, \"50\": {\"Si\": 1.0}, \"51\": {\"Si\": 1.0}, \"52\": {\"Si\": 1.0}}" energy=-458.305071209233 stress="0.014249187093972849 1.8015252139535643e-05 0.0011107725980461607 1.8015252139535643e-05 0.013095938144564001 0.0026352447343818983 0.0011107725980461607 0.0026352447343818983 0.00764282671812302" free_energy=-458.305071209233 pbc="T T T"
Si       6.83297500       3.80881205       2.79405390       0.70041875      -0.21200540      -0.05050756      -0.13963349       0.20540388      -0.63399498      -8.69552186
Si       8.64340591       4.97270425       5.89581551      -0.39621610       0.90611409      -0.28740499      -0.25790600       1.10575563      -0.23184109      -8.74909514
Si      10.57905900       6.12039106       9.04719884      -0.10447674      -1.37629992       0.32765329      -0.30044279       0.32181567      -0.27199834      -8.75421337
Si       8.61167495       7.27042865       2.77589783       1.01470621       0.29808404      -0.86998342      -0.05860853      -0.85243537      -0.52456207      -8.73947552
Si      10.59577961       8.32183125       5.84277426       0.28875861      -0.53297906      -0.64685283      -0.20532585       0.92046807       0.02937019      -8.71656648
Si      12.46118369       9.37707093       8.97781964      -0.82669219       0.62402279       0.67361339      -0.09870359       0.25428529       0.87198550      -8.74947276
Si      10.55898613      10.63604972       2.73687786       1.35568674       0.08555953      -2.10647084       0.18332359       0.01801153       0.83190010      -8.72417516
Si      12.47377605      11.61526600       6.01906813       1.61184507       0.26618856       0.34893874       0.33817187       0.96861844      -0.20525472      -8.68055155
Si      14.21022973      12.90359640       9.14949559      -2.88137052       1.02519463       0.08402755       0.35403132       0.13779802       0.26980319      -8.03848196
Si      10.63284960       3.83733257       2.76783211      -0.35858033      -0.67530476       0.33416200       0.01515663      -0.19303110       0.14490828      -8.73289164
Si      12.45228022       4.99948863       5.79550342      -0.97988592       0.72939072      -1.35285007       0.02591333       0.33924122       1.47054273      -8.67601283
Si      14.54832927       6.13791315       8.96376295       0.20830855      -0.07133717      -1.09526382      -0.76461392      -0.11964869      -0.18896079      -8.67269302
Si      12.43575272       7.16305299       2.89498289      -0.70171700      -0.08356640       0.30603056       0.47613718       0.63925828      -1.14858061      -8.67562852
Si      14.46915241       8.41476114       5.85640325      -0.04788446      -1.39399247      -0.71160235       0.51579805      -1.31119069       0.55762473      -8.67480550
Si      16.44705614       9.37975998       9.20317234       0.69363544      -0.16971517      -0.99158023      -0.97148735       0.05823108      -0.65601966      -8.67804852
Si      14.40072784      10.51510109       2.76831902       0.37558221      -0.48048812       0.53605754       0.59528191       0.00693762      -0.17616043      -8.73356814
Si      16.40726376      11.71764745       5.84210311      -1.67699476       0.83417183       1.81100461      -0.20356767      -0.12473243       2.12239315      -8.53225354
Si      18.26821682      12.78398851       9.20056213       0.69875902      -2.28003132       0.13173349      -0.15801256       0.73053462      -0.49781560      -8.70901422
Si      14.47263110       3.91095477       2.67284995      -0.49297824      -0.45379261       1.24160035      -0.07003401      -0.13223551      -0.28284079      -8.74103741
Si      16.36167634       5.03353037       5.73427883      -0.11484390       0.25660577       2.48284400       0.23525260      -1.31686504       0.24877319      -8.72420715
Si      18.37717168       5.68568302       8.89838646      -0.11612859       0.60770031       0.69971952      -0.50690443       0.72381791       0.65113692      -8.00061250
Si      16.41001292       7.19130438       2.66757408       0.97919434       1.06396531       0.62785217      -0.62796124       0.26391955       0.21995620      -8.72621778
Si      18.29394286       8.39877693       5.84964535       1.79265928       0.28540016      -0.95852566      -0.12809001      -0.34866549       0.30634703      -8.70458304
Si      20.15243812       9.50340191       8.93824256      -0.12261085      -0.95928069       0.99339346       0.41447027      -0.30434547       1.00445592      -8.69372738
Si      18.28487990      10.49468423       2.57560104       0.00064367      -0.67851320       0.66261612      -0.15128489       0.68874871      -0.03666946      -7.97503584
Si      20.03656670      11.66696829       5.91654740      -0.02784646      -0.66434122      -0.04385684       1.46755055       0.86379786      -0.16435206      -8.68101214
Si      22.36480546      13.04789556       9.21516048       0.86934238      -0.52425464       1.18568885      -0.27114669      -0.69207248      -0.60868839      -8.00154720
Si       2.82426688       1.72857429       3.52207192      -0.27787283      -0.49910011       0.95340050      -0.12724285      -0.55819166      -0.03018752      -8.70544266
Si       4.75860315       2.79995193       6.76631078      -1.58284030       0.31495758      -1.29951831       0.08864339       0.17545371      -0.15582166      -8.55354114
Si       2.80090598       3.84913014       0.29549446      -0.88307454       0.54284335      -0.17178205       0.10963558       0.01816304      -0.09854371      -8.63938623
Si       4.86677476       4.99144281       3.41216528      -0.11327908       0.59498339       1.01343452       0.14137419      -0.32359928       0.08375525      -8.76389334
Si       6.67477863       6.11616187       6.54973668       0.70381660      -0.44562361      -0.95937178       0.64162839       0.17093182       0.46311670      -8.67567191
Si       4.80550591       7.29934733       0.34115506       0.05256478       0.18499347       0.62923559       0.17436699       0.23936759      -0.46635798      -8.64051134
Si       6.70788168       8.36324634       3.48447240       1.57380230       0.21853074      -0.06441866      -0.10047515       0.05662724       0.40402986      -8.77003846
Si       8.67668931       9.50775538       6.64666134      -1.56454049       0.68737683       0.63431110      -0.13332672      -0.74019877      -0.47037326      -8.75798617
Si       4.72461379       0.63763158       0.43870265      -0.36380657       0.84372529      -1.63978763      -0.05741126      -0.94310371      -0.44356931      -8.70669408
Si       6.79515200       1.58576426       3.63913800       0.00413216      -0.70256787      -0.69198268      -0.81064142       0.42092560       0.09184265      -8.74691308
Si       8.64186643       2.91607747       6.81426023      -0.71312427      -0.12419082       0.96699556       0.00161427      -2.00111623      -0.53322319      -8.61826674
Si       6.72999039       3.82479043       0.34563806      -1.31076593      -0.15754697       0.74004039       0.96529748       0.21411256       0.52850715      -8.70769318
Si       8.74324921       5.01066614       3.56922823       0.93539195       0.50020843      -0.00865549      -0.18331236      -0.01928834      -0.46498646      -8.72512972
Si      10.48900958       6.19149617       6.69605230      -0.01053199       0.22143402       0.41716456       0.76139189      -1.04131627      -0.27327495      -8.68835639
Si       8.55632723       7.21521733       0.39408522       0.25036382       0.61227131       0.31141110       0.68451207       0.11458985       0.05944058      -8.61621284
Si      10.50248498       8.38472488       3.47645589      -1.62700139      -0.41475876      -0.33755408       0.45478901       0.07877831       0.42658875      -8.73663041
Si      12.55048849       9.39114940       6.68823908      -0.21769457       0.54724260      -1.09545604      -0.47644374       0.04539252      -0.39802904      -8.78063364
Si       8.69131060       0.62555386       0.40552920       1.57669613       1.72510591      -0.63894519       0.19116622      -0.25644683       0.27296436      -8.68138292
Si      10.59300633       1.60167066       3.54640553      -0.76423830      -1.01469293       0.75911017       0.19362578      -0.09458511      -0.67896249      -8.74049743
Si      12.56585028       2.89569155       6.84650406       0.74450789      -0.42067941      -1.16368598      -1.33092946      -0.60827541      -0.78394801      -8.67739414
Si      10.74362369       3.73424534       0.44832111       0.09619210      -0.02494415       0.62664827       0.13916824       0.01047657      -0.82777198      -8.65161593
Si      12.57354322       4.94793543       3.51995334       0.19148152       0.83524962      -0.08218721      -0.56989363      -0.28462751      -0.31245154      -8.75890668
Si      14.47252678       5.99799474       6.52544531       0.84760277      -0.47582944      -1.30495837      -0.72967170       1.75604147       0.81071791      -8.63283527
Si      12.52339094       7.24336307       0.46303862       1.18677855      -1.65542965      -0.03180825       0.06121018      -0.20851980       0.65606665      -8.73410708
Si      14.42655851       8.28340859       3.53247235      -1.13579348       0.62175271      -0.02188239       0.31120029       0.09027767      -0.25323999      -8.72749636
Si      16.39951511       9.41894396       6.81640001       0.65991896       1.05819286      -0.87179468      -0.10763996       0.83670985      -0.70774693      -8.68738389
53
Lattice="11.5478352 0.0 0.0 5.773917198490155 10.000722372470358 0.0 5.773916394327279 3.333571176804646 9.428767828939895" Properties=species:S:1:pos:R:3:momenta:R:3:forces:R:3:energies:R:1 spacegroup="_JSON {\"number\": 1, \"setting\": 1}" unit_cell=conventional occupancy="_JSON {\"0\": {\"Si\": 1.0}, \"1\": {\"Si\": 1.0}, \"2\": {\"Si\": 1.0}, \"3\": {\"Si\": 1.0}, \"4\": {\"Si\": 1.0}, \"5\": {\"Si\": 1.0}, \"6\": {\"Si\": 1.0}, \"7\": {\"Si\": 1.0}, \"8\": {\"Si\": 1.0}, \"9\": {\"Si\": 1.0}, \"10\": {\"Si\": 1.0}, \"11\": {\"Si\": 1.0}, \"12\": {\"Si\": 1.0}, \"13\": {\"Si\": 1.0}, \"14\": {\"Si\": 1.0}, \"15\": {\"Si\": 1.0}, \"16\": {\"Si\": 1.0}, \"17\": {\"Si\": 1.0}, \"18\": {\"Si\": 1.0}, \"19\": {\"Si\": 1.0}, \"20\": {\"Si\": 1.0}, \"21\": {\"Si\": 1.0}, \"22\": {\"Si\": 1.0}, \"23\": {\"Si\": 1.0}, \"24\": {\"Si\": 1.0}, \"25\": {\"Si\": 1.0}, \"26\": {\"Si\": 1.0}, \"27\": {\"Si\": 1.0}, \"28\": {\"Si\": 1.0}, \"29\": {\"Si\": 1.0}, \"30\": {\"Si\": 1.0}, \"31\": {\"Si\": 1.0}, \"32\": {\"Si\": 1.0}, \"33\": {\"Si\": 1.0}, \"34\": {\"Si\": 1.0}, \"35\": {\"Si\": 1.0}, \"36\": {\"Si\": 1.0}, \"37\": {\"Si\": 1.0}, \"38\": {\"Si\": 1.0}, \"39\": {\"Si\": 1.0}, \"40\": {\"Si\": 1.0}, \"41\": {\"Si\": 1.0}, \"42\": {\"Si\": 1.0}, \"43\": {\"Si\": 1.0}, \"44\": {\"Si\": 1.0}, \"45\": {\"Si\": 1.0}, \"46\": {\"Si\": 1.0}, \"47\": {\"Si\": 1.0}, \"48\": {\"Si\": 1.0}, \"49\": {\"Si\": 1.0}, \"50\": {\"Si\": 1.0}, \"51\": {\"Si\": 1.0}, \"52\": {\"Si\": 1.0}}" energy=-458.34608410026055 stress="0.015086030570777814 -0.0017521450026498854 -1.0007306914394965e-05 -0.0017521450026498854 0.010051712212137643 0.002417117389979443 -1.0007306914394965e-05 0.002417117389979443 0.011210160449084235" free_energy=-458.34608410026055 pbc="T T T"
Si       6.85923960       3.80813304       2.77377479       0.22865428       0.21493674      -0.56582042      -0.43089497       0.32468826      -0.02094767      -8.70593822
Si       8.62242225       5.04162728       5.87571241      -0.18613718       1.26772408      -0.42161798       0.58506324      -0.62991625      -0.01808338      -8.73050560
Si      10.56031378       6.07971864       9.05046840      -0.58189421       0.07187499      -0.21408137      -0.20390760       1.24991583      -0.30806664      -8.73832955
Si       8.65246868       7.24917470       2.71393336       0.41861175      -1.08996351      -1.37356497      -0.51968913      -0.77728231      -0.05722375      -8.75452028
Si      10.59465661       8.33298657       5.81607574      -0.44479822       0.89789665      -0.25826210      -0.65427112       0.71502535       0.47161761      -8.70026665
Si      12.42206438       9.41381682       9.03373697      -0.49414964       0.67340425       1.19794658       0.56773935      -0.15195142      -0.13768937      -8.71969587
Si      10.62175080      10.63827109       2.66545800       0.76280152      -0.07317211      -0.59457476      -0.89259027      -0.25859346       0.93996651      -8.68110891
Si      12.55263643      11.66429028       6.02142993       1.03216315       1.43867472      -0.40042548      -1.09236929       0.33589740      -0.76756343      -8.68311168
Si      14.07750733      12.96164143       9.16812639      -2.12979614       1.14084254       0.64688172       0.55677140      -0.04229329       0.35495040      -8.04526356
Si      10.62001481       3.79579600       2.79005070      -0.06266144      -0.88142188       0.44249383       0.28378035      -0.08560465      -0.12335359      -8.72659709
Si      12.41059635       5.04330640       5.78734618      -0.45320169       0.78822384       0.98599718       0.64411098      -0.26396036       1.27591190      -8.68265952
Si      14.52908710       6.13972009       8.90373742      -0.90268600       0.29703334      -1.06671533      -0.62719300       0.48200926       0.31631142      -8.64367212
Si      12.41574930       7.18452180       2.86657804      -0.10054269       0.85578825      -1.30310711       0.32737137       0.46396505      -0.81389705      -8.69001353
Si      14.48539217       8.30784141       5.84537514       0.59289555      -2.25744152       0.29189715       0.23861219       0.37699422       0.55695656      -8.71454126
Si      16.44749763       9.37344838       9.13057241      -0.57918769      -0.05462609      -1.67437906      -0.60716879       0.11999404      -0.26051839      -8.65668611
Si      14.43583960      10.49672515       2.78075284       0.77231985      -0.09733791      -0.16991305      -0.13525628       0.47892169      -0.60543537      -8.74550434
Si      16.31983944      11.75424503       5.99647571      -1.50333832       0.51229253       3.52591956       0.39920397      -0.31532177       0.01052686      -8.68441992
Si      18.30279734      12.70636056       9.18296769       0.68928653      -0.55553234      -0.86623515       0.11241482       1.23581507      -0.74810360      -8.58630444
Si      14.44932044       3.88534004       2.72178171      -0.31298205      -0.47921564       0.56866162       0.25602047       0.04277375      -0.50575694      -8.71579459
Si      16.37053546       4.99642135       5.85194757       0.46446333      -1.49742745       1.69889024       0.27872486      -0.63415268      -0.96882126      -8.75622731
Si      18.35371802       5.74423581       8.95121645      -0.70841650       1.57980407       1.14335786      -0.23571117       0.54933491      -0.02000482      -8.03155750
Si      16.43170732       7.25079497       2.70894019      -0.19430164       1.07587005       0.92785183      -0.80007200      -0.23976037       0.14157106      -8.69150757
Si      18.36659696       8.39809816       5.81547059       0.70371830      -0.32998865      -0.29740231      -1.19633904      -0.41567835       0.50265822      -8.69942802
Si      20.16866980       9.44620378       9.01730157       0.83233907      -1.11283709       1.75011550       0.76250012       0.12420078      -0.02573986      -8.71913216
Si      18.27900031      10.49019993       2.60818109      -0.21140570       0.52089862       0.57376623      -0.10005819       0.74763110      -0.05822425      -8.00683751
Si      20.08678717      11.66649510       5.90651224       1.75688649       0.57457615      -0.32573827       0.73707368       0.58785244      -0.11961167      -8.77331786
Si      22.39919408      12.99639294       9.24551770       0.43544995      -1.36270398      -0.14973254      -0.30087553      -0.39387809      -1.10401364      -7.97488439
Si       2.81296345       1.68096591       3.56047171      -0.01229858      -1.25371242       0.32808692       0.43104915      -0.32293353      -0.74412724      -8.68573103
Si       4.69563658       2.81519969       6.70566683      -0.52026440       0.11418451      -0.76406571       1.26644721      -0.42627794       0.83315406      -8.52033347
Si       2.76709484       3.86835603       0.29144226      -0.27670866       0.01608388       0.17951164       0.62472049      -0.66125895       0.53925874      -8.65699725
Si       4.86778330       5.00864111       3.46993944       0.15487779       0.05761790       1.18630093       0.15789174      -0.34400285       0.07400271      -8.71261240
Si       6.72868826       6.10790335       6.52923314       1.11996283       0.24880105       0.36672069      -0.24604324       0.63016110       1.21536169      -8.66215124
Si       4.81112188       7.31656991       0.35987041       0.08416212       0.42284072       0.20267182      -0.12365526       0.04356851      -0.01320793      -8.68411828
Si       6.78369595       8.37281157       3.49329905       1.26904945       0.07811250       0.29889645      -0.29795343      -0.20693277       0.00888057      -8.76249975
Si       8.60961774       9.51036407       6.66812923      -0.66450839      -0.55422356       0.35111827       1.15953621      -0.62897955       0.15346553      -8.71561965
Si       4.70412640       0.62656286       0.34323146      -0.39318993      -1.46104242      -1.82227956       0.04274339      -1.68748417       0.22679757      -8.64438696
Si       6.77327915       1.56959747       3.61060289      -0.60539541       0.15123925      -0.35454476       0.07755690       0.68383960       0.25945507      -8.74077906
Si       8.60655183       2.85475122       6.84035548      -0.60004403      -1.67653996       0.04181746       0.12658941       0.07096702      -0.46624255      -8.72669583
Si       6.70327242       3.82569446       0.39595671       0.27784293       0.19254406       0.98011697       0.93424093       0.22401276      -0.24914670      -8.71726319
Si       8.78007642       5.03316495       3.54951772       0.38429082       0.28482018      -0.73322359      -0.51661171      -0.31172435      -0.42908531      -8.72021436
Si      10.51433403       6.16788719       6.70596559       0.87079279      -0.91817449      -0.06243199       0.34495195      -0.26543211      -0.36037452      -8.73238535
Si       8.59147433       7.24941833       0.40279572       0.96958083       0.65545971      -0.17550207       0.22076558      -0.02806870      -0.71084940      -8.58132070
Si      10.45118989       8.37514014       3.47297591      -0.11468347       0.17058173       0.13636437       1.28245321       0.54389557       0.15426220      -8.71538887
Si      12.52776147       9.41564755       6.62955013      -0.49004182       0.32424622      -0.89204692       0.13522618      -0.20235350       0.58148433      -8.75424563
Si       8.77046491       0.68987668       0.38870408       1.27127303       0.48833971       0.05290375      -0.48372811      -1.18885099       0.48740727      -8.63053078
Si      10.56555710       1.55086837       3.57245119      -0.19752982      -0.79629079       0.52448540       0.52608739       0.39639075       0.42232076      -8.69346923
Si      12.55010855       2.85778687       6.76690703      -1.29436891      -0.88686110      -1.64302641      -1.12956584      -0.06542602       0.10586489      -8.69478046
Si      10.74803419       3.73413756       0.44639575      -0.07105985       0.04668502      -0.69245892      -0.42190826       0.11530416      -0.80692801      -8.67322837
Si      12.55768221       4.97512865       3.50218608      -0.81836598       0.16670231      -0.53400917      -0.66298850      -0.43114799      -0.08571024      -8.75783865
Si      14.47553563       6.03870205       6.49462527      -0.79632881       1.79930139       0.17483267      -0.98556913       0.84139691       1.01158878      -8.70869053
Si      12.57643142       7.15514122       0.48866255       0.61196256      -1.54641890       0.93764524      -0.79827313       0.42085878       0.36836251      -8.76561074
Si      14.38592249       8.31126208       3.52048603      -0.31884389       0.30060176      -0.40523361       0.68876297      -0.45395245      -0.14122012      -8.72456231
Si      16.42693023       9.49294417       6.74500312       0.33574616       1.45692908      -1.75485926      -0.30571652      -0.37219549      -0.34219051      -8.70680451
53
Lattice="11.5478352 0.0 0.0 5.773917198490155 10.000722372470358 0.0 5.773916394327279 3.333571176804646 9.428767828939895" Properties=species:S:1:pos:R:3:momenta:R:3:forces:R:3:energies:R:1 spacegroup="_JSON {\"number\": 1, \"setting\": 1}" unit_cell=conventional occupancy="_JSON {\"0\": {\"Si\": 1.0}, \"1\": {\"Si\": 1.0}, \"2\": {\"Si\": 1.0}, \"3\": {\"Si\": 1.0}, \"4\": {\"Si\": 1.0}, \"5\": {\"Si\": 1.0}, \"6\": {\"Si\": 1.0}, \"7\": {\"Si\": 1.0}, \"8\": {\"Si\": 1.0}, \"9\": {\"Si\": 1.0}, \"10\": {\"Si\": 1.0}, \"11\": {\"Si\": 1.0}, \"12\": {\"Si\": 1.0}, \"13\": {\"Si\": 1.0}, \"14\": {\"Si\": 1.0}, \"15\": {\"Si\": 1.0}, \"16\": {\"Si\": 1.0}, \"17\": {\"Si\": 1.0}, \"18\": {\"Si\": 1.0}, \"19\": {\"Si\": 1.0}, \"20\": {\"Si\": 1.0}, \"21\": {\"Si\": 1.0}, \"22\": {\"Si\": 1.0}, \"23\": {\"Si\": 1.0}, \"24\": {\"Si\": 1.0}, \"25\": {\"Si\": 1.0}, \"26\": {\"Si\": 1.0}, \"27\": {\"Si\": 1.0}, \"28\": {\"Si\": 1.0}, \"29\": {\"Si\": 1.0}, \"30\": {\"Si\": 1.0}, \"31\": {\"Si\": 1.0}, \"32\": {\"Si\": 1.0}, \"33\": {\"Si\": 1.0}, \"34\": {\"Si\": 1.0}, \"35\": {\"Si\": 1.0}, \"36\": {\"Si\": 1.0}, \"37\": {\"Si\": 1.0}, \"38\": {\"Si\": 1.0}, \"39\": {\"Si\": 1.0}, \"40\": {\"Si\": 1.0}, \"41\": {\"Si\": 1.0}, \"42\": {\"Si\": 1.0}, \"43\": {\"Si\": 1.0}, \"44\": {\"Si\": 1.0}, \"45\": {\"Si\": 1.0}, \"46\": {\"Si\": 1.0}, \"47\": {\"Si\": 1.0}, \"48\": {\"Si\": 1.0}, \"49\": {\"Si\": 1.0}, \"50\": {\"Si\": 1.0}, \"51\": {\"Si\": 1.0}, \"52\": {\"Si\": 1.0}}" energy=-458.39702878709124 stress="0.01456272308274802 -0.002202277511224281 -0.00042647419511826853 -0.002202277511224281 0.011162894062202623 0.0008486940135363564 -0.00042647419511826853 0.0008486940135363564 0.012588784613606081" free_energy=-458.39702878709124 pbc="T T T"
Si       6.85413105       3.83101193       2.75137710      -0.41776444       0.63050865      -0.16943551      -0.41790406       0.22370047       0.43642112      -8.73595654
Si       8.64077758       5.07109139       5.85288049       0.88080966      -0.25483080      -0.43535064       0.56951198      -1.08635321       0.04778207      -8.67243077
Si      10.52931509       6.11739796       9.03407383      -0.44062116       0.98817188      -0.28994500       0.42333150      -0.17284030       0.14759235      -8.72188743
Si       8.66153079       7.17689590       2.64917447       0.10258902      -1.34696308      -0.95760260       0.14379583       0.45121924       0.47100677      -8.75568325
Si      10.55027245       8.39349988       5.82272557      -1.08838022       1.12923962       0.50090547      -0.02891945      -0.37862173       0.42973752      -8.72988251
Si      12.42436782       9.44083251       9.08201330       0.64916112       0.34333778       0.51055869       0.83439446      -0.20590643      -0.66880050      -8.66262548
Si      10.62293568      10.62234872       2.66114054      -0.69463008      -0.54044301       0.22229497      -0.80692290      -0.28544212       0.13336593      -8.68616403
Si      12.55368109      11.73438560       5.96891010      -1.05588420       0.92259269      -1.56763398      -1.32468876      -0.87170933      -0.62456576      -8.69911292
Si      13.98693951      13.01455691       9.20998396      -1.35178088       0.78292277       0.82760640       0.45212608      -0.40777128      -0.11191130      -8.04201841
Si      10.62491004       3.74894229       2.80085095       0.16100240      -0.84788875      -0.16586607      -0.05450308       0.13946384      -0.65270314      -8.71951596
Si      12.41578134       5.06706690       5.86790615       0.67770414      -0.00185636       1.67703729       0.74378785      -0.73404470      -0.30327740      -8.71627871
Si      14.46488428       6.17028677       8.87126988      -1.38249515       0.72690184       0.03666519       0.01067544      -0.06007487       1.12497034      -8.66986131
Si      12.42136817       7.23743847       2.78403983       0.28378421       0.96923443      -1.46761867       0.20905184      -0.28390999       0.63816177      -8.72891755
Si      14.51825968       8.23617765       5.86957616       0.51931137       0.06038977       0.37085028      -0.32340915       2.40146573      -0.42459749      -8.66195091
Si      16.40321273       9.37636636       9.03872216      -0.93383730       0.18072448      -1.72344573       0.07647858       0.17876893       0.14920791      -8.64783652
Si      14.46290326      10.51113858       2.75355485       0.16768760       0.61873846      -0.70758928      -0.49557624       0.37856612       0.01164579      -8.75838568
Si      16.26081369      11.76650376       6.15286875      -0.72481144      -0.08672546       1.98568906       0.48292889      -0.48520049      -1.77219977      -8.65304709
Si      18.34316041      12.71466660       9.11287878       0.82514686       0.62554625      -1.69027186       0.01948579       0.29210772      -0.30415723      -8.56082630
Si      14.44325486       3.86226279       2.73531722       0.06413217      -0.39611706       0.04508231       0.19304177       0.06504171      -0.12499595      -8.68701890
Si      16.39614610       4.92004705       5.90314072       0.35648579      -0.93756602       0.32005170      -0.32277250       1.19496166      -0.71068823      -8.70637972
Si      18.31387745       5.84207084       9.00398943      -0.68971122       2.02106918       0.78074181       0.23281392       0.04967618      -0.36276499      -8.07029758
Si      16.39782072       7.29194277       2.75955440      -0.90702484       0.38989801       0.93157739      -0.05737429      -0.65412793      -0.13456487      -8.68088730
Si      18.35683303       8.37003659       5.81869059      -0.96429282      -0.59903209       0.39739644      -0.77362060       0.12298361       0.41326448      -8.73747594
Si      20.23575847       9.39891010       9.09795279       1.54282273      -0.60253927       1.19875583       0.06023751       0.46107008      -0.53635047      -8.70842599
Si      18.26655309      10.53737874       2.63652378      -0.21090558       1.07620993       0.52093041       0.10320337      -0.02999908      -0.00364117      -8.02401047
Si      20.18721339      11.70593720       5.88850071       1.69346583       0.67078203      -0.30289232      -0.71986127      -0.40892313       0.10921388      -8.75321812
Si      22.41021700      12.91695668       9.19422636      -0.01378710      -1.52563899      -1.77528693      -0.29565893       0.15011683      -0.98074193      -8.03369429
Si       2.83191467       1.61244663       3.54717191       0.75338672      -1.16582082      -0.79440720       0.50420161       0.43210548      -0.59221453      -8.72015504
Si       4.72408004       2.80004651       6.70609510       1.63047674      -0.73262724       0.86550547       1.36184979      -0.57696602       1.15394007      -8.63300053
Si       2.77795134       3.84271991       0.32550777       0.67458884      -0.93384411       1.15062006       0.56929677      -0.43426743       0.66916000      -8.72363792
Si       4.87893766       5.00062645       3.53021228       0.19692606      -0.30857747       1.01041426      -0.13043131      -0.13043013      -0.32153750      -8.69563302
Si       6.76606894       6.14022919       6.59547889       0.18274563       0.80996476       2.07345979      -0.72785372      -0.03572074       0.88199266      -8.69733729
Si       4.80971812       7.33498951       0.37743730      -0.11764363       0.16313014       0.58908454      -0.04195547      -0.40968930       0.46604224      -8.72404121
Si       6.83510773       8.36857824       3.50245846       0.62419950      -0.22864676      -0.05483888      -0.56149770      -0.17146676      -0.39729453      -8.74070355
Si       8.62096431       9.47008649       6.69735997       0.98568115      -0.73679229       0.80724696       0.73308653       0.32283638       0.34015832      -8.72578637
Si       4.68816018       0.50547108       0.26372243      -0.16061996      -2.66931682      -1.09996608       0.25461699       0.16131410       0.67154051      -8.61034015
Si       6.75369438       1.60329852       3.59828109      -0.04986535       1.08191038      -0.23221264       0.43702625       0.48114051      -0.20346354      -8.73408405
Si       8.57856000       2.79555026       6.83666937      -0.54104745      -0.20103206       0.03399478      -0.16540070       1.55720345       0.34680483      -8.67459051
Si       6.74267238       3.84367519       0.42779327       0.97363982       0.48445456       0.09410795      -0.04630746       0.19355136      -0.78907216      -8.75163386
Si       8.77960290       5.03024877       3.50023372      -0.37926779      -0.50348238      -1.01805064      -0.43019969      -0.72871108       0.06676563      -8.74189826
Si      10.56277807       6.12669860       6.69044464       0.77012653      -0.35181563      -0.47100727      -0.44770051       0.90578620      -0.14060939      -8.74479194
Si       8.64258044       7.28204267       0.36120764       0.83488008       0.58722195      -1.42859801      -0.34430589      -0.03384892      -0.78410559      -8.58249329
Si      10.48639602       8.39967232       3.48058889       1.22149602       0.60893167       0.07263811       0.39364458      -0.04973457      -0.15003059      -8.73096600
Si      12.51299364       9.42802861       6.61110823      -0.01379526       0.22209983       0.24513100       0.36969854       0.08159319       0.81306057      -8.66027018
Si       8.81529278       0.67262168       0.40251493       0.41129090      -1.00567325       0.27587196      -0.59830073      -0.66731991      -0.27491864      -8.64224438
Si      10.57526920       1.52903539       3.62457875       0.51626998       0.01391118       1.54151347       0.32722540       0.59904517       0.74431979      -8.61993408
Si      12.45944928       2.81438967       6.69375976      -1.69311106      -0.66615731      -1.01400425       0.68608218       0.33600525       0.62944592      -8.71447354
Si      10.72027489       3.74394575       0.38710470      -1.11014425       0.38815488      -1.38506717      -0.90249813       0.35340118      -0.09636021      -8.67870949
Si      12.49674418       4.97347612       3.48086054      -1.31266467      -0.09455080      -0.10889101       0.08338319       0.08631929       0.57606569      -8.73415909
Si      14.41393490       6.13023189       6.53904590      -1.19851715       1.04663991       1.42692827       0.38670375      -1.58678818       0.63650043      -8.73274344
Si      12.57486854       7.09883680       0.53134951      -0.63511918      -0.48746747       0.23265802      -0.67504537       0.87156144      -1.39842280      -8.73350710
Si      14.39405198       8.30922191       3.49999565       0.54414255      -0.31713322      -0.26515798       0.35917012      -0.21622467       0.28787359      -8.73070031
Si      16.43175248       9.53801114       6.65104245      -0.15623127      -0.00014850      -1.62017815      -0.32814256      -1.38491280       0.46794949      -8.69540449
53
Lattice="11.5478352 0.0 0.0 5.773917198490155 10.000722372470358 0.0 5.773916394327279 3.333571176804646 9.428767828939895" Properties=species:S:1:pos:R:3:momenta:R:3:forces:R:3:energies:R:1 spacegroup="_JSON {\"number\": 1, \"setting\": 1}" unit_cell=conventional occupancy="_JSON {\"0\": {\"Si\": 1.0}, \"1\": {\"Si\": 1.0}, \"2\": {\"Si\": 1.0}, \"3\": {\"Si\": 1.0}, \"4\": {\"Si\": 1.0}, \"5\": {\"Si\": 1.0}, \"6\": {\"Si\": 1.0}, \"7\": {\"Si\": 1.0}, \"8\": {\"Si\": 1.0}, \"9\": {\"Si\": 1.0}, \"10\": {\"Si\": 1.0}, \"11\": {\"Si\": 1.0}, \"12\": {\"Si\": 1.0}, \"13\": {\"Si\": 1.0}, \"14\": {\"Si\": 1.0}, \"15\": {\"Si\": 1.0}, \"16\": {\"Si\": 1.0}, \"17\": {\"Si\": 1.0}, \"18\": {\"Si\": 1.0}, \"19\": {\"Si\": 1.0}, \"20\": {\"Si\": 1.0}, \"21\": {\"Si\": 1.0}, \"22\": {\"Si\": 1.0}, \"23\": {\"Si\": 1.0}, \"24\": {\"Si\": 1.0}, \"25\": {\"Si\": 1.0}, \"26\": {\"Si\": 1.0}, \"27\": {\"Si\": 1.0}, \"28\": {\"Si\": 1.0}, \"29\": {\"Si\": 1.0}, \"30\": {\"Si\": 1.0}, \"31\": {\"Si\": 1.0}, \"32\": {\"Si\": 1.0}, \"33\": {\"Si\": 1.0}, \"34\": {\"Si\": 1.0}, \"35\": {\"Si\": 1.0}, \"36\": {\"Si\": 1.0}, \"37\": {\"Si\": 1.0}, \"38\": {\"Si\": 1.0}, \"39\": {\"Si\": 1.0}, \"40\": {\"Si\": 1.0}, \"41\": {\"Si\": 1.0}, \"42\": {\"Si\": 1.0}, \"43\": {\"Si\": 1.0}, \"44\": {\"Si\": 1.0}, \"45\": {\"Si\": 1.0}, \"46\": {\"Si\": 1.0}, \"47\": {\"Si\": 1.0}, \"48\": {\"Si\": 1.0}, \"49\": {\"Si\": 1.0}, \"50\": {\"Si\": 1.0}, \"51\": {\"Si\": 1.0}, \"52\": {\"Si\": 1.0}}" energy=-458.5710945623831 stress="0.013594666378612515 -0.0004132757734881852 0.0006311761460601404 -0.0004132757734881852 0.015136681779583477 -0.0008886614591964061 0.0006311761460601404 -0.0008886614591964061 0.010356965820863194" free_energy=-458.5710945623831 pbc="T T T"
Si       6.81728610       3.87048986       2.75598562      -0.96479294       0.83423609       0.21972766      -0.33367848       0.06711299      -0.04186801      -8.76864090
Si       8.69577802       5.02614574       5.83591570       0.96038979      -1.20509429      -0.14006537      -0.41642543      -0.10172258       0.31814001      -8.66615287
Si      10.52980835       6.14574878       9.02496030       0.55319788      -0.14565807      -0.07880251       0.78660563      -1.12570284       0.07994675      -8.63576261
Si       8.67855775       7.13455718       2.61552846       0.62081761      -0.15127278      -0.38579993       0.44114457       0.91754969       0.25655702      -8.70388135
Si      10.50849941       8.42791054       5.85813562      -0.20891332       0.05263936       0.69255892       1.10525357      -0.88519025      -0.16748103      -8.73279838
Si      12.48456781       9.45410226       9.08254515       1.48162635       0.23468695      -0.45539579       0.19901490       0.06981515      -0.53784732      -8.68375825
Si      10.57085397      10.58717980       2.66802855      -0.95095911      -0.72028623      -0.13010600       0.50821710       0.01733969      -0.53757580      -8.69048729
Si      12.46925984      11.74477340       5.87616062      -1.65620281      -0.54807216      -1.69576386       0.61633476      -0.98203673       0.41403225      -8.71400655
Si      13.93233793      13.03778276       9.24436857      -0.75219819       0.09147724       0.41727653       0.36757185      -0.45793132      -0.37828043      -8.03705300
Si      10.62597022       3.71369594       2.76545928      -0.19085396      -0.42520413      -1.15990433      -0.32632711       0.42150557      -0.56300752      -8.69765000
Si      12.47031433       5.03932270       5.93109115       1.15705608      -0.97677227       0.56996337      -0.18833822      -0.42583341      -0.95946471      -8.74006379
Si      14.40217758       6.19342365       8.91853419      -0.85816953      -0.08103830       1.70618307       0.59200178      -0.98907086       0.90304046      -8.71587317
Si      12.44400585       7.27033688       2.74223746       0.58123152       0.17897929      -0.09485609       0.21147828      -0.70982224       0.77353392      -8.75615498
Si      14.52500804       8.31878097       5.86994261      -0.42465111       2.57489877      -0.32003376      -0.96337088       0.49520483      -0.31738635      -8.72238664
Si      16.36200894       9.39204441       8.95812281      -0.58676679       0.39772873      -1.29181789       0.27874752       0.10766112       0.38277011      -8.67522129
Si      14.45818868      10.55197409       2.72824388      -0.19759722       0.81417999      -0.08507500       0.07782336      -0.10239328       0.67520033      -8.72873140
Si      16.23473143      11.74318811       6.18457308      -0.40272606      -0.76097980      -0.71877905      -0.00945818      -0.31601345      -1.56729454      -8.65505770
Si      18.38292937      12.74736297       9.02147809       0.60314671       0.44328674      -1.62644043      -0.32787741      -0.41196452       0.35904279      -8.60514710
Si      14.45095046       3.84509101       2.74081958       0.16639323      -0.23037602       0.32457810      -0.05361568       0.17895758       0.50400086      -8.67599870
Si      16.40094385       4.92015347       5.90535327      -0.16620419       0.85013238       0.04634377      -0.29970826       0.88688462       0.37404475      -8.66159304
Si      18.28916313       5.94401505       9.03388866      -0.25022894       1.78680851       0.48131038       0.24809533      -0.26156697       0.11314585      -8.06839347
Si      16.36083878       7.28405397       2.79978188      -0.29099309      -0.71742171       0.55793691       0.76289231      -0.75763232      -0.30330099      -8.69353727
Si      18.29448397       8.34919166       5.85158360      -1.04932995      -0.14787061       0.76155425       0.64339638       0.31224508       0.04446874      -8.73382029
Si      20.30550159       9.38271542       9.14059121       0.88523326      -0.09597382       0.46377651      -0.84765161       0.16044691      -0.40067780      -8.69523898
Si      18.26137931      10.58370660       2.66428254       0.03494210       0.55923142       0.55361422       0.18730530      -0.55015784       0.06352760      -7.97884738
Si      20.24187488      11.71968559       5.87865945       0.38773089      -0.18580752      -0.03393373      -0.76410135      -0.58267028       0.26014984      -8.64410227
Si      22.39932102      12.84726591       9.07717238      -0.36647366      -1.08839070      -2.30539688      -0.16098576       0.32586477       0.53816094      -8.11511724
Si       2.88415738       1.57591269       3.49366922       1.06390078      -0.11298306      -1.01323095      -0.17125598       0.88499538       0.31109077      -8.75560443
Si       4.84287610       2.74840969       6.78151906       2.42036248      -1.00774738       1.58973727      -0.48509126       0.29784766      -0.49192733      -8.76709290
Si       2.82971196       3.78845904       0.40578165       1.18421128      -0.91581277       1.75382728       0.13126988       0.41287483       0.05847709      -8.76888377
Si       4.87972484       4.98315478       3.56606222      -0.24660536      -0.28754295       0.29880821      -0.44633632       0.14363793      -0.54117364      -8.72571554
Si       6.75524261       6.16961833       6.72045252      -0.41876006       0.14377316       2.30094954      -0.05411687      -0.68904244      -0.64080596      -8.71303150
Si       4.80852309       7.32416779       0.42595982       0.21098725      -0.59958440       1.20145710       0.49482937      -0.51011306       0.23398488      -8.73118116
Si       6.84439226       8.35170829       3.48602434      -0.27318822      -0.38209083      -0.49564012      -0.57318922      -0.04580516      -0.11067111      -8.72148258
Si       8.68050421       9.45125874       6.74957140       0.89483948       0.11405496       1.10632650      -0.76090046       0.69749384       0.03275143      -8.71942460
Si       4.69028924       0.39207018       0.23464709       0.23854978      -1.36215304       0.01061582       0.24818196       1.33551318       0.75023531      -8.49169721
Si       6.76041211       1.66999993       3.56882867       0.12504449       1.27933910      -1.05082232      -0.25469117      -0.22823836      -0.82049798      -8.73724641
Si       8.53833038       2.83969497       6.85046169      -1.04563102       1.63588463       0.39631416      -0.36526509       0.61674655       0.00170566      -8.68217582
Si       6.77825161       3.87676190       0.40713758       0.14809398       0.78025831      -0.71795037      -0.96759471       0.20205821      -0.17200774      -8.75586831
Si       8.74874086       4.97659454       3.45586591      -0.67537986      -1.45040982      -0.57449327       0.04396408      -0.37049760       0.45959677      -8.76709318
Si      10.58278855       6.14614242       6.66390669       0.01798479       1.03747126      -0.48967535      -0.36651433       0.69824934       0.06521039      -8.75425654
Si       8.66985688       7.31225441       0.26732238       0.18507275       0.58546082      -1.89771864      -0.42629136       0.04933516       0.19412144      -8.61046037
Si      10.55219758       8.42037212       3.48163033       1.06689622       0.03043840       0.05736261      -0.47399282      -0.63986059       0.18794213      -8.72359455
Si      12.52224768       9.44567348       6.65005486       0.25831507       0.49374824       1.09199252      -0.04556400       0.25260285       0.23917405      -8.65106290
Si       8.81592149       0.60566844       0.39719838      -0.32358093      -1.34342940      -0.58869919      -0.35169803       0.12857007      -0.70018035      -8.66238560
Si      10.60742899       1.55043246       3.72550425       0.56769525       0.73713908       2.07763420      -0.22201649       0.35456676      -0.15718941      -8.63634376
Si      12.41590165       2.79420566       6.66501205       0.24649364      -0.12939351      -0.13676957       1.52872549       0.22762703       0.41808904      -8.71990878
Si      10.63055588       3.77917674       0.32059586      -2.16273728       0.95522585      -0.98429316      -0.32613227       0.36020842       0.56358610      -8.68995729
Si      12.44254187       4.97560139       3.49876933      -0.57956752       0.20501927       0.76364878       0.76664444       0.20357336       0.47395419      -8.67648524
Si      14.37880621       6.12765860       6.62658441       0.05243476      -0.83451045       1.66138861       1.14311520      -0.48426762      -0.31033062      -8.73644162
Si      12.52563993       7.10620260       0.47780004      -1.03702387       0.73056377      -2.29250083       0.12726213       0.73451202      -1.48735536      -8.69711841
Si      14.42667527       8.29463543       3.49891958       0.51568799      -0.03749384       0.22521609      -0.34645034       0.56070903       0.29562738      -8.73738482
Si      16.41227856       9.48979689       6.59114297      -0.54880045      -1.60329250      -0.56613802      -0.18123608      -0.49417586       0.86101514      -8.74372138
53
Lattice="11.5478352 0.0 0.0 5.773917198490155 10.000722372470358 0.0 5.773916394327279 3.333571176804646 9.428767828939895" Properties=species:S:1:pos:R:3:momenta:R:3:forces:R:3:energies:R:1 spacegroup="_JSON {\"number\": 1, \"setting\": 1}" unit_cell=conventional occupancy="_JSON {\"0\": {\"Si\": 1.0}, \"1\": {\"Si\": 1.0}, \"2\": {\"Si\": 1.0}, \"3\": {\"Si\": 1.0}, \"4\": {\"Si\": 1.0}, \"5\": {\"Si\": 1.0}, \"6\": {\"Si\": 1.0}, \"7\": {\"Si\": 1.0}, \"8\": {\"Si\": 1.0}, \"9\": {\"Si\": 1.0}, \"10\": {\"Si\": 1.0}, \"11\": {\"Si\": 1.0}, \"12\": {\"Si\": 1.0}, \"13\": {\"Si\": 1.0}, \"14\": {\"Si\": 1.0}, \"15\": {\"Si\": 1.0}, \"16\": {\"Si\": 1.0}, \"17\": {\"Si\": 1.0}, \"18\": {\"Si\": 1.0}, \"19\": {\"Si\": 1.0}, \"20\": {\"Si\": 1.0}, \"21\": {\"Si\": 1.0}, \"22\": {\"Si\": 1.0}, \"23\": {\"Si\": 1.0}, \"24\": {\"Si\": 1.0}, \"25\": {\"Si\": 1.0}, \"26\": {\"Si\": 1.0}, \"27\": {\"Si\": 1.0}, \"28\": {\"Si\": 1.0}, \"29\": {\"Si\": 1.0}, \"30\": {\"Si\": 1.0}, \"31\": {\"Si\": 1.0}, \"32\": {\"Si\": 1.0}, \"33\": {\"Si\": 1.0}, \"34\": {\"Si\": 1.0}, \"35\": {\"Si\": 1.0}, \"36\": {\"Si\": 1.0}, \"37\": {\"Si\": 1.0}, \"38\": {\"Si\": 1.0}, \"39\": {\"Si\": 1.0}, \"40\": {\"Si\": 1.0}, \"41\": {\"Si\": 1.0}, \"42\": {\"Si\": 1.0}, \"43\": {\"Si\": 1.0}, \"44\": {\"Si\": 1.0}, \"45\": {\"Si\": 1.0}, \"46\": {\"Si\": 1.0}, \"47\": {\"Si\": 1.0}, \"48\": {\"Si\": 1.0}, \"49\": {\"Si\": 1.0}, \"50\": {\"Si\": 1.0}, \"51\": {\"Si\": 1.0}, \"52\": {\"Si\": 1.0}}" energy=-458.3370853424838 stress="0.01476186763966363 -0.0007090819293386682 -4.915367796286805e-05 -0.0007090819293386682 0.01384394890928669 -0.00045985103290612487 -4.915367796286805e-05 -0.00045985103290612487 0.0067898343973745836" free_energy=-458.3370853424838 pbc="T T T"
Si       6.75584976       3.91508030       2.75694254      -1.32904082       0.83947064      -0.32117162      -0.14077037      -0.04038036      -0.57853569      -8.76672359
Si       8.72326985       4.97502423       5.84023154       0.01515651      -0.45797602       0.25858183      -0.72119473       1.01818621       0.14831217      -8.63813247
Si      10.58331437       6.09626423       9.02245683       1.31198938      -1.62872109      -0.03601153       0.11594691      -0.69685513      -0.00072322      -8.66345792
Si       8.72416834       7.15549085       2.60351226       0.99634893       0.77656348      -0.09017568      -0.03366747       0.25711959       0.18260387      -8.64907899
Si      10.54008571       8.40433484       5.88427956       1.28254450      -0.70276948       0.28438568       0.62669782       0.06694985      -0.25963976      -8.74637673
Si      12.55792396       9.47086111       9.04521232       1.10158429       0.41397901      -0.80525547      -0.63711012       0.11021189       0.09512125      -8.70791482
Si      10.55262432      10.55193881       2.63953521       0.37375704      -0.59923107      -0.88970853       0.97614691       0.12202191      -0.27376292      -8.70961699
Si      12.42476141      11.68462530       5.80919840       0.16637564      -1.55556747      -0.82816633       1.44884160      -0.22960229       0.54943015      -8.64676346
Si      13.90753747      13.02767514       9.25109489      -0.18038695      -0.40536660      -0.15593399       0.42167568      -0.17984207      -0.36614216      -8.03634843
Si      10.60636763       3.71049611       2.69263473      -0.46680338       0.34309327      -1.39414684       0.01652180       0.58561570       0.30536800      -8.66737690
Si      12.51419278       4.98416344       5.92729274       0.42493600      -0.87399334      -0.58334781      -0.55743875       0.54907654      -0.45462511      -8.75445252
Si      14.37861000       6.14642391       9.02798285      -0.14462578      -1.69939587       2.16788862       0.20605026      -0.93887482      -0.25448356      -8.75420494
Si      12.48130543       7.25247140       2.75103316       0.79920300      -0.80223458       0.11833573       0.05172258      -0.48777135      -0.42811012      -8.74403161
Si      14.46274891       8.44045416       5.84761534      -1.90504567       1.56340032      -0.40018020      -0.78428061      -1.49387961       0.20569686      -8.67828633
Si      16.33949525       9.41627253       8.90749265      -0.33795731       0.52452267      -0.59557936       0.03032066       0.10558900       0.56208198      -8.71586653
Si      14.45823441      10.58642873       2.74641278       0.30043275       0.45082130       0.63829040       0.47264272      -0.29550852       0.14666366      -8.67385358
Si      16.21403478      11.69983752       6.10603335      -0.33069952      -0.72025906      -1.82332765       0.18999552       0.34317457       0.18703992      -8.64843278
Si      18.39724091      12.75339800       8.95721323      -0.13343043      -0.17803051      -0.72344638      -0.62917411      -0.27468704       0.75349948      -8.68817653
Si      14.45468645       3.84265852       2.78172281      -0.07672976       0.19161552       1.25877322      -0.26453520       0.39064208       0.59240312      -8.70585394
Si      16.38547592       4.98408590       5.92936302      -0.31004159       1.30633517       0.89783396       0.14375541      -0.21651341       0.49562985      -8.67275860
Si      18.28164781       6.02729716       9.07282851      -0.11317233       1.40805244       1.12988686      -0.04603982      -0.19240257       0.58964741      -7.98612650
Si      16.37385206       7.22351957       2.81949270       0.67215237      -1.41697439       0.26100791       0.33367744      -0.08336961      -0.05235508      -8.74641730
Si      18.27630915       8.34833756       5.88777043       0.48327775       0.01259912       0.53450511       1.14596273      -0.07559050      -0.28435800      -8.67049384
Si      20.31531702       9.38036848       9.15291688      -0.51032245      -0.03232597       0.07963814      -0.85631489       0.00666367      -0.11765530      -8.68984358
Si      18.26895545      10.59153658       2.69683265       0.21374859      -0.22690650       0.70768217       0.03517463      -0.42901545       0.14108760      -7.93619608
Si      20.24163192      11.69211543       5.88738347      -0.21592551      -0.75853487       0.34524374      -0.05876375      -0.16919123       0.17522511      -8.61747457
Si      22.37601645      12.80115627       9.00646530      -0.49169094      -0.71551775       0.02908864      -0.03885951       0.15044702       2.10748716      -8.06357456
Si       2.92432187       1.60157056       3.46198551       0.36476404       0.96239210      -0.06718621      -0.57082679       0.38136020       0.82015253      -8.75472991
Si       4.92789277       2.71742649       6.81636514       0.52434811      -0.04268009      -0.67937676      -1.66309615       0.82079980      -2.06998197      -8.67380158
Si       2.89289116       3.76185690       0.48787836       1.17424124      -0.04952405       1.17137971      -0.07551327       0.61903755      -0.73507467      -8.75795224
Si       4.84830801       4.97557058       3.56600500      -0.94664709       0.01639274      -0.13523833      -0.42955639       0.21689803       0.10416391      -8.75689560
Si       6.73867635       6.15237511       6.79872639      -0.09067785      -0.72186661       0.46504139       0.43762932      -0.39362944      -1.49250968      -8.68715924
Si       4.84157770       7.27712276       0.48758546       1.04558680      -1.11293702       0.93794590       0.48313898      -0.20135553      -0.58076148      -8.70386574
Si       6.81360350       8.33102232       3.46223856      -0.75241754      -0.39229534      -0.29390399       0.00593584       0.01161853       0.35335194      -8.71683205
Si       8.69307587       9.47896199       6.80100183      -0.37526530       0.76934255       0.69207579      -0.63791644       0.03172692      -0.59597680      -8.73338886
Si       4.71059902       0.37418557       0.25964266       0.49562570       0.63399897       0.81203462       0.08932195       1.16776429       0.23965254      -8.49301052
Si       6.75030046       1.71938868       3.48454348      -0.58755008       0.46204052      -2.04099235      -0.55702289      -0.79032239      -0.36215794      -8.73724663
Si       8.47588167       2.92571557       6.86469675      -1.19608648       1.20759839       0.05108656       0.17131587      -1.08771268      -0.38119383      -8.63215524
Si       6.74753746       3.92254893       0.37240855      -1.23097348       0.87789412      -0.47533979      -0.63393488      -0.14301805       0.34368166      -8.74125604
Si       8.72033906       4.90016822       3.44461702      -0.33964468      -1.19318000       0.13993558       0.30671835       0.68212069       0.44439998      -8.75174684
Si      10.57729801       6.21030669       6.64258073      -0.08748085       1.03025755      -0.27898031       0.17648399      -0.77763711       0.24455434      -8.74266937
Si       8.66786382       7.34588527       0.18798430      -0.14157458       0.71271016      -0.92447612       0.03383421       0.10863619       1.00365100      -8.61821830
Si      10.58690634       8.39666713       3.49503924       0.27181761      -0.89524672       0.47292752      -0.42134315      -0.49779380       0.26415469      -8.75329591
Si      12.52843409       9.48003386       6.70506416      -0.11424287       0.76325514       0.79495406      -0.41166205       0.04473281      -0.58204537      -8.72010329
Si       8.79075927       0.54517617       0.34760349      -0.52828400      -0.92423542      -1.06904402       0.06724414       0.28078478       0.19933965      -8.68755718
Si      10.62549938       1.59857879       3.80783368       0.10049737       1.02212047       0.64625011      -0.31293534       0.05533060      -1.78654360      -8.65764934
Si      12.47559483       2.78727782       6.66496128       1.70713523      -0.30528805      -0.05078375       0.30138161      -0.41897524      -0.29746953      -8.75102832
Si      10.52202687       3.84006125       0.29507454      -1.65274125       1.30128262       0.05187249       0.91946226       0.10413559       0.72809722      -8.70512293
Si      12.44146421       4.98949449       3.54843782       0.47523349       0.21521460       0.93486789       0.53450920      -0.21587534      -0.28927266      -8.68471021
Si      14.42090804       6.08601332       6.69519256       1.33949093      -0.43777844       0.90404820       0.32273948       0.77805015      -0.52660532      -8.68332172
Si      12.48543284       7.16707200       0.32476801      -0.35363966       1.43526422      -3.03559940       0.68467310       0.11758228       0.47450626      -8.69706500
Si      14.43834790       8.31716456       3.51749849      -0.04308612       0.87363561       0.37072094      -0.25775038       0.48228805      -0.14082270      -8.76136388
Si      16.37953979       9.40636910       6.59318286      -0.65406300      -1.26501640       0.54108966      -0.00981390       0.72123906       0.45380314      -8.75710532
53
Lattice="11.5478352 0.0 0.0 5.773917198490155 10.000722372470358 0.0 5.773916394327279 3.333571176804646 9.428767828939895" Properties=species:S:1:pos:R:3:momenta:R:3:forces:R:3:energies:R:1 spacegroup="_JSON {\"number\": 1, \"setting\": 1}" unit_cell=conventional occupancy="_JSON {\"0\": {\"Si\": 1.0}, \"1\": {\"Si\": 1.0}, \"2\": {\"Si\": 1.0}, \"3\": {\"Si\": 1.0}, \"4\": {\"Si\": 1.0}, \"5\": {\"Si\": 1.0}, \"6\": {\"Si\": 1.0}, \"7\": {\"Si\": 1.0}, \"8\": {\"Si\": 1.0}, \"9\": {\"Si\": 1.0}, \"10\": {\"Si\": 1.0}, \"11\": {\"Si\": 1.0}, \"12\": {\"Si\": 1.0}, \"13\": {\"Si\": 1.0}, \"14\": {\"Si\": 1.0}, \"15\": {\"Si\": 1.0}, \"16\": {\"Si\": 1.0}, \"17\": {\"Si\": 1.0}, \"18\": {\"Si\": 1.0}, \"19\": {\"Si\": 1.0}, \"20\": {\"Si\": 1.0}, \"21\": {\"Si\": 1.0}, \"22\": {\"Si\": 1.0}, \"23\": {\"Si\": 1.0}, \"24\": {\"Si\": 1.0}, \"25\": {\"Si\": 1.0}, \"26\": {\"Si\": 1.0}, \"27\": {\"Si\": 1.0}, \"28\": {\"Si\": 1.0}, \"29\": {\"Si\": 1.0}, \"30\": {\"Si\": 1.0}, \"31\": {\"Si\": 1.0}, \"32\": {\"Si\": 1.0}, \"33\": {\"Si\": 1.0}, \"34\": {\"Si\": 1.0}, \"35\": {\"Si\": 1.0}, \"36\": {\"Si\": 1.0}, \"37\": {\"Si\": 1.0}, \"38\": {\"Si\": 1.0}, \"39\": {\"Si\": 1.0}, \"40\": {\"Si\": 1.0}, \"41\": {\"Si\": 1.0}, \"42\": {\"Si\": 1.0}, \"43\": {\"Si\": 1.0}, \"44\": {\"Si\": 1.0}, \"45\": {\"Si\": 1.0}, \"46\": {\"Si\": 1.0}, \"47\": {\"Si\": 1.0}, \"48\": {\"Si\": 1.0}, \"49\": {\"Si\": 1.0}, \"50\": {\"Si\": 1.0}, \"51\": {\"Si\": 1.0}, \"52\": {\"Si\": 1.0}}" energy=-458.21183159103816 stress="0.01639117214773233 -0.00219065098227393 -0.0011476204637682827 -0.00219065098227393 0.007420806562990905 0.0017436646383453245 -0.0011476204637682827 0.0017436646383453245 0.009244498233377064" free_energy=-458.21183159103816 pbc="T T T"
Si       6.68574541       3.95532510       2.72006591      -1.24999009       0.64364037      -0.97665210       0.22485594      -0.24561909      -0.16211564      -8.76453195
Si       8.69847750       4.99355505       5.85595400      -0.88849532       1.09723657       0.29330163      -0.43701685       0.76051308      -0.04031743      -8.68984704
Si      10.64428233       6.00034661       9.01974049       0.80801356      -1.67140533      -0.09088217      -0.68914649       0.70747153      -0.09375665      -8.70414206
Si       8.76467408       7.19601026       2.60640393       0.36178447       0.59731882       0.21636724      -0.75974189      -0.41520778       0.25082802      -8.61553711
Si      10.61517838       8.38406726       5.89235254       1.27251751       0.08602093       0.09590096      -0.58813318       0.66208257       0.02212066      -8.71688397
Si      12.58704184       9.49390403       9.01398366       0.01054448       0.40001626      -0.29220443      -0.63560709      -0.14247428       0.45913532      -8.70754090
Si      10.59906933      10.52605949       2.59691347       1.12457481      -0.39473002      -0.44696840      -0.07733193       0.08440613       0.83435487      -8.73592121
Si      12.47895265      11.61274998       5.78089838       1.60807674      -0.82850814      -0.39543094       0.32828820       1.15201560      -0.01245403      -8.64833107
Si      13.91565263      13.00467595       9.23027614       0.51004227      -0.37300729      -0.60728103       0.50502880       0.20619256      -0.25109105      -8.01311282
Si      10.58840293       3.75110456       2.64352490      -0.12350404       1.19823344      -0.28646790       0.38731954       0.56715881       1.06210181      -8.65679792
Si      12.52065870       4.96590935       5.89136147      -0.04241605       0.21318391      -0.56279777      -0.03559812       0.70073611       0.41053214      -8.72208307
Si      14.37213655       6.03955701       9.12012668      -0.17976892      -1.94988724       1.17655341      -0.09939739       0.70245262      -0.93304940      -8.71132370
Si      12.52180361       7.20097069       2.73331308       0.69137558      -0.97407771      -0.87094330      -0.15784324       0.23951666      -0.74930017      -8.65963118
Si      14.35027535       8.45805174       5.84060561      -2.01975534      -0.91904265       0.21758845       0.61691080      -1.62967870       0.53275693      -8.65998360
Si      16.32144439       9.44932596       8.90074225      -0.35225898       0.76447335       0.36937637       0.02071400       0.21092385       0.67719703      -8.73138362
Si      14.48845187      10.60075699       2.77378811       0.72551014       0.15365410       0.19292034      -0.01432057      -0.08037897      -0.68896106      -8.66243079
Si      16.20814740      11.67938478       6.03630718       0.17396500      -0.02823649      -0.64895502       0.46179857       0.47959211       0.91238519      -8.57812907
Si      18.36606745      12.74347045       8.94609239      -1.01532683       0.01368137       0.19741820      -0.47823587       0.54390297       0.36840053      -8.71829577
Si      14.43932325       3.86797742       2.85987273      -0.50515744       0.73220775       1.46914417      -0.24230585       0.21769212      -0.38065391      -8.74788601
Si      16.38041919       5.03410610       5.98334561       0.18656138       0.46993053       0.90829549       0.40473687      -0.72684723      -0.46871321      -8.72272317
Si      18.27300876       6.09454098       9.14683637      -0.20696882       1.16777744       1.48064695      -0.01040902      -0.14843966      -0.21343728      -7.90618425
Si      16.40994522       7.15886051       2.83311096       0.49611103      -0.82231653       0.26388417      -0.47707451       0.80384124      -0.02757542      -8.73576462
Si      18.33511438       8.34423648       5.90407018       1.47210359      -0.18884329       0.09062784       0.04224683      -0.16609116      -0.27982627      -8.67105106
Si      20.26520375       9.38061877       9.15411131      -1.17523513       0.07720674      -0.03550579       0.02083598       0.13707475      -0.12603466      -8.67281467
Si      18.27971928      10.56787553       2.73836248       0.17769276      -0.58156611       0.84254617      -0.03807213      -0.06607067       0.01181236      -7.93001823
Si      20.23507577      11.65175789       5.90671986       0.07172227      -0.68332969       0.27419152       0.35542347       0.20787032      -0.28037598      -8.70075625
Si      22.35028620      12.76773502       9.07032806      -0.45328599      -0.58190616       1.88981390       0.10307542       0.05969896       0.18603617      -8.06985378
Si       2.92663207       1.65184219       3.48807833      -0.14868262       0.68187931       0.97541268      -0.08915205      -0.67124898       0.49023065      -8.72472669
Si       4.89853551       2.74268369       6.71904625      -1.39338814       0.86121040      -2.53045193      -0.70850836       0.26650182      -0.19652884      -8.71487647
Si       2.94964176       3.77931295       0.51953037       0.94914778       0.61687840       0.08167633      -0.23990905       0.24361209      -0.57580976      -8.72038598
Si       4.78805124       4.98308003       3.57534500      -1.20722135       0.22871098       0.69793834       0.13053330       0.06328034       0.90764527      -8.74317470
Si       6.75365645       6.10725050       6.77577197       0.68157983      -0.83048955      -1.04084955       0.50848871       0.27256404      -0.35313536      -8.73208940
Si       4.90563130       7.21461159       0.50848065       1.18025248      -1.20383031      -0.17694797      -0.36455016       0.06908226      -0.72800269      -8.70215113
Si       6.78442525       8.31119723       3.46417585      -0.19251059      -0.36100401       0.41550663       0.65929690       0.02248691       0.54569850      -8.72511673
Si       8.66187202       9.50745186       6.81018067      -0.55501266       0.09838381      -0.35368370       0.37759507      -0.82306477      -0.65210708      -8.73488289
Si       4.73649472       0.43894166       0.30062625       0.41361171       1.51544276       0.55882903      -0.22142556      -0.08091577      -0.49650625      -8.56563957
Si       6.70496891       1.71252369       3.37635719      -0.93792427      -0.66495730      -1.84670810       0.23651589      -0.56033115       0.57309634      -8.73163693
Si       8.42713373       2.93728057       6.85116218      -0.52365865      -0.81511714      -0.59357489       0.73278133      -1.29557904      -0.49101883      -8.61278822
Si       6.67432847       3.95559909       0.35943792      -1.26167582       0.25782570      -0.08080597       0.52636484      -0.62925916       0.11069878      -8.71599989
Si       8.71123557       4.87279707       3.46562389      -0.10641637       0.26241499       0.57809587      -0.07299310       1.14362461       0.12189535      -8.70611322
Si      10.58231341       6.21934695       6.64004135       0.30237606      -0.84158612       0.20610803       0.27634759      -1.38732322       0.33264438      -8.71631229
Si       8.66701668       7.38532708       0.18222545       0.16978760       0.72917631       0.73018580       0.26808395      -0.13373662       1.11813786      -8.64063416
Si      10.59347934       8.33813245       3.52481515       0.16243858      -1.18207297       0.54413143       0.28684602       0.10074318      -0.19308087      -8.76189190
Si      12.50546596       9.51563620       6.72029707      -0.74701439       0.48408108      -0.21237885      -0.35018314      -0.37726522      -0.58612524      -8.76500611
Si       8.76931546       0.50160747       0.31439880      -0.25032307      -0.88899012       0.04969354       0.22160167      -0.29626342       1.16736496      -8.69458836
Si      10.62126264       1.65119116       3.76221832      -0.20684647       0.93772505      -2.38879059      -0.09967284      -0.13061888      -1.80594701      -8.71349155
Si      12.55823572       2.75533173       6.64695483       1.12803181      -0.83355379      -0.64120203      -0.94998318      -0.12266575      -0.32653830      -8.72265275
Si      10.47615888       3.90655613       0.32117265      -0.10550618       1.11539852       0.81541467       0.91273535      -0.35719111       0.24019553      -8.72060945
Si      12.47868571       4.98893294       3.57629097       0.76950876      -0.25850820      -0.01812223      -0.15280517      -0.29888592      -0.85516713      -8.71868916
Si      14.48300305       6.09719752       6.72638282       0.66940496       0.87359218       0.38349580      -1.06639292       0.82062259      -0.15428353      -8.63126009
Si      12.49200896       7.23244802       0.20492242       0.51329453       0.78635395      -1.21679150       0.33905000      -0.92722322       1.74444099      -8.65907047
Si      14.43161403       8.37130510       3.52604408      -0.11938607       0.97443352      -0.11378243       0.10983664      -0.35969819      -0.40836222      -8.74720463
Si      16.34501274       9.36981135       6.62507785      -0.66230009      -0.16112236       0.41311364      -0.00150204       0.62641810      -0.54943439      -8.73787997
53
Lattice="11.5478352 0.0 0.0 5.773917198490155 10.000722372470358 0.0 5.773916394327279 3.333571176804646 9.428767828939895" Properties=species:S:1:pos:R:3:momenta:R:3:forces:R:3:energies:R:1 spacegroup="_JSON {\"number\": 1, \"setting\": 1}" unit_cell=conventional occupancy="_JSON {\"0\": {\"Si\": 1.0}, \"1\": {\"Si\": 1.0}, \"2\": {\"Si\": 1.0}, \"3\": {\"Si\": 1.0}, \"4\": {\"Si\": 1.0}, \"5\": {\"Si\": 1.0}, \"6\": {\"Si\": 1.0}, \"7\": {\"Si\": 1.0}, \"8\": {\"Si\": 1.0}, \"9\": {\"Si\": 1.0}, \"10\": {\"Si\": 1.0}, \"11\": {\"Si\": 1.0}, \"12\": {\"Si\": 1.0}, \"13\": {\"Si\": 1.0}, \"14\": {\"Si\": 1.0}, \"15\": {\"Si\": 1.0}, \"16\": {\"Si\": 1.0}, \"17\": {\"Si\": 1.0}, \"18\": {\"Si\": 1.0}, \"19\": {\"Si\": 1.0}, \"20\": {\"Si\": 1.0}, \"21\": {\"Si\": 1.0}, \"22\": {\"Si\": 1.0}, \"23\": {\"Si\": 1.0}, \"24\": {\"Si\": 1.0}, \"25\": {\"Si\": 1.0}, \"26\": {\"Si\": 1.0}, \"27\": {\"Si\": 1.0}, \"28\": {\"Si\": 1.0}, \"29\": {\"Si\": 1.0}, \"30\": {\"Si\": 1.0}, \"31\": {\"Si\": 1.0}, \"32\": {\"Si\": 1.0}, \"33\": {\"Si\": 1.0}, \"34\": {\"Si\": 1.0}, \"35\": {\"Si\": 1.0}, \"36\": {\"Si\": 1.0}, \"37\": {\"Si\": 1.0}, \"38\": {\"Si\": 1.0}, \"39\": {\"Si\": 1.0}, \"40\": {\"Si\": 1.0}, \"41\": {\"Si\": 1.0}, \"42\": {\"Si\": 1.0}, \"43\": {\"Si\": 1.0}, \"44\": {\"Si\": 1.0}, \"45\": {\"Si\": 1.0}, \"46\": {\"Si\": 1.0}, \"47\": {\"Si\": 1.0}, \"48\": {\"Si\": 1.0}, \"49\": {\"Si\": 1.0}, \"50\": {\"Si\": 1.0}, \"51\": {\"Si\": 1.0}, \"52\": {\"Si\": 1.0}}" energy=-458.22244709637897 stress="0.012347598089354431 -0.0021286306037908574 -0.0016789166700518976 -0.0021286306037908574 0.00501953726479978 0.0008999815419590777 -0.0016789166700518976 0.0008999815419590777 0.012477180228019746" free_energy=-458.22244709637897 pbc="T T T"
Si       6.63234957       3.97598456       2.67423255      -0.73902469       0.08884466      -0.55313490       0.41928157      -0.46172256       0.68605298      -8.71924640
Si       8.64498226       5.06085401       5.86899275      -0.91260442       1.06136405       0.17921054       0.49512830      -0.81872975      -0.13926131      -8.72058754
Si      10.65643780       5.95756015       9.01018746      -0.36921032       0.27682355      -0.27356300      -0.80367855       1.62100342      -0.08298858      -8.69588957
Si       8.75239612       7.20891778       2.62963629      -0.78818966      -0.09324639       0.72175389      -0.60317495      -0.37323317       0.45554204      -8.67469868
Si      10.64766328       8.40181562       5.90067725      -0.18971498       0.28418375       0.23769117      -1.19286419      -0.50899636       0.08273729      -8.70317503
Si      12.57306198       9.50559261       9.01295768      -0.32501450      -0.02161318       0.15342599       0.20160356      -0.40602399       0.08771007      -8.70234231
Si      10.63912586      10.50436496       2.61015478       0.14591985      -0.51667632       0.93200510      -1.07388124      -0.22587965       0.78341151      -8.70042400
Si      12.55614322      11.61949694       5.75305337       0.97851176       1.04854058      -0.76299741      -1.07695568       1.03041711      -0.38804303      -8.64581943
Si      13.96163169      12.99572084       9.18996065       1.23105434       0.04828912      -0.91384502       0.46225672       0.27147672      -0.18795627      -7.98678000
Si      10.59649990       3.83412219       2.66927860       0.37353327       1.92447846       1.18266448       0.15122175       0.39322981       0.73693043      -8.73022403
Si      12.52342280       4.99570361       5.88035901       0.25066232       0.73047476       0.11185921       0.36895457      -0.04398990       0.30221124      -8.71280870
Si      14.36246484       5.98084705       9.14504015      -0.10032524      -0.12479300      -0.17591261       0.24384705       1.35774826      -0.74118395      -8.64566827
Si      12.55119685       7.16546921       2.66379793       0.43122182      -0.30330372      -1.62960359      -0.15423429       0.54737003      -0.15305555      -8.66992728
Si      14.27973487       8.35945364       5.86899220      -0.54885250      -2.49468350       0.74191617       1.11192325      -0.25999385       0.05405094      -8.71553439
Si      16.30692607       9.49543359       8.94121369      -0.14049292       0.92331991       1.03429958       0.25422394      -0.06206645       0.14258202      -8.74122201
Si      14.51584963      10.60671639       2.75311796       0.14811423       0.06129176      -0.98365695      -0.67832003      -0.12757119      -0.69271514      -8.71789045
Si      16.23554136      11.69299146       6.02288956       0.84540425       0.45498630      -0.20313551       0.36267481       0.11757523      -0.39178977      -8.60523078
Si      18.30145228      12.76749491       8.96293636      -1.29710225       0.82890659       0.32382476       0.11465936       0.26839137      -0.10264323      -8.70983208
Si      14.41010925       3.90435169       2.90990713      -0.44257125       0.43222535       0.26193922       0.40070231      -0.63886518      -1.07976318      -8.73177379
Si      16.40010296       5.03658995       6.00746590       0.41412441      -0.18733212       0.00545330      -0.16166990      -0.01359483      -0.49740331      -8.76090190
Si      18.26583806       6.14828594       9.20500075       0.02115675       0.84510368       0.56526593       0.32989497      -0.29111029      -0.89996423      -7.82986127
Si      16.41457915       7.15092798       2.84288515      -0.31712592       0.52571391       0.05745143      -0.47839579       0.83797628      -0.22440938      -8.71355404
Si      18.39643859       8.32777584       5.89933699       0.57749815      -0.43091826      -0.23189982      -1.09350145      -0.12605691      -0.11762041      -8.67523672
Si      20.21713449       9.38947897       9.14314537      -0.44569994       0.23108447      -0.46966703       0.85019382       0.02792211      -0.46132377      -8.65537437
Si      18.28900512      10.53801330       2.77942011       0.21371048      -0.51405108       0.65702774       0.10493262       0.10737796      -0.24706656      -7.93768319
Si      20.25038809      11.62441890       5.90720714       0.41020105      -0.38613769      -0.26054703      -0.03907664       0.11114537      -0.29757034      -8.76283144
Si      22.33271011      12.74016952       9.15463414      -0.18572235      -0.45836134       1.00610780       0.22360863       0.10143450      -1.09946586      -7.93256718
Si       2.92004425       1.65775399       3.54858672      -0.04125856      -0.45033472       1.13207954       0.15648262      -0.67022985      -0.29545752      -8.69651271
Si       4.81838514       2.78673635       6.60339541      -1.28691475       0.62370544      -1.49309666       0.76463765      -0.49479396       1.34778130      -8.60472235
Si       2.98653430       3.81572567       0.50867254       0.39203501       0.68903604      -0.36418101      -0.49934914      -0.07939429      -0.06604433      -8.68100675
Si       4.73827708       4.99673012       3.64529937      -0.56296193       0.29663670       1.83381144       0.62950745       0.07972368       0.37662203      -8.74636804
Si       6.80063173       6.08357481       6.72643976       0.87845960       0.08256125      -0.50978558      -0.38855587       0.87757956       0.95155569      -8.71868174
Si       4.94088628       7.15915227       0.47931570      -0.04192190      -0.81443208      -0.74884466      -1.16840782       0.44602524      -0.01591552      -8.71172549
Si       6.79988869       8.29338872       3.50486951       0.71087965      -0.31098544       1.06222382       0.38553837       0.05420401       0.25795899      -8.75973322
Si       8.65663768       9.47978432       6.77334591       0.47272811      -1.09521881      -0.90664629       0.83321958      -0.61021109      -0.09860385      -8.73823904
Si       4.74475065       0.49781422       0.31078520      -0.18357486       0.47855485      -0.09002128      -0.55562211      -1.04385824      -0.20094630      -8.61607366
Si       6.68006481       1.66822939       3.31080329       0.23232110      -0.77520738      -0.52581474       1.17159974       0.39497042       1.07673431      -8.69044429
Si       8.43499053       2.86010989       6.80213478       0.93847395      -1.76948630      -1.21964672       1.18808895       0.08545969      -0.27242128      -8.66304667
Si       6.63708552       3.94421292       0.35418423      -0.05413554      -0.65527278      -0.21205183       0.95386647      -0.49232052      -0.24468487      -8.70722474
Si       8.69654008       4.92818571       3.49563246      -0.55668905       1.74450198       0.48137113      -0.47760761       0.73357441      -0.20961826      -8.69547333
Si      10.60565343       6.13559177       6.65958172       0.49804863      -2.00834314       0.44007942      -0.07584051      -0.07388833      -0.04782856      -8.73710951
Si       8.68184301       7.41364298       0.25805584       0.27689018       0.27830624       2.01490795      -0.18878385      -0.41518119       0.54849162      -8.69051840
Si      10.61794324       8.28560652       3.54059205       0.80123204      -0.75458938      -0.01610834       0.41059823       0.36649080      -0.48337435      -8.72964852
Si      12.46111251       9.52672239       6.69442450      -0.74326003       0.00127297      -0.62527713       0.42672639      -0.14682610      -0.01939906      -8.77125315
Si       8.76210535       0.44125353       0.36164822      -0.09763310      -1.36296377       1.62636043      -0.05846572      -0.10622251       0.67308545      -8.72651642
Si      10.60966412       1.69366051       3.59333865      -0.17159690       0.65730064      -3.51769250       0.15069004      -0.22855534       0.24629421      -8.75349159
Si      12.57425964       2.71693020       6.60844236      -0.53758702      -0.45256395      -0.67089128      -1.03419318       0.57274262       0.27833141      -8.70859109
Si      10.49639278       3.94734526       0.36616636       0.68487023       0.41338003       0.79815387       0.16835574      -0.46671117      -0.16006995      -8.73094393
Si      12.50437567       4.97074684       3.54638571       0.07859946      -0.26297555      -0.96552422      -0.65294940       0.36850405      -0.25758593      -8.74797285
Si      14.47463061       6.16272400       6.74374510      -0.90634804       1.30848690       0.32876168      -0.77283231      -0.42624100       0.05578559      -8.68583431
Si      12.52180245       7.23619341       0.21064281       0.43086005      -0.54077108       1.36010372      -0.40501432      -0.54904316       1.45851520      -8.71242552
Si      14.43113382       8.39961166       3.50782122       0.10974706      -0.01611709      -0.48107407       0.14777037      -0.83887722      -0.02780006      -8.71459425
Si      16.31191823       9.38035112       6.62307567      -0.56072512       0.46100412      -0.44513012       0.15118570       0.22784542      -0.39841060      -8.68721067
53
Lattice="11.5478352 0.0 0.0 5.773917198490155 10.000722372470358 0.0 5.773916394327279 3.333571176804646 9.428767828939895" Properties=species:S:1:pos:R:3:momenta:R:3:forces:R:3:energies:R:1 spacegroup="_JSON {\"number\": 1, \"setting\": 1}" unit_cell=conventional occupancy="_JSON {\"0\": {\"Si\": 1.0}, \"1\": {\"Si\": 1.0}, \"2\": {\"Si\": 1.0}, \"3\": {\"Si\": 1.0}, \"4\": {\"Si\": 1.0}, \"5\": {\"Si\": 1.0}, \"6\": {\"Si\": 1.0}, \"7\": {\"Si\": 1.0}, \"8\": {\"Si\": 1.0}, \"9\": {\"Si\": 1.0}, \"10\": {\"Si\": 1.0}, \"11\": {\"Si\": 1.0}, \"12\": {\"Si\": 1.0}, \"13\": {\"Si\": 1.0}, \"14\": {\"Si\": 1.0}, \"15\": {\"Si\": 1.0}, \"16\": {\"Si\": 1.0}, \"17\": {\"Si\": 1.0}, \"18\": {\"Si\": 1.0}, \"19\": {\"Si\": 1.0}, \"20\": {\"Si\": 1.0}, \"21\": {\"Si\": 1.0}, \"22\": {\"Si\": 1.0}, \"23\": {\"Si\": 1.0}, \"24\": {\"Si\": 1.0}, \"25\": {\"Si\": 1.0}, \"26\": {\"Si\": 1.0}, \"27\": {\"Si\": 1.0}, \"28\": {\"Si\": 1.0}, \"29\": {\"Si\": 1.0}, \"30\": {\"Si\": 1.0}, \"31\": {\"Si\": 1.0}, \"32\": {\"Si\": 1.0}, \"33\": {\"Si\": 1.0}, \"34\": {\"Si\": 1.0}, \"35\": {\"Si\": 1.0}, \"36\": {\"Si\": 1.0}, \"37\": {\"Si\": 1.0}, \"38\": {\"Si\": 1.0}, \"39\": {\"Si\": 1.0}, \"40\": {\"Si\": 1.0}, \"41\": {\"Si\": 1.0}, \"42\": {\"Si\": 1.0}, \"43\": {\"Si\": 1.0}, \"44\": {\"Si\": 1.0}, \"45\": {\"Si\": 1.0}, \"46\": {\"Si\": 1.0}, \"47\": {\"Si\": 1.0}, \"48\": {\"Si\": 1.0}, \"49\": {\"Si\": 1.0}, \"50\": {\"Si\": 1.0}, \"51\": {\"Si\": 1.0}, \"52\": {\"Si\": 1.0}}" energy=-458.47899345844036 stress="0.008986183671400385 -0.0009875832626676157 -0.0007017190910770453 -0.0009875832626676157 0.008441312432187523 -0.0003437599212135325 -0.0007017190910770453 -0.0003437599212135325 0.008586056900714092" free_energy=-458.47899345844036 pbc="T T T"
Si       6.61126837       3.96356092       2.67587608      -0.04026581      -0.51983083       0.61848945       0.51977391      -0.29772605       0.70484045      -8.66599274
Si       8.62592592       5.07253031       5.87238777       0.25034337      -0.72111242      -0.02233687       0.74079445      -1.24005564      -0.02754583      -8.70415206
Si      10.60981475       6.02397733       8.99780971      -1.29888692       1.93293721      -0.08990130      -0.36737761       0.39995240       0.32562168      -8.72960996
Si       8.69941582       7.19770141       2.68572677      -0.98666199      -0.14476959       1.39040549       0.34886643       0.36995055       0.34755982      -8.73613045
Si      10.60103124       8.38403907       5.91226672      -1.26609862      -1.14118210       0.10920343       0.05556659      -1.22691877      -0.28879281      -8.70611481
Si      12.56928247       9.48879833       9.02081565       0.20343904      -0.57852181       0.11459949       0.29848561      -0.25209242      -0.04309867      -8.69647697
Si      10.60834257      10.47095129       2.67886353      -1.13703476      -0.65910458       1.47613194      -0.38292623       0.14301650      -0.04738672      -8.71632244
Si      12.55861250      11.69881003       5.70229972      -0.88624507       1.68967713      -1.01163920      -1.08422239      -0.07700361       0.24794313      -8.68960157
Si      14.04135986      13.00415386       9.13550166       1.74011085       0.15791970      -1.15135256       0.18706754      -0.17892934      -0.14584435      -7.99577218
Si      10.61072118       3.94283224       2.74647720      -0.07877959       2.04562577       1.49256562      -0.80532026      -0.28829498      -0.30546310      -8.75364792
Si      12.55011838       5.02324374       5.88935554       0.69796664       0.18096240       0.07331547       0.09484205      -0.59241606      -0.30798911      -8.71163912
Si      14.37142990       6.01488123       9.11725452       0.52387240       1.12989585      -0.66616588       0.56947592       0.23473829       0.10492430      -8.64645023
Si      12.56921413       7.16872830       2.58945747       0.28787478       0.36530418      -0.82948142      -0.02918133       0.31452039       1.31858881      -8.71858815
Si      14.28852860       8.24832578       5.89878728       0.74796891      -1.21503055       0.19740956       0.60109185       1.75449173      -0.69512488      -8.69691670
Si      16.30982329       9.53548068       8.99259482       0.22634472       0.50499276       0.79512511       0.15727345      -0.44768688      -0.36800467      -8.71604915
Si      14.49773583      10.60139542       2.68955252      -0.75325500      -0.32775476      -1.07779138      -0.35208534      -0.37657382       0.70630668      -8.75703054
Si      16.28745714      11.71383908       5.98324555       1.00397039       0.19098727      -1.52075863      -0.13226097      -0.46556723      -1.24334203      -8.63395459
Si      18.24544947      12.80716985       8.97572876      -0.72790795       0.43705938       0.19144817       0.54359058      -0.68579825      -0.00238439      -8.66577177
Si      14.40905657       3.89689793       2.88441341       0.45635312      -0.73432525      -1.10958806       0.61464544      -0.71966692      -0.60624313      -8.71818085
Si      16.40954757       5.03618335       6.00112022      -0.12904049       0.29523658       0.03720618      -0.46629614       0.46724730       0.59676683      -8.71807703
Si      18.28207817       6.17937116       9.19827312       0.60532424       0.31356866      -0.79770661       0.35540361      -0.39818441      -0.80766225      -7.83543159
Si      16.38664103       7.20189649       2.83696238      -0.58358012       1.21190518      -0.27942748       0.16260863       0.03880233      -0.21899890      -8.70343447
Si      18.38170869       8.30505090       5.88837369      -1.10331259      -0.31474538      -0.05364518      -0.97343918       0.34312855       0.39723927      -8.69037601
Si      20.22660260       9.40083421       9.09997999       0.70401575       0.18476916      -1.14460211       0.45546795      -0.04135547      -0.33970395      -8.68721638
Si      18.30557567      10.51559539       2.80191663       0.42894314      -0.34157403       0.16389254       0.14605758       0.10736895      -0.39988956      -7.91750111
Si      20.26125226      11.60574191       5.88968569      -0.13474191      -0.35728837      -0.24021739      -0.57127099      -0.00354889       0.34579719      -8.74932762
Si      22.33048314      12.72076245       9.16134843       0.05876602      -0.26752005      -0.75334702       0.06279923       0.15710018      -1.12790073      -7.87013265
Si       2.92301726       1.61578360       3.58710784       0.11675070      -0.99297391       0.20115181       0.00992439      -0.05689850      -0.82141055      -8.73458788
Si       4.79024016       2.79768658       6.58379409       0.29405883      -0.19968387       0.78221915       1.08659568      -0.47964564       1.50755767      -8.59972109
Si       2.98592529       3.84833491       0.49006741      -0.43245997       0.57249795      -0.31684759      -0.57247913      -0.01071525       0.04950543      -8.72738855
Si       4.73215485       5.01674904       3.73542431       0.26789116       0.48439758       1.18333997       0.40441489       0.14540246      -1.24612621      -8.73777239
Si       6.82012777       6.12012849       6.74265492      -0.24437610       1.18038496       1.13548859      -0.81125111       0.36872197       0.98430044      -8.73741704
Si       4.89566930       7.13628649       0.44595220      -1.52345953      -0.04261710      -0.45048748      -0.55567166       0.51411631       0.27839807      -8.74224881
Si       6.83983013       8.28117396       3.56292977       0.55697483      -0.10195995       1.00601302      -0.61009857       0.26403589      -0.30728782      -8.77014788
Si       8.70508320       9.40973200       6.72723992       1.10508087      -1.35282618      -0.77801110      -0.21184581       0.26167968       0.19538553      -8.76644179
Si       4.71312428       0.49045975       0.30650886      -0.98911517      -0.49801414       0.06689908      -0.41941290      -0.06207725       0.35340071      -8.68924545
Si       6.73155304       1.64849971       3.32213912       1.47586026       0.05505906       0.84257069       0.19961341       0.54168125       0.63923334      -8.73545488
Si       8.52753281       2.78624386       6.73388146       2.44431148      -0.83987912      -1.28860504       0.61158073       0.90407566       0.08911320      -8.68481501
Si       6.66819435       3.89836599       0.33448183       1.12875840      -0.93503361      -0.47405810       0.51784482       0.12050260       0.00638263      -8.75881069
Si       8.64876651       5.03360579       3.51196309      -1.23595608       1.95258343       0.16299402      -0.37221218      -0.53474313      -0.12335116      -8.71545579
Si      10.62234713       6.04435363       6.67592848       0.03918473      -1.21421837       0.11023664      -0.45626326       0.94069963      -0.33360359      -8.71595473
Si       8.68267436       7.41255664       0.37278740      -0.33786379      -0.29166462       2.12153597      -0.55237401      -0.31488161      -0.38738559      -8.70765516
Si      10.66789184       8.25871585       3.52320827       0.91903653      -0.32031714      -0.56152925      -0.30300114       0.18056285      -0.15151108      -8.69912102
Si      12.44633238       9.52615884       6.66304667       0.24162258       0.03723547      -0.57014575       0.67331928       0.08882564      -0.00275056      -8.74528203
Si       8.75133107       0.37795334       0.44909490      -0.35363515      -0.83452665       1.18291507      -0.21671967       0.73437271      -1.36901032      -8.69575393
Si      10.60838418       1.71883442       3.43720597       0.13272253       0.30592167      -2.17879859       0.19042561      -0.21715668       1.28374014      -8.67455653
Si      12.52019830       2.71863874       6.58931971      -1.19974066       0.53323602       0.01160469       0.21146377       0.64009557       0.55992256      -8.72586611
Si      10.53214233       3.95504657       0.40173583       0.59244153      -0.02807821       0.57661934      -0.16958612      -0.11645788      -0.09941508      -8.73094080
Si      12.49020745       4.97945277       3.49853895      -0.36973369       0.69903690      -0.64169068       0.30157191       0.77088672       0.59115125      -8.73778059
Si      14.41236423       6.19258591       6.76531904      -1.17275565      -0.51905861       0.52236818       0.37760739      -1.74624078       0.14556604      -8.71391342
Si      12.52595570       7.20135914       0.31631564      -0.24887285      -0.54211918       2.13850941      -0.32166638       0.40411932      -0.61631491      -8.74768750
Si      14.44020246       8.36968185       3.48739987       0.17432623      -0.99846881      -0.19964130      -0.09303234      -0.35019173       0.36301671      -8.70091284
Si      16.29101030       9.40918968       6.59374564      -0.19053456       0.57300491      -0.49648210       0.33182199      -0.02926827       0.29128006      -8.65416246
53
Lattice="11.5478352 0.0 0.0 5.773917198490155 10.000722372470358 0.0 5.773916394327279 3.333571176804646 9.428767828939895" Properties=species:S:1:pos:R:3:momenta:R:3:forces:R:3:energies:R:1 spacegroup="_JSON {\"number\": 1, \"setting\": 1}" unit_cell=conventional occupancy="_JSON {\"0\": {\"Si\": 1.0}, \"1\": {\"Si\": 1.0}, \"2\": {\"Si\": 1.0}, \"3\": {\"Si\": 1.0}, \"4\": {\"Si\": 1.0}, \"5\": {\"Si\": 1.0}, \"6\": {\"Si\": 1.0}, \"7\": {\"Si\": 1.0}, \"8\": {\"Si\": 1.0}, \"9\": {\"Si\": 1.0}, \"10\": {\"Si\": 1.0}, \"11\": {\"Si\": 1.0}, \"12\": {\"Si\": 1.0}, \"13\": {\"Si\": 1.0}, \"14\": {\"Si\": 1.0}, \"15\": {\"Si\": 1.0}, \"16\": {\"Si\": 1.0}, \"17\": {\"Si\": 1.0}, \"18\": {\"Si\": 1.0}, \"19\": {\"Si\": 1.0}, \"20\": {\"Si\": 1.0}, \"21\": {\"Si\": 1.0}, \"22\": {\"Si\": 1.0}, \"23\": {\"Si\": 1.0}, \"24\": {\"Si\": 1.0}, \"25\": {\"Si\": 1.0}, \"26\": {\"Si\": 1.0}, \"27\": {\"Si\": 1.0}, \"28\": {\"Si\": 1.0}, \"29\": {\"Si\": 1.0}, \"30\": {\"Si\": 1.0}, \"31\": {\"Si\": 1.0}, \"32\": {\"Si\": 1.0}, \"33\": {\"Si\": 1.0}, \"34\": {\"Si\": 1.0}, \"35\": {\"Si\": 1.0}, \"36\": {\"Si\": 1.0}, \"37\": {\"Si\": 1.0}, \"38\": {\"Si\": 1.0}, \"39\": {\"Si\": 1.0}, \"40\": {\"Si\": 1.0}, \"41\": {\"Si\": 1.0}, \"42\": {\"Si\": 1.0}, \"43\": {\"Si\": 1.0}, \"44\": {\"Si\": 1.0}, \"45\": {\"Si\": 1.0}, \"46\": {\"Si\": 1.0}, \"47\": {\"Si\": 1.0}, \"48\": {\"Si\": 1.0}, \"49\": {\"Si\": 1.0}, \"50\": {\"Si\": 1.0}, \"51\": {\"Si\": 1.0}, \"52\": {\"Si\": 1.0}}" energy=-458.6823030275003 stress="0.009217784768947147 -0.0005229232812792348 0.00011579948520771295 -0.0005229232812792348 0.010311950918518232 -0.0005170597882859391 0.00011579948520771295 -0.0005170597882859391 0.004513023374747244" free_energy=-458.6823030275003 pbc="T T T"
Si       6.62923751       3.93018707       2.72584305       0.70011517      -0.64236639       1.06926439       0.41513345       0.13155419      -0.14005268      -8.67344064
Si       8.65470289       5.00019575       5.87517937       0.57945040      -1.71088833       0.20397727      -0.28484580       0.02532565       0.25880052      -8.70458763
Si      10.53911777       6.12136551       9.00666866      -1.16127514       1.46661127       0.40468926       0.54687529      -0.83843697       0.24888072      -8.69224192
Si       8.66994922       7.21344903       2.76431677      -0.04195388       0.85204130       1.45400281       0.71476337       0.77005089      -0.23583825      -8.72851211
Si      10.55978121       8.28128664       5.90245844       0.01481614      -2.57830392      -0.53281733       1.29223274      -0.43278341      -0.47806928      -8.70630182
Si      12.58353895       9.45469821       9.02659999       0.17634090      -0.61138497       0.12511782      -0.33584664       0.17525550       0.02550888      -8.69594674
Si      10.55184219      10.44825936       2.74417791      -0.69808238      -0.11937219       0.84689307       0.86412863       0.48875341      -0.70233211      -8.67556910
Si      12.48897703      11.77543181       5.67498304      -1.36683338       1.08579765       0.25040486       0.46670339      -0.66840023       1.32843898      -8.68964935
Si      14.13211781      12.99843713       9.07023365       1.56393330      -0.50069541      -1.32661281      -0.41691539      -0.67137976      -0.10208420      -7.99046313
Si      10.57033486       4.02982271       2.80396516      -1.42442894       1.15277853       0.59779965      -0.66377666      -0.75846055      -0.71519130      -8.71962103
Si      12.57997629       5.00982470       5.87886224       0.24192889      -0.64231934      -0.47179213      -0.66755522      -0.39829138      -0.30475824      -8.73540360
Si      14.42157329       6.06807162       9.09550937       1.36405297       0.65595389      -0.03825518       0.47101463      -0.71677510       0.59139996      -8.67278146
Si      12.58428753       7.19639677       2.60860148       0.29268796       0.63044754       1.56896820      -0.01397328       0.08022586       1.33674918      -8.74761563
Si      14.34448474       8.25057071       5.88444824       1.27143523       1.05767919      -0.61041162       0.14687705       0.88076434      -0.19834150      -8.73263499
Si      16.32220047       9.54359673       9.01882748       0.12860916      -0.18727655       0.21152753      -0.29641784      -0.42107308      -0.35163728      -8.68463768
Si      14.45640870      10.56839900       2.67324976      -0.60483703      -0.94323052       0.52105813       0.48801408      -0.42240512       0.96024713      -8.74133857
Si      16.33325229      11.70200504       5.85590095       0.77027406      -0.65947362      -3.23649801      -0.03322830      -0.53301267      -0.84959509      -8.70123294
Si      18.22625860      12.80128946       8.98881311      -0.09432010      -0.63102470       0.35534270       0.19957265      -0.57955370       0.17918378      -8.66271149
Si      14.44958373       3.84025955       2.81563738       0.93360767      -1.21124038      -1.27157478       0.01983812       0.11215802       0.33306057      -8.68826573
Si      16.38644560       5.06387737       6.03289995      -0.68557131       0.59449068       1.16633676      -0.20090650      -0.17364861       0.56829989      -8.70862950
Si      18.32111981       6.18044354       9.13620193       0.73402822      -0.26680197      -1.28946814      -0.22101970      -0.38216417       0.29185215      -7.88150850
Si      16.37002562       7.25634764       2.81379209       0.05059971       0.69829029      -0.60872816       0.54930911      -0.61303881      -0.23458655      -8.69256931
Si      18.29725416       8.30745335       5.90570223      -1.88346976       0.46579671       0.75518135      -0.06146498       0.57096958       0.55717408      -8.69962885
Si      20.26579104       9.40959705       9.03428028       0.50211533       0.16327010      -1.21326284      -0.65791911       0.01763616       0.23108402      -8.69430817
Si      18.33101940      10.50170011       2.79355495       0.46890060      -0.18576485      -0.51151981      -0.13840305       0.12168505      -0.51818844      -7.88055437
Si      20.23511373      11.59025164       5.89538373      -0.74974610      -0.14993979       0.49669332      -0.14771261       0.31730840       0.50592344      -8.68664192
Si      22.33288902      12.71320291       9.08728277      -0.01843099      -0.02105022      -1.83130887      -0.13946283       0.15927528      -0.17715276      -7.92009638
Si       2.92572998       1.56939142       3.57018982      -0.08550805      -0.63808745      -0.68720896      -0.26922725       0.48635987      -0.21376918      -8.79378964
Si       4.83567066       2.77535235       6.67182045       1.13963589      -0.50329986       2.28077829      -0.06539515       0.09836847       0.35608581      -8.73229782
Si       2.94309850       3.88098947       0.47338335      -1.14476309       0.73095931      -0.36795423      -0.35346122       0.21277073      -0.13657901      -8.78477510
Si       4.75687338       5.04564399       3.74002076       0.59197003       0.55674955      -1.01678915       0.07938762      -0.09245066      -1.30235838      -8.71557632
Si       6.78607702       6.18030873       6.82407850      -0.84162053       0.83237890       1.58997151      -0.00535326      -0.72269003      -0.49608840      -8.75820341
Si       4.81399922       7.15191787       0.43089408      -1.22250409       0.59904801      -0.18549928       0.87188953       0.35915923       0.03805373      -8.73594186
Si       6.83614455       8.28962595       3.60013674      -0.80786291       0.47957711       0.38991103      -1.04465406       0.47861315      -0.40216440      -8.75604438
Si       8.73701061       9.35749552       6.69371997      -0.12398631      -0.54244361      -0.54561272      -1.11673524       0.63285695       0.01312362      -8.76140649
Si       4.65521722       0.47705466       0.32687154      -0.98604661       0.21951521       0.74450539       0.47990843       0.85850459       0.49389924      -8.68045453
Si       6.79555202       1.66688522       3.38069608       0.61800617       0.52095190       1.20564385      -1.15068306       0.04867553      -0.07494779      -8.73249929
Si       8.65970442       2.77310251       6.67053630       2.23105135       0.18199659      -1.11926960      -0.79161838       0.29474110       0.12888579      -8.69504379
Si       6.73512035       3.86019280       0.31752757       1.18575976      -0.43885350      -0.03262818      -0.39814841       0.44327726       0.55028282      -8.76184191
Si       8.57479730       5.09865508       3.52126283      -1.47461681       0.30333576       0.30041292       0.06226433      -1.39152891       0.29326558      -8.72306680
Si      10.60903531       6.01786821       6.66990228      -0.46070714       0.13146735      -0.28375657      -0.13259862       0.65857293      -0.11543011      -8.74310835
Si       8.64553929       7.38766256       0.45888331      -1.00203405      -0.60856682       1.01280226      -0.26193641      -0.12227774      -0.97483289      -8.68782038
Si      10.69559676       8.24660667       3.49660282       0.01263066      -0.16669951      -0.28827024      -0.79126083       0.08576019       0.48926381      -8.69439511
Si      12.47707216       9.52970060       6.63144671       0.75706056       0.05341782      -0.64922045       0.00913767      -0.08269886      -0.05501256      -8.67934579
Si       8.72680434       0.36761080       0.44140122      -0.51691513       0.50663171      -1.57028894       0.03404342       1.00799748      -1.73992090      -8.65181789
Si      10.61969348       1.72759545       3.37363903       0.23320450       0.04972101      -0.29865538      -0.06051599      -0.13592090       1.07636443      -8.67844558
Si      12.47751265       2.76427987       6.60993552      -0.30066044       1.01801156       0.70632299       0.71672491      -0.10230364       0.29540530      -8.75107047
Si      10.55876206       3.95234708       0.42852423       0.49254342      -0.03063695       0.44003306       0.09585154       0.05995458      -0.11685444      -8.72677747
Si      12.49684772       5.03802695       3.49032487       0.77461557       1.28956873       0.31025766       0.89192946      -0.18172307       0.53179576      -8.72671683
Si      14.37545242       6.11070951       6.79200431      -0.10634805      -2.17300732       0.34420220       0.87975791      -0.13464349      -0.41293909      -8.76249152
Si      12.50910541       7.19133154       0.37904700      -0.22781818       0.16206286      -0.02498076       0.32096380       0.42714290      -1.68351543      -8.71185288
Si      14.44288403       8.31584809       3.49342760      -0.08903928      -0.82904145       0.45746581      -0.14445758       0.52615072       0.47433309      -8.72472806
Si      16.29415346       9.43770693       6.58421517       0.29000605       0.53321910       0.20282007       0.24917224       0.04579285       0.57487799      -8.70589879
53
Lattice="11.5478352 0.0 0.0 5.773917198490155 10.000722372470358 0.0 5.773916394327279 3.333571176804646 9.428767828939895" Properties=species:S:1:pos:R:3:momenta:R:3:forces:R:3:energies:R:1 spacegroup="_JSON {\"number\": 1, \"setting\": 1}" unit_cell=conventional occupancy="_JSON {\"0\": {\"Si\": 1.0}, \"1\": {\"Si\": 1.0}, \"2\": {\"Si\": 1.0}, \"3\": {\"Si\": 1.0}, \"4\": {\"Si\": 1.0}, \"5\": {\"Si\": 1.0}, \"6\": {\"Si\": 1.0}, \"7\": {\"Si\": 1.0}, \"8\": {\"Si\": 1.0}, \"9\": {\"Si\": 1.0}, \"10\": {\"Si\": 1.0}, \"11\": {\"Si\": 1.0}, \"12\": {\"Si\": 1.0}, \"13\": {\"Si\": 1.0}, \"14\": {\"Si\": 1.0}, \"15\": {\"Si\": 1.0}, \"16\": {\"Si\": 1.0}, \"17\": {\"Si\": 1.0}, \"18\": {\"Si\": 1.0}, \"19\": {\"Si\": 1.0}, \"20\": {\"Si\": 1.0}, \"21\": {\"Si\": 1.0}, \"22\": {\"Si\": 1.0}, \"23\": {\"Si\": 1.0}, \"24\": {\"Si\": 1.0}, \"25\": {\"Si\": 1.0}, \"26\": {\"Si\": 1.0}, \"27\": {\"Si\": 1.0}, \"28\": {\"Si\": 1.0}, \"29\": {\"Si\": 1.0}, \"30\": {\"Si\": 1.0}, \"31\": {\"Si\": 1.0}, \"32\": {\"Si\": 1.0}, \"33\": {\"Si\": 1.0}, \"34\": {\"Si\": 1.0}, \"35\": {\"Si\": 1.0}, \"36\": {\"Si\": 1.0}, \"37\": {\"Si\": 1.0}, \"38\": {\"Si\": 1.0}, \"39\": {\"Si\": 1.0}, \"40\": {\"Si\": 1.0}, \"41\": {\"Si\": 1.0}, \"42\": {\"Si\": 1.0}, \"43\": {\"Si\": 1.0}, \"44\": {\"Si\": 1.0}, \"45\": {\"Si\": 1.0}, \"46\": {\"Si\": 1.0}, \"47\": {\"Si\": 1.0}, \"48\": {\"Si\": 1.0}, \"49\": {\"Si\": 1.0}, \"50\": {\"Si\": 1.0}, \"51\": {\"Si\": 1.0}, \"52\": {\"Si\": 1.0}}" energy=-458.4778687249165 stress="0.010636624408747936 -0.0018373252359884106 -0.0008656365272583921 -0.0018373252359884106 0.007071820878344227 0.001288115692395559 -0.0008656365272583921 0.001288115692395559 0.003991709831454168" free_energy=-458.4778687249165 pbc="T T T"
Si       6.67503726       3.90530173       2.76583912       0.88065289      -0.27399182       0.28894607      -0.22758643       0.25575124      -0.79534100      -8.72212534
Si       8.66590911       4.93074935       5.89431035      -0.25815231      -0.61584133       0.48060166      -0.71542512       1.27225243       0.10042757      -8.65458874
Si      10.50664702       6.16161424       9.03373262      -0.00735033       0.07404200       0.56537396       0.82959237      -0.82702293       0.00782495      -8.67086207
Si       8.68536843       7.27730546       2.82647160       0.34545153       1.30986851       0.83954004      -0.38573544      -0.26854750      -0.55184081      -8.72817854
Si      10.60218203       8.15671298       5.86040516       1.35497778      -1.62596762      -0.95787583       0.37065671       1.66783076      -0.03480399      -8.69271408
Si      12.57433485       9.43188346       9.03245887      -0.59749539      -0.24142528       0.05314591      -0.61612195       0.24588242      -0.14921930      -8.69769902
Si      10.55379907      10.46063406       2.76104900       0.76478445       0.57199372      -0.13722773       0.84088126       0.41958340      -0.44857318      -8.68700649
Si      12.45013878      11.80207494       5.73888248       0.07807075      -0.12228377       2.06231517       1.23024328      -0.87991157       0.86944226      -8.66436799
Si      14.19421332      12.94491092       8.99924644       0.80535339      -1.51768982      -1.31095508      -0.41412511      -0.58785756       0.17137776      -7.97049411
Si      10.48815392       4.06153890       2.81093911      -1.35094321       0.08450524      -0.24033277       0.72271146      -0.66143346      -0.36703319      -8.66672281
Si      12.56495087       4.96947684       5.84963463      -0.77359276      -0.72343017      -0.47082607      -0.52211942       0.26287805       0.36276258      -8.75757505
Si      14.50234800       6.07406595       9.11229921       1.51039431      -0.34392941       0.54232396      -0.32373492      -0.38980657       0.07224423      -8.73312259
Si      12.59538362       7.23041206       2.71431819       0.04596800       0.62071829       1.91934950      -0.33276381      -0.10853219      -0.73904786      -8.75030528
Si      14.41212101       8.31912197       5.85670214       1.23250739       1.21044315      -0.23158089      -0.15037242      -0.48201463       0.65391322      -8.69850761
Si      16.31409713       9.52167804       9.01948178      -0.46146825      -0.54535467      -0.10888420      -0.39135730      -0.01706242      -0.04398978      -8.68215404
Si      14.44635622      10.50824425       2.71901342       0.19796504      -1.17761930       0.85632956       0.40885255       0.25452932      -0.45410899      -8.70228943
Si      16.37679969      11.65445253       5.67665641       0.95049526      -0.98769055      -3.04908771       0.20185491       0.10288468       1.29913033      -8.69096004
Si      18.22178224      12.75661394       9.01242234      -0.19682793      -0.81998620       0.48217281      -0.26829481       0.41066968      -0.05896785      -8.70218907
Si      14.49318092       3.79181151       2.76823874       0.63857577      -0.46000253      -0.47798120      -0.34114736       0.80706457       0.56794156      -8.66675377
Si      16.35219708       5.07740718       6.09842105      -0.41550131      -0.26390523       0.96726917       0.58785258      -0.89967738      -0.84832802      -8.66893680
Si      18.34430492       6.15177492       9.09742776       0.05389693      -0.82993364       0.06271292      -0.60354594      -0.39990673       1.24960345      -7.87118194
Si      16.38858519       7.26846995       2.77385661       0.50042018      -0.20570317      -0.88183792      -0.04618517      -0.50963182      -0.11084967      -8.72715550
Si      18.20835569       8.34726665       5.96013420      -1.29923783       0.87698277       1.15525757       0.74897988      -0.10448826      -0.08059378      -8.70016827
Si      20.26205439       9.42096694       8.98467940      -0.63768336       0.32923794      -0.61938729      -0.64429542       0.24767653       0.46026343      -8.71120443
Si      18.34482299      10.49863152       2.74583158      -0.03671404       0.11841115      -1.31864600      -0.50386671       0.31721967      -0.56491271      -7.87609009
Si      20.19864170      11.59819368       5.93541541      -0.49266356       0.49314988       0.89806414       0.43632335       0.47461346      -0.00318938      -8.62807743
Si      22.32577239      12.71838033       9.00655568      -0.25738768       0.23647591      -0.80101877      -0.15959578       0.23881274       1.54579260      -7.91276254
Si       2.91054554       1.55730792       3.53801708      -0.45991394       0.17930756      -0.34094771      -0.14121968       0.50126427       0.56137130      -8.79541543
Si       4.87736299       2.75936076       6.78117765       0.21686944      -0.01628932       1.41782163      -0.98029304       0.44989899      -1.47296247      -8.71981422
Si       2.87597569       3.92678027       0.44767479      -1.26656343       0.96448997      -0.61081201       0.22743405       0.01511488      -0.13041034      -8.78695855
Si       4.78869280       5.06606662       3.65396485       0.58660173       0.12389457      -1.91108424      -0.05957188      -0.47613914       0.06392790      -8.67911331
Si       6.74798689       6.19184079       6.86875202      -0.52992081      -0.40463217      -0.14986688       0.32635176      -0.79177695      -1.50304059      -8.69214551
Si       4.79101703       7.19369895       0.41801346       0.37702416       0.90445380      -0.39669470       1.00956759       0.00604857      -0.31610962      -8.72076896
Si       6.76103034       8.33179479       3.60922107      -1.83930034       1.07577825       0.05183365      -0.21349475       0.28239914      -0.03584321      -8.76290761
Si       8.69664711       9.34745458       6.66019159      -1.16046824       0.01902554      -0.81158656      -0.15329996       0.11183419      -0.28224513      -8.75242254
Si       4.63061396       0.52165064       0.38089839       0.12775947       1.39579264       1.19019673       0.80060197       0.53188582       0.00168401      -8.68189416
Si       6.78211832       1.68764918       3.43793643      -1.04226683       0.11378681       0.97487286      -0.82538574      -0.55888401      -0.09043428      -8.73594469
Si       8.73906019       2.77858596       6.61841516       0.75967164      -0.26466428      -0.84305652      -0.95589510      -0.82454053       0.22194761      -8.67198120
Si       6.77671882       3.85245037       0.33903737       0.37477468       0.07600601       0.84157198      -0.51348597       0.18757803       0.51170379      -8.72940818
Si       8.50795953       5.07182505       3.54998180      -0.90490461      -0.99858351       0.79866433       0.72979656      -0.15106258       0.31807599      -8.75317156
Si      10.58571703       6.03523176       6.65719899      -0.33543050       0.21314685      -0.06846201       0.23114508      -0.55531333       0.39584711      -8.74313661
Si       8.59046185       7.35351498       0.47501904      -0.95130840      -0.65063320      -0.32569161       0.31161934       0.04317231      -0.70513637      -8.68483421
Si      10.66948564       8.24389183       3.50363476      -0.85885136       0.13580093       0.55810292      -0.21599331       0.36971768       0.49601817      -8.74323465
Si      12.51060375       9.52653275       6.59845561       0.43137292      -0.23098210      -0.53077497      -0.34994150      -0.30892605       0.24919201      -8.64086897
Si       8.70569566       0.42961886       0.31737261      -0.20726901       1.70745725      -2.61873899       0.34463568       0.40787763       0.34086978      -8.67621128
Si      10.62728090       1.72525016       3.38510282       0.02681417      -0.13475507       0.36313693      -0.17996519      -0.11524342      -0.38938367      -8.72302216
Si      12.48209963       2.80034161       6.65108128       0.29865651       0.13659038       0.72431702       0.04366482      -0.95648925      -0.24159091      -8.74260494
Si      10.59183204       3.95253602       0.44551514       0.81391497       0.01469346       0.18199608       0.27241843      -0.02812946      -0.21773218      -8.73741358
Si      12.56100187       5.08067821       3.51914933       1.42133494       0.05631518       0.61726659      -0.06460317      -1.26751794      -0.13717397      -8.70272515
Si      14.39682429       6.01724295       6.79234011       0.69579001      -0.98830082      -0.30206828       0.02047785       1.46365613      -0.31976446      -8.70276331
Si      12.51289307       7.21056867       0.33245714       0.37529581       0.42844838      -1.29447086       0.33180612      -0.12974211       0.05582678      -8.73484215
Si      14.44014735       8.29759781       3.53269853       0.15670136       0.15415937       0.94662388       0.50778726       0.61341075       0.10964102      -8.77103421
Si      16.31342768       9.47116442       6.61613571       0.31911996       0.81861943       0.97008976      -0.23583246       0.33815047       0.40579730      -8.75903854
53
Lattice="11.5478352 0.0 0.0 5.773917198490155 10.000722372470358 0.0 5.773916394327279 3.333571176804646 9.428767828939895" Properties=species:S:1:pos:R:3:momenta:R:3:forces:R:3:energies:R:1 spacegroup="_JSON {\"number\": 1, \"setting\": 1}" unit_cell=conventional occupancy="_JSON {\"0\": {\"Si\": 1.0}, \"1\": {\"Si\": 1.0}, \"2\": {\"Si\": 1.0}, \"3\": {\"Si\": 1.0}, \"4\": {\"Si\": 1.0}, \"5\": {\"Si\": 1.0}, \"6\": {\"Si\": 1.0}, \"7\": {\"Si\": 1.0}, \"8\": {\"Si\": 1.0}, \"9\": {\"Si\": 1.0}, \"10\": {\"Si\": 1.0}, \"11\": {\"Si\": 1.0}, \"12\": {\"Si\": 1.0}, \"13\": {\"Si\": 1.0}, \"14\": {\"Si\": 1.0}, \"15\": {\"Si\": 1.0}, \"16\": {\"Si\": 1.0}, \"17\": {\"Si\": 1.0}, \"18\": {\"Si\": 1.0}, \"19\": {\"Si\": 1.0}, \"20\": {\"Si\": 1.0}, \"21\": {\"Si\": 1.0}, \"22\": {\"Si\": 1.0}, \"23\": {\"Si\": 1.0}, \"24\": {\"Si\": 1.0}, \"25\": {\"Si\": 1.0}, \"26\": {\"Si\": 1.0}, \"27\": {\"Si\": 1.0}, \"28\": {\"Si\": 1.0}, \"29\": {\"Si\": 1.0}, \"30\": {\"Si\": 1.0}, \"31\": {\"Si\": 1.0}, \"32\": {\"Si\": 1.0}, \"33\": {\"Si\": 1.0}, \"34\": {\"Si\": 1.0}, \"35\": {\"Si\": 1.0}, \"36\": {\"Si\": 1.0}, \"37\": {\"Si\": 1.0}, \"38\": {\"Si\": 1.0}, \"39\": {\"Si\": 1.0}, \"40\": {\"Si\": 1.0}, \"41\": {\"Si\": 1.0}, \"42\": {\"Si\": 1.0}, \"43\": {\"Si\": 1.0}, \"44\": {\"Si\": 1.0}, \"45\": {\"Si\": 1.0}, \"46\": {\"Si\": 1.0}, \"47\": {\"Si\": 1.0}, \"48\": {\"Si\": 1.0}, \"49\": {\"Si\": 1.0}, \"50\": {\"Si\": 1.0}, \"51\": {\"Si\": 1.0}, \"52\": {\"Si\": 1.0}}" energy=-458.3406347078709 stress="0.011687344434674786 -0.0022615099799208663 -0.0010112802743898475 -0.0022615099799208663 0.004729371942819224 0.0017414164643419715 -0.0010112802743898475 0.0017414164643419715 0.006546938999612445" free_energy=-458.3406347078709 pbc="T T T"
Si       6.70507199       3.89653666       2.75161506       0.19146163      -0.15851171      -0.71234548      -0.50589553      -0.11665583      -0.32516446      -8.77275701
Si       8.62703491       4.94631298       5.92293940      -1.12417025       1.03755556       0.62168876      -0.31736054       0.62455676       0.12881153      -8.70616555
Si      10.53290924       6.14400398       9.06211850       0.87460116      -0.51040054       0.48980581       0.31452160       0.08426322      -0.10482452      -8.70287782
Si       8.67282049       7.32344209       2.84668372      -1.02426410       0.29980541      -0.08451935      -1.15876847      -0.85925917      -0.60777080      -8.66252051
Si      10.67346525       8.14563596       5.81966883       1.11555346       1.17664458      -0.36067793      -0.62024840       1.60098167       0.87387535      -8.67404899
Si      12.52278905       9.42574095       9.02690750      -1.24578560      -0.06976945      -0.30455916      -0.13553884      -0.05500088      -0.30485557      -8.71319775
Si      10.61163853      10.50329821       2.74708701       1.10743551       0.96139789      -0.19521410      -0.45597022       0.05184633       0.32004288      -8.73740106
Si      12.49509520      11.76411438       5.86396072       1.39820858      -1.25388622       2.38461166       0.30339200      -0.61174086      -0.39256991      -8.72004543
Si      14.22800935      12.85095062       8.94316211       0.63784475      -1.88428981      -0.72681503       0.18491323       0.11747183       0.56420982      -7.93219090
Si      10.45615285       4.04259616       2.78983487       0.26213337      -0.75178475      -0.46201294       1.25608032      -0.44307827       0.03518039      -8.61596034
Si      12.51373449       4.94484479       5.84657317      -0.98571095      -0.21431717       0.44300098       0.23778927       0.28172899       0.70714828      -8.76308000
Si      14.55950466       6.05752643       9.13389532       0.53735910       0.05452103       0.11974474      -0.84914404       0.91754283      -0.56114269      -8.71371812
Si      12.58428052       7.25434010       2.77505456      -0.43072328       0.20389634       0.30718190      -0.18784045      -0.44963130      -1.12522292      -8.68746645
Si      14.46838549       8.35721882       5.87505838       0.87083272       0.17893088       0.96530499      -0.32149544      -0.74418960       0.78369845      -8.68673202
Si      16.28005260       9.49882557       9.01779347      -0.70897663      -0.22411940       0.15646691       0.10607237       0.37875262       0.39558436      -8.68126577
Si      14.46397357      10.46973619       2.73602196       0.30067647      -0.07777218      -0.33585077      -0.26637414       1.07686368      -0.97318866      -8.59535775
Si      16.43219517      11.61327410       5.59365315       1.09646243      -0.47793675       0.16697821      -0.05779680       0.52752926       2.36889532      -8.60777415
Si      18.20098512      12.74244893       9.03159888      -0.55925895       0.45199617       0.19776799      -0.12959295       1.07120854      -0.25941051      -8.69135725
Si      14.51246934       3.80034462       2.76029431       0.10111971       0.74543368       0.05699151      -0.32811838       0.65508895       0.11499785      -8.71546253
Si      16.35676750       5.02891529       6.10299971       0.54260983      -1.48496423      -0.97494607       0.40795711      -0.50288677      -1.58316398      -8.65423407
Si      18.32510369       6.09262946       9.13994546      -0.71424388      -1.42738052       1.28782997      -0.32278089      -0.40980094       0.23675547      -7.91543189
Si      16.40488387       7.24274577       2.72673196       0.01545301      -0.68220960      -0.84508230      -0.45943458      -0.14670708       0.16644720      -8.73290201
Si      18.17133128       8.37931589       6.00833866      -0.15306296       0.19515541       0.53742990       0.60379771      -0.69291840      -0.65303167      -8.69418180
Si      20.21525102       9.45013979       8.96650236      -0.89781119       0.79424008      -0.17591705       0.32167565       0.28639769       0.07117249      -8.72439683
Si      18.32360381      10.51965827       2.65632870      -0.72261464       0.71663296      -2.05645414      -0.31249230       0.44633619      -0.41904903      -7.92861620
Si      20.19303595      11.63829373       5.97484517       0.30456242       0.91708187       0.47239041       0.53586601       0.01076349      -0.53180651      -8.65502761
Si      22.30763005      12.74407983       9.02968153      -0.39157252       0.83377856       1.55215978       0.01086584       0.58639037       1.07090284      -7.93485939
Si       2.88622469       1.58139230       3.54293866      -0.37934068       0.65007044       0.48682885       0.19724867       0.16283391       0.40583915      -8.74071691
Si       4.85323533       2.77253513       6.79159438      -0.99131158       0.39919060      -0.92002134      -0.41755375      -0.01406182      -1.10716420      -8.74991178
Si       2.82657650       3.97077358       0.41418637      -0.49224513       0.57334535      -0.59585131       0.71722107      -0.52893578       0.13762383      -8.74989555
Si       4.81617109       5.05228651       3.56912011       0.44851575      -0.64654688      -1.13600908      -0.11152672      -0.46686329       0.81670550      -8.64637165
Si       6.73285234       6.14621444       6.81510288      -0.07926839      -1.18869713      -1.53884441       0.19065110      -0.21778163      -0.15003830      -8.73637850
Si       4.83764177       7.23478696       0.38402523       1.11646885       0.55351934      -0.87406335      -0.09739653      -0.41301970      -0.21863348      -8.74151484
Si       6.67008750       8.39456351       3.61361341      -1.41555071       1.23226248       0.13816253       0.62035834      -0.05559156       0.04665261      -8.73028578
Si       8.64431482       9.35063302       6.61083313      -0.58665083       0.11138029      -0.95429795       0.82920918       0.13790792       0.16225976      -8.68852621
Si       4.66154078       0.60083633       0.43250942       0.89664671       1.32423324       0.59035556       0.20678074      -0.63451309      -0.72377546      -8.69351606
Si       6.71256765       1.67113512       3.49022446      -1.24365549      -0.68244372       1.11265442       0.60856426      -0.32696805       0.27030102      -8.72914105
Si       8.74929656       2.73235674       6.58289427      -0.19186897      -1.36841908      -0.51161030      -0.25988503      -0.33657695       0.23515486      -8.69570177
Si       6.78200881       3.85913078       0.39514724      -0.05951637       0.10645237       1.11195551      -0.07689679      -0.09388855      -0.22037943      -8.71857922
Si       8.49572706       5.03089912       3.59999702       0.51217714      -0.32051582       0.99260509       1.01743998       0.79998031      -0.14347446      -8.74192354
Si      10.57742014       6.02067677       6.67090639      -0.00003238      -0.69600661       0.57338314       0.15979476      -0.29472559       0.33835625      -8.74794174
Si       8.55733966       7.32140248       0.43942041      -0.26599591      -0.59282933      -0.85728946       0.49070655      -0.03260921      -0.02281733      -8.71686723
Si      10.62787076       8.26894530       3.54225792      -0.56163624       0.85572376       0.67786680       0.41913331       0.50249172      -0.42315688      -8.76480888
Si      12.52045144       9.50031117       6.58522316      -0.00716029      -0.79537084       0.11454594      -0.16072614      -0.41241266       0.60079821      -8.68615300
Si       8.70758393       0.51513463       0.21461756       0.22388404       1.16657267      -0.97708191       0.13071278      -1.07357860       1.62948301      -8.61805694
Si      10.62171745       1.71456296       3.36910918      -0.23560435      -0.25545534      -1.18364639      -0.16631801      -0.05117051      -1.16846712      -8.72621156
Si      12.49209818       2.77144756       6.67603258      -0.02166672      -1.13072934       0.19459647      -0.36568209      -0.54904962      -0.37070507      -8.73917797
Si      10.64157967       3.95061085       0.44632504       0.98170539      -0.10596545      -0.14981835      -0.12216739      -0.09332288      -0.21506574      -8.75591332
Si      12.62123122       5.03786807       3.53915312       0.67240337      -1.51737063       0.05986640      -0.87923045      -0.62101873      -0.46738413      -8.68685615
Si      14.42239123       6.02589773       6.76876888       0.15891175       1.27169151      -0.53043106      -0.44796337       1.29193933      -0.06073850      -8.66614811
Si      12.53634052       7.22165162       0.28524438       0.30987113      -0.05697631      -0.22870714      -0.47959727      -0.31526395       1.16210662      -8.70135493
Si      14.47094178       8.32078098       3.57836667       0.99499161       0.53955061       0.64642823       0.42811653      -0.11230763      -0.46806632      -8.78808229
Si      16.31735194       9.52652701       6.67695968      -0.18219088       1.22360573       1.23346391      -0.28507291       0.06265329      -0.04193538      -8.76157056
53
Lattice="11.5478352 0.0 0.0 5.773917198490155 10.000722372470358 0.0 5.773916394327279 3.333571176804646 9.428767828939895" Properties=species:S:1:pos:R:3:momenta:R:3:forces:R:3:energies:R:1 spacegroup="_JSON {\"number\": 1, \"setting\": 1}" unit_cell=conventional occupancy="_JSON {\"0\": {\"Si\": 1.0}, \"1\": {\"Si\": 1.0}, \"2\": {\"Si\": 1.0}, \"3\": {\"Si\": 1.0}, \"4\": {\"Si\": 1.0}, \"5\": {\"Si\": 1.0}, \"6\": {\"Si\": 1.0}, \"7\": {\"Si\": 1.0}, \"8\": {\"Si\": 1.0}, \"9\": {\"Si\": 1.0}, \"10\": {\"Si\": 1.0}, \"11\": {\"Si\": 1.0}, \"12\": {\"Si\": 1.0}, \"13\": {\"Si\": 1.0}, \"14\": {\"Si\": 1.0}, \"15\": {\"Si\": 1.0}, \"16\": {\"Si\": 1.0}, \"17\": {\"Si\": 1.0}, \"18\": {\"Si\": 1.0}, \"19\": {\"Si\": 1.0}, \"20\": {\"Si\": 1.0}, \"21\": {\"Si\": 1.0}, \"22\": {\"Si\": 1.0}, \"23\": {\"Si\": 1.0}, \"24\": {\"Si\": 1.0}, \"25\": {\"Si\": 1.0}, \"26\": {\"Si\": 1.0}, \"27\": {\"Si\": 1.0}, \"28\": {\"Si\": 1.0}, \"29\": {\"Si\": 1.0}, \"30\": {\"Si\": 1.0}, \"31\": {\"Si\": 1.0}, \"32\": {\"Si\": 1.0}, \"33\": {\"Si\": 1.0}, \"34\": {\"Si\": 1.0}, \"35\": {\"Si\": 1.0}, \"36\": {\"Si\": 1.0}, \"37\": {\"Si\": 1.0}, \"38\": {\"Si\": 1.0}, \"39\": {\"Si\": 1.0}, \"40\": {\"Si\": 1.0}, \"41\": {\"Si\": 1.0}, \"42\": {\"Si\": 1.0}, \"43\": {\"Si\": 1.0}, \"44\": {\"Si\": 1.0}, \"45\": {\"Si\": 1.0}, \"46\": {\"Si\": 1.0}, \"47\": {\"Si\": 1.0}, \"48\": {\"Si\": 1.0}, \"49\": {\"Si\": 1.0}, \"50\": {\"Si\": 1.0}, \"51\": {\"Si\": 1.0}, \"52\": {\"Si\": 1.0}}" energy=-458.7510035825759 stress="0.00951519934983405 -0.000541695735320309 0.00048224621364381345 -0.000541695735320309 0.006931994505450015 -0.00037636646605954506 0.00048224621364381345 -0.00037636646605954506 0.012824718016129244" free_energy=-458.7510035825759 pbc="T T T"
Si       6.70341175       3.88099214       2.71868231      -0.06159201      -0.46199010      -0.21905384       0.23701758      -0.23193549       0.91885940      -8.75878433
Si       8.56979314       5.00463776       5.95891471      -0.75905140       0.81702807       0.68256139       0.84097323      -0.81021583      -0.13263944      -8.71685714
Si      10.58313401       6.13005364       9.08205421       0.89985579       0.09593242       0.24368850      -0.24193356       0.53954678      -0.20695330      -8.72469275
Si       8.58448607       7.31145477       2.82380921      -2.06834777      -0.59729086      -0.67186777      -0.10938002      -0.25221553      -0.16717320      -8.66730162
Si      10.69872046       8.24707723       5.83899097      -0.29217418       2.24201249       1.05137741      -1.16421964      -0.14678072       0.69848009      -8.70220637
Si      12.46431370       9.41538367       9.00038222      -0.76183420      -0.39526752      -0.64740227       0.71975677      -0.32151423      -0.06204712      -8.70571570
Si      10.63736300      10.54959303       2.75202441      -0.31441427       0.72446523       0.37888655      -1.18185541      -0.24603438       0.31893582      -8.74718447
Si      12.55901148      11.67986783       5.96168264       0.67896280      -1.85670664       1.17247329      -1.07561824      -0.20237604      -1.05868192      -8.70681925
Si      14.27354795      12.76615062       8.92782361       1.17364995      -1.19596975       0.12901456       0.48902469       0.71862525       0.52310627      -7.87039825
Si      10.51362979       3.99146551       2.76970712       1.76668759      -1.08065998      -0.27876647       0.61863833       0.01361397       0.13852589      -8.67432123
Si      12.47972538       4.93997822       5.89075137      -0.18422737      -0.04994078       1.07278679       0.73272599      -0.01554653       0.06474237      -8.73689706
Si      14.55572829       6.09961778       9.11696739      -0.62264763       1.45927697      -0.74371692      -0.62454784       0.58458489      -0.48521088      -8.70844795
Si      12.56057887       7.24571957       2.75648699      -0.37074786      -0.53588470      -0.78957572       0.20469237      -0.46435671      -0.24168564      -8.68031692
Si      14.49991406       8.34401884       5.94529356       0.31318286      -0.49722932       1.44292917      -0.39083040      -0.01597392      -0.26536405      -8.74508620
Si      16.25470924       9.50126439       9.04425346      -0.12169111       0.27216489       0.87364519       0.63959132       0.21127151       0.48021695      -8.68895018
Si      14.46315284      10.50426281       2.68518726      -0.41982344       1.24063667      -1.44476773      -0.61426451       0.49624957      -0.35094834      -8.64017697
Si      16.47958639      11.61068345       5.66792125       0.53247888       0.37641682       2.05629022      -0.75793864       0.51026504       0.05777642      -8.64662451
Si      18.17272897      12.79886596       9.03310548      -0.39081034       1.44333365      -0.10188624       0.37079943       0.09273248      -0.11363742      -8.68566078
Si      14.50790239       3.85432194       2.76213024      -0.21806238       1.09793133      -0.07496520      -0.11480539      -0.17204331      -0.23134043      -8.74291425
Si      16.38724079       4.94939394       5.99362456       0.37750269      -1.20241346      -3.05565153      -0.52417212       0.81821658      -1.02566871      -8.70287382
Si      18.28410575       6.00351634       9.20288034      -0.67925549      -1.92824477       0.90718595       0.33166044      -0.24273015      -0.57782684      -7.93243588
Si      16.39156178       7.20499604       2.69269183      -0.41385360      -0.70050921      -0.39247132      -0.04234441       0.07800288       0.40179021      -8.71004988
Si      18.17851042       8.36380949       6.01061517       0.29460896      -0.70959358      -0.41825364       0.10080130      -0.40049966      -0.53547680      -8.69659170
Si      20.18945047       9.49744320       8.95528233      -0.00033221       0.89371082      -0.30329409       0.65098464      -0.15637199      -0.12457355      -8.71136603
Si      18.28141059      10.57189335       2.53668482      -0.73045054       1.19965408      -2.41655122       0.29287823       0.15636431      -0.07306957      -7.97788086
Si      20.22328205      11.67743837       5.97532209       0.67659968       0.40812362      -0.49233414      -0.12830927      -0.64040167      -0.68237703      -8.71628205
Si      22.29177988      12.81092064       9.12770476      -0.12358855       1.66419809       1.76117651       0.36006604       0.39090751      -0.58213535      -7.96021747
Si       2.87410498       1.61997519       3.57483122      -0.10953702       0.80524789       0.52767333       0.09659594       0.09456017      -0.38269592      -8.66988960
Si       4.80243879       2.78361674       6.72650267      -0.61387804      -0.11371678      -1.08786457       0.86852857      -0.53279519       0.73023365      -8.73252184
Si       2.82805884       3.97666861       0.38961951       0.49879689      -0.37735780      -0.33818025       0.53115404      -0.64740532       0.15223277      -8.70525635
Si       4.83502572       5.00630188       3.54170197       0.26554013      -0.97139360       0.03275243      -0.13170398       0.05817517       0.58586782      -8.71799739
Si       6.72763559       6.08499685       6.74874501      -0.31799201      -0.97927114      -0.67343337      -0.57119408       0.42503856       1.10173854      -8.71971870
Si       4.87739782       7.24881014       0.33648557       0.16282025       0.05485306      -0.80610572      -1.01877886      -0.13479692       0.29333673      -8.74313286
Si       6.62091776       8.45284574       3.61724819      -0.49308963       0.92012038      -0.13015802       0.50531370      -0.33093818      -0.45824475      -8.69886297
Si       8.64967867       9.36578707       6.57408233       0.77718798       0.52906161      -0.33742995       0.77107742       0.37875509       0.59498779      -8.68100800
Si       4.70884640       0.63528385       0.43460562       0.77095379      -0.12429196      -0.45825084      -0.33603908      -1.07831703      -0.53221986      -8.70618192
Si       6.68642026       1.63284446       3.55937905       0.43910101      -0.60622205       1.48073304       1.35069961       0.32631573       0.09343858      -8.68255224
Si       8.73991688       2.66609460       6.56804606       0.00635529      -0.82300679       0.01534771       0.39255216       0.96237877       0.50122070      -8.68320074
Si       6.77936836       3.86113327       0.43342491       0.00076580      -0.00597361       0.16715066       0.08958388      -0.00329251      -0.90958289      -8.73371319
Si       8.55538442       5.04199334       3.63691680       1.60252219       0.61680056       0.25563261       0.40787831       0.32276173      -0.75762223      -8.73887411
Si      10.57968138       5.98933808       6.70870258       0.00359963      -0.20198825       0.77207171      -0.15633183       0.86030322      -0.03767019      -8.72988166
Si       8.55745495       7.28578540       0.40093672       0.14091067      -0.82407790      -0.49003206      -0.00792758      -0.25596038       0.45369465      -8.75118391
Si      10.61060313       8.32668956       3.55148719      -0.21630052       1.17596057      -0.42286350      -0.02554835      -0.15638741      -0.79916451      -8.77025506
Si      12.52001121       9.44520107       6.61640521       0.11396735      -1.23762584       1.08074338       0.31508151      -0.15315275       0.62087202      -8.74749008
Si       8.71703985       0.53172685       0.22786529      -0.01126710      -0.40939928       1.39806910      -0.44783760      -0.61716086       1.30459306      -8.67858264
Si      10.60447122       1.69974857       3.28359031      -0.38147353      -0.29982179      -1.59881887      -0.01002534      -0.01449052       0.64777834      -8.74959094
Si      12.48017647       2.70524631       6.67640080      -0.29526124      -1.10570778      -0.05977722       0.17394852       0.57590718       0.09553817      -8.76471965
Si      10.68073487       3.94349893       0.43114681       0.38715142      -0.11852349      -0.40524449      -0.60245058       0.07892960      -0.12311424      -8.75404563
Si      12.61650994       4.95126040       3.52941484      -0.90694399      -1.46955647      -0.28858472      -1.07940186       0.61327481       0.07783123      -8.70749741
Si      14.42123327       6.12360611       6.73928733      -0.03711825       2.01819970      -0.58054707       0.18055565      -0.41425473      -0.00613956      -8.69533118
Si      12.52584967       7.21593098       0.31872155      -0.78727841       0.04176685       1.42112014      -0.77211263       0.45378332       0.83694294      -8.73038374
Si      14.52926530       8.33961352       3.59121881       1.00981677       0.14273166      -0.17467966      -0.42686590      -0.26354839      -0.55014280      -8.75532616
Si      16.30373250       9.58151215       6.73612540      -0.18997426       0.64000777       0.97921878       0.28385744      -0.83906780      -0.21933387      -8.74675198
53
Lattice="11.5478352 0.0 0.0 5.773917198490155 10.000722372470358 0.0 5.773916394327279 3.333571176804646 9.428767828939895" Properties=species:S:1:pos:R:3:momenta:R:3:forces:R:3:energies:R:1 spacegroup="_JSON {\"number\": 1, \"setting\": 1}" unit_cell=conventional occupancy="_JSON {\"0\": {\"Si\": 1.0}, \"1\": {\"Si\": 1.0}, \"2\": {\"Si\": 1.0}, \"3\": {\"Si\": 1.0}, \"4\": {\"Si\": 1.0}, \"5\": {\"Si\": 1.0}, \"6\": {\"Si\": 1.0}, \"7\": {\"Si\": 1.0}, \"8\": {\"Si\": 1.0}, \"9\": {\"Si\": 1.0}, \"10\": {\"Si\": 1.0}, \"11\": {\"Si\": 1.0}, \"12\": {\"Si\": 1.0}, \"13\": {\"Si\": 1.0}, \"14\": {\"Si\": 1.0}, \"15\": {\"Si\": 1.0}, \"16\": {\"Si\": 1.0}, \"17\": {\"Si\": 1.0}, \"18\": {\"Si\": 1.0}, \"19\": {\"Si\": 1.0}, \"20\": {\"Si\": 1.0}, \"21\": {\"Si\": 1.0}, \"22\": {\"Si\": 1.0}, \"23\": {\"Si\": 1.0}, \"24\": {\"Si\": 1.0}, \"25\": {\"Si\": 1.0}, \"26\": {\"Si\": 1.0}, \"27\": {\"Si\": 1.0}, \"28\": {\"Si\": 1.0}, \"29\": {\"Si\": 1.0}, \"30\": {\"Si\": 1.0}, \"31\": {\"Si\": 1.0}, \"32\": {\"Si\": 1.0}, \"33\": {\"Si\": 1.0}, \"34\": {\"Si\": 1.0}, \"35\": {\"Si\": 1.0}, \"36\": {\"Si\": 1.0}, \"37\": {\"Si\": 1.0}, \"38\": {\"Si\": 1.0}, \"39\": {\"Si\": 1.0}, \"40\": {\"Si\": 1.0}, \"41\": {\"Si\": 1.0}, \"42\": {\"Si\": 1.0}, \"43\": {\"Si\": 1.0}, \"44\": {\"Si\": 1.0}, \"45\": {\"Si\": 1.0}, \"46\": {\"Si\": 1.0}, \"47\": {\"Si\": 1.0}, \"48\": {\"Si\": 1.0}, \"49\": {\"Si\": 1.0}, \"50\": {\"Si\": 1.0}, \"51\": {\"Si\": 1.0}, \"52\": {\"Si\": 1.0}}" energy=-458.65322556325276 stress="0.007857623090258543 0.0013680570620804957 0.0014540428158119204 0.0013680570620804957 0.011438025349099223 -0.0019247159801494933 0.0014540428158119204 -0.0019247159801494933 0.012000862299720775" free_energy=-458.65322556325276 pbc="T T T"
Si       6.71846962       3.84987472       2.74585579       0.77567113      -0.66552601       1.19470862       0.79101982       0.00043494       0.70715440      -8.70786313
Si       8.56981829       5.01058948       5.98415430       0.76600105      -0.56978221       0.20447565       0.87636068      -0.74462301      -0.42826295      -8.72520578
Si      10.61620243       6.14940799       9.08711859       0.29763629       0.45959904      -0.03561351      -0.49162330      -0.15718706      -0.15313251      -8.74879428
Si       8.48774075       7.27983559       2.78664311      -1.35495198      -0.45472279      -0.67875586       0.94239970       0.35009676       0.10255999      -8.67953633
Si      10.64373503       8.34129552       5.90416065      -1.58352370       1.08239923       1.10489607      -0.30672127      -1.21379113      -0.57341314      -8.70283280
Si      12.45396621       9.38543608       8.97400077       0.31001335      -0.63413747      -0.13655803       0.50853623       0.11249704       0.79850616      -8.70941161
Si      10.58492802      10.58150632       2.77887153      -1.40686694       0.57297967       0.52937657      -0.12186518       0.04482054      -0.13492564      -8.75409050
Si      12.55479096      11.58301141       5.98539388      -0.66816157      -1.66470903      -0.12949224      -0.44285135       0.46262557      -0.52837270      -8.71750142
Si      14.35348163      12.73219088       8.95165006       1.82894793      -0.14246796       0.71568149       0.30725311       0.55092907       0.27481787      -7.88475455
Si      10.61231983       3.94039218       2.75725418       1.61726075      -0.80686007      -0.28495123      -0.86089771       0.24598755      -0.20522138      -8.72518374
Si      12.49606607       4.93774165       5.94102405       0.70197927       0.02048003       0.72048787       0.33134718       0.19837591      -0.42479448      -8.70001838
Si      14.50706846       6.17967698       9.06593183      -1.05688631       1.24155525      -1.06460337       0.06034260      -0.78552722       0.04646570      -8.69039149
Si      12.54908476       7.20479172       2.72201846      -0.09825286      -0.90153605      -0.21373921       0.09199382       0.01663755       0.97171768      -8.69687601
Si      14.50318288       8.33131088       5.99484575      -0.13092578       0.22167840       0.19525415      -0.16670533       0.76528841      -1.24721731      -8.73427105
Si      16.27472797       9.51881565       9.10357786       0.86079473       0.30590430       1.26454385       0.54435587      -0.14636835      -0.00088752      -8.72785331
Si      14.41998949      10.57436709       2.61433874      -1.12354545       1.18249541      -0.86054829      -0.21265223      -0.48405647       1.19648766      -8.71583971
Si      16.47095300      11.64276993       5.75559212      -0.91443920       0.68738327       1.00452957      -0.94641005      -0.09976899      -1.06424606      -8.62574094
Si      18.17216401      12.86184019       9.02638918       0.44805233       0.69165595      -0.09114454       0.67573186      -0.95001129       0.13770084      -8.68245812
Si      14.49190832       3.89889764       2.74916854      -0.42280177       0.53875963      -0.39571041      -0.22976306      -0.42716782      -0.14798943      -8.72874326
Si      16.38385331       4.92311916       5.81830695      -0.50622649       0.18364229      -3.04068323      -0.53896644       0.78013250       1.27805429      -8.68580850
Si      18.26440635       5.89856218       9.22659115      -0.06474425      -1.95445337       0.01665143       0.37040411       0.22181906      -0.50996990      -7.99249690
Si      16.37469199       7.17269764       2.68730231      -0.13335285      -0.50255065       0.15260675       0.33052478       0.20001390       0.27004604      -8.69069578
Si      18.19828127       8.32021654       5.97403273       0.49532009      -0.77967618      -0.85371720       0.22817521       0.27041029      -0.05911754      -8.67249184
Si      20.20481664       9.53387784       8.93940550       0.34520430       0.42759147      -0.18073071      -0.27373544      -0.43234992       0.34243249      -8.69522798
Si      18.25935501      10.63518272       2.41222597      -0.05808033       1.11559219      -2.24436707       0.50134614      -0.22724682       0.26036242      -7.98546383
Si      20.24554289      11.67267104       5.92780527       0.08418745      -0.54052823      -1.18904423      -0.46907487      -0.44827679      -0.17867616      -8.75258075
Si      22.30161072      12.90383884       9.18953847       0.49902670       1.70377490       0.52369926       0.35807179      -0.28478200      -0.88844571      -7.97488121
Si       2.86777783       1.66569488       3.57867889      -0.22633354       0.93101586      -0.51411682      -0.27627206       0.06517510      -0.90628077      -8.64984533
Si       4.81002651       2.76200127       6.70641139       0.90250842      -0.55994925       0.36223515       0.87459984       0.03002705       0.91018902      -8.68054093
Si       2.86807351       3.93647540       0.37576578       0.88138242      -1.04007447      -0.23325442      -0.04429982      -0.20164737      -0.01461849      -8.67260946
Si       4.84378222       4.96416052       3.55150382       0.07350672      -0.53869346      -0.01770807      -0.10822982       0.43663976      -0.81644714      -8.77724409
Si       6.68490030       6.05066786       6.75654428      -1.27319643      -0.39077805       0.86347540      -0.42652774       0.20123719       0.69618410      -8.70953297
Si       4.84903393       7.25310621       0.30934485      -1.09121413       0.21652896      -0.18570185      -0.43834236       0.28886153       0.47227372      -8.73910903
Si       6.60971779       8.48679835       3.58745424      -0.02429239       0.36588075      -1.06575978       0.15488488      -0.36763107      -0.69471999      -8.66118584
Si       8.70500021       9.40707398       6.58020321       0.97766435       1.00301791       0.55860669      -0.60586592       0.21851171       0.55493966      -8.73662387
Si       4.73183545       0.59648686       0.39919689       0.05928516      -1.10456515      -0.70398975      -0.50557933      -0.11819134       0.20181706      -8.74170520
Si       6.74992112       1.61379605       3.63030637       1.65236459      -0.15790084       1.01696679       0.08600277       0.20124730      -0.69804877      -8.71684684
Si       8.75078462       2.66496158       6.58978867       0.23403368       0.76920294       0.81140081      -0.26082755       0.93950947       0.49887787      -8.71259021
Si       6.78109724       3.86344340       0.41219697       0.01212377       0.13609887      -0.77150704      -0.11373940       0.15399413      -0.12629082      -8.76522768
Si       8.64660094       5.07616056       3.62179977       1.72926392       0.48936725      -0.75538177      -0.17151398      -0.44774664      -0.47113580      -8.69705771
Si      10.57266777       6.01683639       6.74383830      -0.25525446       1.26201636       0.49350863      -0.09965995       0.91854294      -0.33328149      -8.71071091
Si       8.55810233       7.23410300       0.39455055      -0.19802406      -1.08408146       0.24320791      -0.32003436      -0.01459545       0.44374404      -8.75927714
Si      10.59290651       8.37192697       3.50797156      -0.54043933       0.38164682      -1.01432890      -0.35499442      -0.80914977       0.05023308      -8.69104813
Si      12.53913098       9.37830652       6.68924530       0.56195854      -1.25253758       1.48602524       0.10702710       0.09107162      -0.19908382      -8.76652808
Si       8.69524136       0.50603720       0.33078410      -0.83382896      -0.23363284       2.04424718      -0.49698132       0.69304280      -0.57655672      -8.70691734
Si      10.58653363       1.68319335       3.24025509      -0.26230135      -0.34845181       0.14581517       0.14961711      -0.08061454       1.45818872      -8.67182804
Si      12.48319940       2.67916576       6.68236008       0.57520651       0.20968422       0.33238544       0.79236944       0.96070552       0.26213386      -8.75120092
Si      10.67843181       3.94009707       0.40689132      -0.40935693      -0.04882525      -0.48541315      -0.35563308      -0.06702004       0.01042469      -8.71932871
Si      12.53996207       4.90748292       3.52520921      -1.66375413      -0.07208001       0.25913215       0.26368386       1.12897717       0.59715000      -8.72284055
Si      14.43042309       6.18993662       6.70898969       0.43469928       0.15729364      -0.59257311       0.37854463      -1.77537538      -0.08695855      -8.66507448
Si      12.46598626       7.24001584       0.40866072      -1.21760740       0.90628040       1.64938629       0.29673880       0.58653815      -0.54806307      -8.74235950
Si      14.55625551       8.34118293       3.56400054      -0.12175072       0.00266319      -0.78662862      -0.98465161       0.06279010      -0.25317326      -8.65249791
Si      16.31018949       9.57730088       6.77871669       0.51602059      -0.81766801       0.63271832       0.60308759      -0.91381213      -0.27313020      -8.72648147
53
Lattice="11.5478352 0.0 0.0 5.773917198490155 10.000722372470358 0.0 5.773916394327279 3.333571176804646 9.428767828939895" Properties=species:S:1:pos:R:3:momenta:R:3:forces:R:3:energies:R:1 spacegroup="_JSON {\"number\": 1, \"setting\": 1}" unit_cell=conventional occupancy="_JSON {\"0\": {\"Si\": 1.0}, \"1\": {\"Si\": 1.0}, \"2\": {\"Si\": 1.0}, \"3\": {\"Si\": 1.0}, \"4\": {\"Si\": 1.0}, \"5\": {\"Si\": 1.0}, \"6\": {\"Si\": 1.0}, \"7\": {\"Si\": 1.0}, \"8\": {\"Si\": 1.0}, \"9\": {\"Si\": 1.0}, \"10\": {\"Si\": 1.0}, \"11\": {\"Si\": 1.0}, \"12\": {\"Si\": 1.0}, \"13\": {\"Si\": 1.0}, \"14\": {\"Si\": 1.0}, \"15\": {\"Si\": 1.0}, \"16\": {\"Si\": 1.0}, \"17\": {\"Si\": 1.0}, \"18\": {\"Si\": 1.0}, \"19\": {\"Si\": 1.0}, \"20\": {\"Si\": 1.0}, \"21\": {\"Si\": 1.0}, \"22\": {\"Si\": 1.0}, \"23\": {\"Si\": 1.0}, \"24\": {\"Si\": 1.0}, \"25\": {\"Si\": 1.0}, \"26\": {\"Si\": 1.0}, \"27\": {\"Si\": 1.0}, \"28\": {\"Si\": 1.0}, \"29\": {\"Si\": 1.0}, \"30\": {\"Si\": 1.0}, \"31\": {\"Si\": 1.0}, \"32\": {\"Si\": 1.0}, \"33\": {\"Si\": 1.0}, \"34\": {\"Si\": 1.0}, \"35\": {\"Si\": 1.0}, \"36\": {\"Si\": 1.0}, \"37\": {\"Si\": 1.0}, \"38\": {\"Si\": 1.0}, \"39\": {\"Si\": 1.0}, \"40\": {\"Si\": 1.0}, \"41\": {\"Si\": 1.0}, \"42\": {\"Si\": 1.0}, \"43\": {\"Si\": 1.0}, \"44\": {\"Si\": 1.0}, \"45\": {\"Si\": 1.0}, \"46\": {\"Si\": 1.0}, \"47\": {\"Si\": 1.0}, \"48\": {\"Si\": 1.0}, \"49\": {\"Si\": 1.0}, \"50\": {\"Si\": 1.0}, \"51\": {\"Si\": 1.0}, \"52\": {\"Si\": 1.0}}" energy=-458.55023828832833 stress="0.009083045311947908 0.0019359586855314977 0.0015372598676541007 0.0019359586855314977 0.013307439732032472 -0.002512281726630323 0.0015372598676541007 -0.002512281726630323 0.010562749185253368" free_energy=-458.55023828832833 pbc="T T T"
Si       6.78849994       3.82048409       2.82167011       1.81004523      -0.34633086       1.41521762       0.46046183       0.42523500      -0.39002203      -8.68199260
Si       8.62977765       4.96733844       5.97872130       1.24589262      -0.75244390      -0.39417457      -0.18286681       0.52413921      -0.36710591      -8.71210223
Si      10.61477765       6.15788884       9.08027509      -0.28167183      -0.27108788      -0.20994189      -0.22397328      -0.68501720      -0.09169023      -8.74811953
Si       8.45893021       7.27066931       2.75729474       0.30903539       0.07889283      -0.39383450       1.15796958       0.25227069       0.28797337      -8.71247028
Si      10.56781739       8.35035957       5.93090390      -1.03171792      -0.63910120      -0.18395436       0.76336968      -0.82402625      -0.97414464      -8.69754823
Si      12.47828797       9.36528427       9.00386293       0.38518513       0.00819372       1.28674833      -0.39761445       0.66503159       0.84118645      -8.71813070
Si      10.52275708      10.61228467       2.79571812      -0.70676335       0.54124144       0.02813935       0.88525157      -0.17502907      -0.46471904      -8.68302938
Si      12.51846928      11.51978514       5.97008060      -0.45294780      -0.66937331      -0.24736081       0.58971679       0.77726377       0.27755929      -8.70159985
Si      14.45143076      12.73647985       8.99636992       1.68198260       0.10119739       0.92407957      -0.56426038      -0.24266529       0.01908279      -7.90321368
Si      10.65093413       3.90601412       2.73101436      -0.24467445      -0.53230001      -0.72251530      -1.24974550       0.14730645      -0.22150617      -8.73672092
Si      12.53580598       4.95149561       5.96208547       0.62991423       0.58380366       0.10889847      -0.38883615       0.50723006      -0.32779185      -8.70972079
Si      14.46157553       6.20569025       9.01666418      -0.57704537      -0.33355632      -0.75809905       0.45429619      -1.12404533       0.26852121      -8.67465910
Si      12.54350270       7.16645858       2.75360136      -0.20018133      -0.39737232       1.38364866      -0.24929467       0.66362537       0.84227266      -8.72853307
Si      14.49462478       8.36317095       5.95742935      -0.10011693       0.71618061      -1.52518205       0.20530553      -0.27237807      -0.88515994      -8.73685055
Si      16.33150596       9.52612042       9.16174241       1.10644323      -0.07337868       0.80701354      -0.21361735      -0.32976806      -0.57767298      -8.74243137
Si      14.36488490      10.61033666       2.62739294      -0.72738192       0.07710502       1.39420163       0.76469007      -0.93482395       1.32375047      -8.72441937
Si      16.40012782      11.66962512       5.77409126      -1.47759700       0.26708326      -0.07187638       0.23134315      -0.38136405      -0.19243176      -8.65695921
Si      18.21781359      12.85977204       9.02989145       1.16125864      -0.71179455       0.25812178       0.17330774      -0.72856136       0.25685809      -8.72964349
Si      14.45879334       3.91470407       2.72509050      -0.85639380       0.17365217      -0.48939354      -0.29188671      -0.00169759      -0.02063326      -8.71952559
Si      16.34237231       4.95208823       5.73566360      -0.93252700       0.69321038       0.15069369       0.03354452      -0.11974504       2.26913231      -8.66294122
Si      18.27088971       5.81111774       9.21370137       0.22203356      -1.27664293      -0.38030541       0.02253090       0.63099852      -0.01374368      -8.05962474
Si      16.37858647       7.15780273       2.70102624       0.19937248       0.01966536       0.27245524       0.01183114       0.53194607      -0.11284919      -8.71289428
Si      18.23453183       8.29403237       5.93151604       0.89617847      -0.18427212      -0.70760564       0.26571926       0.41242960       0.17685606      -8.63641563
Si      20.20186050       9.53808181       8.94909268      -0.59443108      -0.27479675       0.64099232      -0.80909638      -0.46070468       0.70370366      -8.65861679
Si      18.27174585      10.68215697       2.30808776       0.42033148       0.63996407      -1.67074249       0.07356752      -0.37437257       0.48388222      -8.01296840
Si      20.23785371      11.63883012       5.86695672      -0.24006154      -0.50725307      -1.00251306       0.05114685       0.49140561       0.32301409      -8.73344745
Si      22.33456409      12.97731777       9.18772380       0.60356099       1.03733840      -0.46246319      -0.23760815      -0.53428028      -0.38756468      -8.01334574
Si       2.84118345       1.71447926       3.51934744      -0.83798872       0.86011780      -1.63456106      -0.46745452      -0.21148150      -0.47171339      -8.68288503
Si       4.87648766       2.74109344       6.74874313       1.32591454      -0.13528808       0.99777827      -0.30486082       0.43774997      -0.07028005      -8.64884298
Si       2.90343277       3.88147497       0.36180132       0.29358633      -0.92849175      -0.30956757      -0.72643593       0.30248900      -0.05697637      -8.64034028
Si       4.84541559       4.95168637       3.50552029       0.03791072       0.00187702      -1.78125809       0.08180201       0.20625274      -0.96918985      -8.77494663
Si       6.61631186       6.03152324       6.81216150      -1.05699958      -0.42746026       0.93792247       0.68395241      -0.13941753      -0.54571881      -8.67161067
Si       4.79001633       7.27695818       0.31704645      -0.89966799       0.69758646       0.44854834       0.56802405       0.31090416       0.35087962      -8.69227226
Si       6.61266778       8.49372127       3.50963797       0.12758704      -0.05080503      -1.76777540       0.11976271      -0.16840685      -0.17851547      -8.62825607
Si       8.71783892       9.46251029       6.62662967      -0.65573412       0.97215449       1.10350677      -1.25673676      -0.33227682       0.12840765      -8.76437050
Si       4.72339623       0.54799406       0.37769519      -0.15317443      -0.52034346      -0.00121725       0.37575076       0.76384997       0.65679827      -8.73446851
Si       6.81871794       1.61124131       3.65342406       0.59892432       0.03914101      -0.10846983      -1.38011930       0.11344649      -0.60401454      -8.72279949
Si       8.74333315       2.72911989       6.64746998      -0.63621948       1.39346842       1.29620149      -0.72572826      -0.16742665       0.14005530      -8.75108961
Si       6.77471911       3.87424236       0.38310215      -0.28066468       0.19827022      -0.06635768      -0.20862533      -0.14462920       0.93452609      -8.73800284
Si       8.72545226       5.07969801       3.57295873       1.19478515      -0.39154104      -0.93454262      -0.50223469      -0.59543436       0.20422600      -8.69078429
Si      10.55966535       6.10778805       6.75394776      -0.16283428       1.94450224      -0.14044479       0.20245878      -0.10954840      -0.45767927      -8.72865997
Si       8.54090309       7.18362650       0.41933791      -0.29371425      -0.70764940       0.58672893       0.31460677       0.50547474      -0.00303085      -8.75267239
Si      10.55062231       8.36108112       3.46634112      -1.04716370      -0.71774699      -0.42756656      -0.25519498      -0.51367610       0.63152925      -8.63277358
Si      12.56244637       9.31929161       6.74701260       0.14124555      -0.93466292       0.55071130      -0.60548453       0.33671003      -0.84148292      -8.75005574
Si       8.64197485       0.52593274       0.39412427      -0.97401221       1.03732623       0.13718885       0.36875325       0.88992234      -1.47214948      -8.66537753
Si      10.57974563       1.66073175       3.30123855       0.02336989      -0.51706528       2.04824585       0.23076227      -0.11343235       0.95029588      -8.67357569
Si      12.53579841       2.71864504       6.70201376       1.20329184       1.08646606       0.24329224      -0.06763493       0.16395766      -0.39718106      -8.75618512
Si      10.65064044       3.93020684       0.38311445      -0.51226408      -0.41553269      -0.40869698       0.18309863      -0.40804342       0.05787994      -8.67864275
Si      12.48082970       4.94399627       3.56252718      -0.38328303       1.30857972       1.11256884       1.07130997       0.51302289       0.39170487      -8.73742777
Si      14.46620678       6.13832308       6.67045637       0.86820572      -1.79462964      -0.93595403       0.12663630      -0.52048692      -0.29513061      -8.72935198
Si      12.42765516       7.30481729       0.46369837      -0.03044123       1.41393208       0.38814273       1.13555896      -0.02026650      -0.79448056      -8.71883436
Si      14.51337221       8.34527686       3.51815200      -1.41945390       0.15795512      -0.86007778      -0.62142724       0.08449929       0.14787481      -8.64999645
Si      16.35918328       9.50948068       6.79869557       1.28107188      -1.53798473       0.07540562       0.32420791      -0.02415584      -0.48339179      -8.72809159
53
Lattice="11.5478352 0.0 0.0 5.773917198490155 10.000722372470358 0.0 5.773916394327279 3.333571176804646 9.428767828939895" Properties=species:S:1:pos:R:3:momenta:R:3:forces:R:3:energies:R:1 spacegroup="_JSON {\"number\": 1, \"setting\": 1}" unit_cell=conventional occupancy="_JSON {\"0\": {\"Si\": 1.0}, \"1\": {\"Si\": 1.0}, \"2\": {\"Si\": 1.0}, \"3\": {\"Si\": 1.0}, \"4\": {\"Si\": 1.0}, \"5\": {\"Si\": 1.0}, \"6\": {\"Si\": 1.0}, \"7\": {\"Si\": 1.0}, \"8\": {\"Si\": 1.0}, \"9\": {\"Si\": 1.0}, \"10\": {\"Si\": 1.0}, \"11\": {\"Si\": 1.0}, \"12\": {\"Si\": 1.0}, \"13\": {\"Si\": 1.0}, \"14\": {\"Si\": 1.0}, \"15\": {\"Si\": 1.0}, \"16\": {\"Si\": 1.0}, \"17\": {\"Si\": 1.0}, \"18\": {\"Si\": 1.0}, \"19\": {\"Si\": 1.0}, \"20\": {\"Si\": 1.0}, \"21\": {\"Si\": 1.0}, \"22\": {\"Si\": 1.0}, \"23\": {\"Si\": 1.0}, \"24\": {\"Si\": 1.0}, \"25\": {\"Si\": 1.0}, \"26\": {\"Si\": 1.0}, \"27\": {\"Si\": 1.0}, \"28\": {\"Si\": 1.0}, \"29\": {\"Si\": 1.0}, \"30\": {\"Si\": 1.0}, \"31\": {\"Si\": 1.0}, \"32\": {\"Si\": 1.0}, \"33\": {\"Si\": 1.0}, \"34\": {\"Si\": 1.0}, \"35\": {\"Si\": 1.0}, \"36\": {\"Si\": 1.0}, \"37\": {\"Si\": 1.0}, \"38\": {\"Si\": 1.0}, \"39\": {\"Si\": 1.0}, \"40\": {\"Si\": 1.0}, \"41\": {\"Si\": 1.0}, \"42\": {\"Si\": 1.0}, \"43\": {\"Si\": 1.0}, \"44\": {\"Si\": 1.0}, \"45\": {\"Si\": 1.0}, \"46\": {\"Si\": 1.0}, \"47\": {\"Si\": 1.0}, \"48\": {\"Si\": 1.0}, \"49\": {\"Si\": 1.0}, \"50\": {\"Si\": 1.0}, \"51\": {\"Si\": 1.0}, \"52\": {\"Si\": 1.0}}" energy=-458.63094307990036 stress="0.010189226659943191 0.0003732194483557734 0.0006429156384023237 0.0003732194483557734 0.010575047337992912 -0.0013121648560887502 0.0006429156384023237 -0.0013121648560887502 0.014992634587471836" free_energy=-458.63094307990036 pbc="T T T"
Si       6.88779892       3.82117985       2.87029206       1.68089335       0.36623008       0.28823921      -0.69875060       0.39346329      -0.98772347      -8.69177095
Si       8.67993914       4.95887195       5.94596746       0.55999095       0.52729035      -0.79352148      -0.61688177       0.90456784      -0.11893915      -8.65521841
Si      10.59620000       6.12096523       9.06664965      -0.35291129      -0.99261763      -0.28459189       0.06240293      -0.12482702       0.00957694      -8.75022689
Si       8.51298845       7.27779305       2.74950782       1.55422388       0.04506664       0.10416948       0.38443793      -0.32539280       0.30979648      -8.73605726
Si      10.53877956       8.30513505       5.88900156      -0.23104365      -0.67455766      -1.25606474       0.18959173       0.75189606      -0.35343219      -8.71482085
Si      12.47558424       9.39028559       9.08964374      -0.56960978       0.85992096       1.69079458      -0.71168186       0.34116108      -0.28461079      -8.73618193
Si      10.51974290      10.62956909       2.78111487       0.49240669       0.05771883      -0.50488928       0.50615711      -0.41478759      -0.15590268      -8.67223098
Si      12.52028142      11.51435079       5.97088682       0.49954109       0.43253997       0.28741615       0.50893606       0.66163813       0.32354835      -8.69850206
Si      14.50847068      12.72646551       9.04371668       0.40108224      -0.51555224       0.87463578      -0.92058538      -0.36383634      -0.00667500      -7.89593509
Si      10.60544246       3.88386463       2.69351474      -1.14017300      -0.33078045      -0.52402718       0.09538172       0.06571957       0.47969808      -8.72269139
Si      12.54824839       5.00000245       5.95958900      -0.22397061       1.18927125      -0.10870538      -0.66149956       0.20959705       0.04150684      -8.72795395
Si      14.44638949       6.15425851       8.98539979      -0.08207218      -1.35107106      -0.49234971       0.15394519      -0.03523950       0.04445732      -8.71768805
Si      12.51862172       7.17737714       2.84083687      -0.83251679       0.87478766       1.58509215      -0.57786762       0.88968124      -0.53762866      -8.72444067
Si      14.49968198       8.37806441       5.85757131       0.30187034      -0.29771013      -1.97181389       0.24133237      -0.87180362       0.33574569      -8.69796348
Si      16.37600846       9.50983897       9.17756926       0.55436792      -0.52585166      -0.25200971      -0.36404059      -0.25405204      -0.77699450      -8.71267452
Si      14.36349034      10.58013755       2.72778387       0.69974568      -1.08926244       1.96892932       0.85904201      -0.37583502      -0.45457926      -8.74575325
Si      16.34294883      11.66963233       5.78004242      -0.54893652      -0.23038653       0.61854019       0.85100617      -0.24358580       1.05942289      -8.63929240
Si      18.27658468      12.80861612       9.04807029       0.95396779      -0.92109518       0.29528040      -0.31329483       0.50223058      -0.27553866      -8.73772636
Si      14.40671654       3.92997773       2.69852452      -1.02493135       0.50028957      -0.52650398       0.11614377       0.34871208      -0.02581202      -8.72493692
Si      16.30762534       4.97109219       5.80324130      -0.12742597      -0.19608275       1.80402585       1.05417904      -0.99916509      -0.10093446      -8.68741797
Si      18.28019652       5.77053052       9.19817919       0.08247842      -0.26102783      -0.14865728      -0.18004462       0.67389498       0.23104114      -8.10644036
Si      16.38175087       7.18204296       2.70763243      -0.21726525       0.91171811      -0.05191300      -0.52486916       0.55642063      -0.23303858      -8.73175325
Si      18.28849504       8.29623329       5.89999944       1.07385058       0.16541471      -0.54600987      -0.08145892       0.01233325      -0.02564728      -8.62494506
Si      20.14532118       9.50933390       9.00872189      -1.37244463      -0.73985665       1.55740845      -0.07479983      -0.15095833       0.40500980      -8.68645215
Si      18.28882697      10.70053624       2.24126177       0.08789428       0.05049708      -0.85244272      -0.48914397      -0.41886898       0.58394315      -8.04910469
Si      20.23165290      11.63812011       5.82761395       0.05632471       0.53712354      -0.50591542       0.26274509       0.71929858       0.30321751      -8.67287321
Si      22.35060817      13.01103748       9.15598131      -0.08786442       0.26700005      -0.61793304      -0.62061633      -0.46499649       0.12315119      -8.03091121
Si       2.78418610       1.74523546       3.42660487      -1.18915797       0.20634219      -1.69434086       0.10004921      -0.61704340       0.33858056      -8.69472956
Si       4.92377643       2.75019334       6.78832682       0.34177364       0.43170586       0.36175621      -0.84900189       0.24034770      -0.66738947      -8.62532654
Si       2.88626448       3.84718477       0.34438588      -0.97694320      -0.36399063      -0.33358379      -0.84111353       0.36578651       0.02333145      -8.64972826
Si       4.85277112       4.95492175       3.40095399       0.27090086       0.05203385      -1.70891375       0.19229868      -0.05805114       0.93662860      -8.72501491
Si       6.59680660       6.00637458       6.83129299       0.44654490      -0.45287532      -0.30852995       1.21960710       0.16028897      -0.95247930      -8.60843163
Si       4.76716402       7.32249234       0.34989424      -0.00527455       0.96618873       0.70794291       0.45041140       0.03104584      -0.02389797      -8.66491389
Si       6.62709864       8.48798817       3.41965847       0.49526058      -0.10560706      -1.49145145       0.39976638       0.07269588       0.49523464      -8.59225867
Si       8.64664704       9.49240047       6.68183339      -1.76149115       0.06920678       0.87571267      -0.11498841      -0.70137411      -0.35717245      -8.78326696
Si       4.74172140       0.55054146       0.40191240       0.98912287       0.52475439       0.84092465       0.90752708       0.40122018       0.32631319      -8.74793034
Si       6.79127511       1.61744081       3.63342280      -1.59468300       0.17590227      -0.49532150      -1.17444568       0.02882381       0.01115740      -8.75740298
Si       8.68712467       2.78227088       6.71479660      -1.36029134       0.45257916       1.15274268      -0.15882394      -0.86747984      -0.32557350      -8.76196264
Si       6.75540902       3.87413310       0.41737739      -0.37439630      -0.26313412       1.31408540       0.09975060      -0.37569519       0.71246752      -8.72240357
Si       8.76685916       5.04327912       3.53826995       0.37692658      -0.81371715      -0.28910869      -0.53037308       0.11655175       0.59956342      -8.73099423
Si      10.56070245       6.18766623       6.73222879       0.21829419       0.78817849      -0.59657764       0.26672886      -1.31960615      -0.11151242      -8.73041058
Si       8.54781718       7.16956084       0.44445052       0.70528927       0.18796137       0.28176219       0.88575964       0.56490696      -0.35566530      -8.74695092
Si      10.49300448       8.31514094       3.46966061      -0.97825500      -0.78773404       0.54184380       0.41575385       0.45487767       0.58829142      -8.67895877
Si      12.54587731       9.28562040       6.74786259      -0.71120864      -0.31923052      -0.38937668      -0.37614108       0.46276625      -0.36007491      -8.73771358
Si       8.61566990       0.60770512       0.36198809       0.12276938       1.85383922      -0.94762981       0.96491793      -0.01926363       0.10998001      -8.68742308
Si      10.59041413       1.63145626       3.42924761       0.38788730      -0.54642145       2.49325973       0.24933661       0.08977685      -0.37178749      -8.67803989
Si      12.58421292       2.77276088       6.69550561       0.45153412       0.84292409      -0.50777235      -0.82662143      -0.36770488      -0.47080676      -8.71261980
Si      10.63450181       3.89125836       0.36284937      -0.06541999      -1.06924697      -0.38886334       0.33425228      -0.40806517      -0.03348998      -8.67814015
Si      12.49208595       5.01478776       3.62433825       0.56658391       1.07779000       1.00157428       0.13605961      -0.68719845      -0.55242532      -8.73559713
Si      14.50665685       6.05026905       6.61647717       0.45048572      -1.09694414      -0.95020991      -0.72984110       1.29954875       0.35247321      -8.71861625
Si      12.46745722       7.36206084       0.46656157       1.39948576       0.44229809       0.00510456       0.56115723      -1.27486683       0.29658331      -8.73457828
Si      14.42750667       8.35403580       3.48323425      -1.59324946       0.10871950      -0.40565550       0.39803570      -0.18120964       0.40501354      -8.73120957
Si      16.42933195       9.43823887       6.78241776       1.20003906      -1.02053915      -0.70655685      -0.42982809       0.60165559      -0.52600207      -8.70435760
53
Lattice="11.5478352 0.0 0.0 5.773917198490155 10.000722372470358 0.0 5.773916394327279 3.333571176804646 9.428767828939895" Properties=species:S:1:pos:R:3:momenta:R:3:forces:R:3:energies:R:1 spacegroup="_JSON {\"number\": 1, \"setting\": 1}" unit_cell=conventional occupancy="_JSON {\"0\": {\"Si\": 1.0}, \"1\": {\"Si\": 1.0}, \"2\": {\"Si\": 1.0}, \"3\": {\"Si\": 1.0}, \"4\": {\"Si\": 1.0}, \"5\": {\"Si\": 1.0}, \"6\": {\"Si\": 1.0}, \"7\": {\"Si\": 1.0}, \"8\": {\"Si\": 1.0}, \"9\": {\"Si\": 1.0}, \"10\": {\"Si\": 1.0}, \"11\": {\"Si\": 1.0}, \"12\": {\"Si\": 1.0}, \"13\": {\"Si\": 1.0}, \"14\": {\"Si\": 1.0}, \"15\": {\"Si\": 1.0}, \"16\": {\"Si\": 1.0}, \"17\": {\"Si\": 1.0}, \"18\": {\"Si\": 1.0}, \"19\": {\"Si\": 1.0}, \"20\": {\"Si\": 1.0}, \"21\": {\"Si\": 1.0}, \"22\": {\"Si\": 1.0}, \"23\": {\"Si\": 1.0}, \"24\": {\"Si\": 1.0}, \"25\": {\"Si\": 1.0}, \"26\": {\"Si\": 1.0}, \"27\": {\"Si\": 1.0}, \"28\": {\"Si\": 1.0}, \"29\": {\"Si\": 1.0}, \"30\": {\"Si\": 1.0}, \"31\": {\"Si\": 1.0}, \"32\": {\"Si\": 1.0}, \"33\": {\"Si\": 1.0}, \"34\": {\"Si\": 1.0}, \"35\": {\"Si\": 1.0}, \"36\": {\"Si\": 1.0}, \"37\": {\"Si\": 1.0}, \"38\": {\"Si\": 1.0}, \"39\": {\"Si\": 1.0}, \"40\": {\"Si\": 1.0}, \"41\": {\"Si\": 1.0}, \"42\": {\"Si\": 1.0}, \"43\": {\"Si\": 1.0}, \"44\": {\"Si\": 1.0}, \"45\": {\"Si\": 1.0}, \"46\": {\"Si\": 1.0}, \"47\": {\"Si\": 1.0}, \"48\": {\"Si\": 1.0}, \"49\": {\"Si\": 1.0}, \"50\": {\"Si\": 1.0}, \"51\": {\"Si\": 1.0}, \"52\": {\"Si\": 1.0}}" energy=-458.4240755500919 stress="0.009546498577642 -0.0003103220642271737 -0.0006807901622141378 -0.0003103220642271737 0.009979343661543254 -0.0012772215152507323 -0.0006807901622141378 -0.0012772215152507323 0.015654419626454183" free_energy=-458.4240755500919 pbc="T T T"
Si       6.93447244       3.84733634       2.84936261      -0.10708981       0.46287932      -0.96626247      -1.49686152      -0.24453484      -0.51184497      -8.72947719
Si       8.68617484       5.00942560       5.90655212      -0.26422439       1.10891657      -0.57568454      -0.38233932      -0.22026166       0.39808314      -8.68960295
Si      10.57992667       6.07741886       9.05472862      -0.28915959      -0.43279467      -0.11520434      -0.01612248       0.78320882       0.22414503      -8.72012211
Si       8.59447046       7.26166998       2.76215779       1.30612473      -0.72665421       0.26663447      -0.56338106      -0.57775698      -0.11697134      -8.71364142
Si      10.52623841       8.30681403       5.82543981      -0.35776970       0.75226676      -0.82016580      -0.24750695       0.83369010       1.00594190      -8.70880417
Si      12.42674634       9.43881838       9.15777820      -1.06045914       0.80706469       0.77823858       0.18400653      -0.37551195      -0.81051524      -8.70046610
Si      10.55070241      10.61657600       2.75616985       0.40592543      -0.54146324      -0.31186026      -0.58539404      -0.36832443       0.36397388      -8.69793403
Si      12.55528786      11.55689355       5.99300591       0.58840789       1.04700311       0.42621530      -0.45257690       0.10258528      -0.18250802      -8.72246602
Si      14.50201814      12.69648716       9.09099122      -0.46075011      -0.37471242       0.94453809      -0.21196982       0.61114159       0.05090368      -7.90489548
Si      10.56352237       3.86548432       2.68879259      -0.25473927      -0.43106611       0.37341264       0.90044238      -0.16367553       0.60679412      -8.65746121
Si      12.51450314       5.06123942       5.95782077      -0.94249518       0.95551630       0.03708490      -0.18610179      -0.53569687       0.01666411      -8.75474596
Si      14.44365677       6.10431868       8.95823281      -0.09322855      -0.17622989      -0.57441930      -0.12926523       1.39674222      -0.05875662      -8.69450450
Si      12.45355962       7.24757766       2.89272009      -1.56670087       1.54074824       0.27291244      -0.24767780      -0.11511592      -1.02667578      -8.70408141
Si      14.52029758       8.33329184       5.78324032       0.38103113      -1.26063194      -0.60617571      -0.16199620      -0.28715434       1.33571319      -8.67507301
Si      16.39603247       9.47347989       9.13606360       0.32099199      -0.85744512      -1.27429640       0.06713059      -0.24237308      -0.55798050      -8.67276020
Si      14.41943991      10.52778252       2.80195661       1.14888108      -0.55579533       0.72558923      -0.23412353       0.97122381      -1.00275263      -8.66971486
Si      16.34622513      11.65180861       5.85833584       0.60694165      -0.37444519       2.32896380       0.58907726       0.05180337       0.90941513      -8.68004772
Si      18.31628706      12.78944609       9.04792617       0.63321688       0.24044324      -0.33419022      -0.03555576       0.70273704      -0.41013478      -8.70975189
Si      14.36490385       3.96614758       2.67142834      -0.43088039       0.76172322      -0.46626830       0.66109001      -0.09916505       0.13269335      -8.73398351
Si      16.34389510       4.92432155       5.87316317       1.40225662      -1.39222648       0.59298792       0.65741371      -0.23912798      -1.19633988      -8.68111683
Si      18.27669219       5.77937191       9.19628618      -0.21985914       0.50035531      -0.01978521      -0.19524642       0.28880853      -0.14424446      -8.13581607
Si      16.34978578       7.24427359       2.69992646      -0.93944425       1.29964164      -0.14157749      -0.28015899      -0.06981500       0.15187155      -8.72875983
Si      18.33402293       8.29942246       5.86571074       0.51863811      -0.13773364      -0.84706628      -0.63544260      -0.34778624      -0.35609213      -8.63367441
Si      20.08683466       9.46762222       9.09421222      -0.54456315      -0.81883837       1.45323920       1.14839659      -0.01727932      -0.56371854      -8.68006322
Si      18.27119169      10.68686921       2.21872224      -0.78243809      -0.56488212      -0.02451080      -0.57613662      -0.39098422       0.52123455      -8.08777668
Si      20.24240755      11.68622516       5.81166726       0.27587108       1.11061851      -0.12933260      -0.04503281      -0.00099767       0.19284816      -8.64326585
Si      22.32220879      13.00950496       9.13104516      -0.95478179      -0.27833898      -0.31482355      -0.46367392      -0.28552560       0.19641968      -8.04462155
Si       2.73612434       1.73342775       3.35729019      -0.47102043      -0.58095217      -0.86454040       0.77118632      -0.33269770       0.67782880      -8.64497448
Si       4.91112912       2.77462699       6.78136037      -0.73661886       0.33253779      -0.57464743      -0.51662066      -0.41708493      -0.46245269      -8.68360442
Si       2.81044937       3.83888250       0.32889123      -1.71799184      -0.02834114      -0.23374790      -0.07687984       0.07350659       0.11911172      -8.68296211
Si       4.87254598       4.95764207       3.35805556       0.42217117       0.12202128       0.17465683      -0.04822667       0.20897333       1.36543639      -8.61260407
Si       6.66505828       5.99373146       6.78304157       2.03491724       0.05240926      -1.39427868       0.73651463       0.48339689      -0.42050434      -8.62819861
Si       4.77513962       7.37025872       0.38105401       0.12248455       0.78478908       0.40048713      -0.27457125      -0.25140022      -0.33635631      -8.67127599
Si       6.67000454       8.48572433       3.36522696       1.12817417      -0.00067005      -0.53520656       0.34733097      -0.00635205       0.69354778      -8.57523469
Si       8.56667375       9.47665644       6.71346781      -1.00293770      -0.46782174       0.35775567       1.00172137       0.06678910      -0.26437734      -8.71360601
Si       4.82014452       0.57844119       0.44674971       1.78937411       0.25961966       0.63423188       0.09738628      -0.67023671      -0.58249009      -8.77476074
Si       6.68669898       1.62633601       3.61221768      -1.88015356       0.16428499      -0.23346395       0.80301013       0.03333009       0.32993947      -8.74314831
Si       8.62123938       2.77825908       6.75852422      -0.92077199      -0.42451155       0.47850313       0.75253519      -0.17904876      -0.46341075      -8.75881728
Si       6.74212305       3.84995551       0.49923431      -0.11341492      -0.54500477       1.47527741       0.17506778       0.06217452      -0.59582622      -8.71329207
Si       8.76940867       5.01497148       3.54656223      -0.20996720      -0.13733766       0.56417436      -0.26952494       0.60418529       0.43348131      -8.75064448
Si      10.57982275       6.17824135       6.70090658       0.42801543      -0.99225585      -0.53837757      -0.06553409      -0.73149994       0.13353213      -8.75421192
Si       8.61431096       7.19275339       0.44455818       1.67007992       0.48483643      -0.26774264       0.27751231      -0.25422511      -0.32164470      -8.77531574
Si      10.46604922       8.30318878       3.51457807       0.03529452       0.51332815       1.01618194       0.72767720       1.16167102      -0.01788575      -8.72045095
Si      12.50351724       9.28755447       6.72016094      -0.72421572       0.40547642      -0.55148410       0.32432318       0.51163561       0.10262474      -8.67573882
Si       8.65699424       0.68112609       0.33372068       1.34917492       0.54249857       0.11777947       0.56716822      -1.54327373       1.08588537      -8.64992361
Si      10.61929397       1.60891394       3.53276139       0.68213255      -0.27295733       1.31002414       0.12668749       0.24901479      -0.93641995      -8.64915168
Si      12.57415637       2.80249304       6.65682210      -0.80590486       0.32175603      -0.82633547      -0.71091949      -0.25313603       0.08049407      -8.72003518
Si      10.64100623       3.82467385       0.34175306       0.22857083      -1.33522052      -0.38308950       0.00323518       0.12123095       0.09438496      -8.70015428
Si      12.51563461       5.04286397       3.64665410       0.14102827       0.05573345      -0.25876405      -0.62066451      -0.46865851      -0.97883407      -8.69366301
Si      14.49943772       6.04907150       6.58541688      -0.63441274       0.99516374      -0.21012022      -0.39301306       1.09411764       0.46631031      -8.73423564
Si      12.54415415       7.33315067       0.48620327       1.15093585      -1.42023641       0.80649921      -0.89975794      -0.80793907       0.54448441      -8.74266838
Si      14.36936406       8.34887199       3.47698376      -0.50195171      -0.35770857       0.13300124       0.87404697      -0.37359311       0.27956572      -8.76447073
Si      16.46875252       9.40888608       6.72823444       0.21730481      -0.13535629      -1.27496724      -0.77068410       0.45826602      -0.19459156      -8.71630418
53
Lattice="11.5478352 0.0 0.0 5.773917198490155 10.000722372470358 0.0 5.773916394327279 3.333571176804646 9.428767828939895" Properties=species:S:1:pos:R:3:momenta:R:3:forces:R:3:energies:R:1 spacegroup="_JSON {\"number\": 1, \"setting\": 1}" unit_cell=conventional occupancy="_JSON {\"0\": {\"Si\": 1.0}, \"1\": {\"Si\": 1.0}, \"2\": {\"Si\": 1.0}, \"3\": {\"Si\": 1.0}, \"4\": {\"Si\": 1.0}, \"5\": {\"Si\": 1.0}, \"6\": {\"Si\": 1.0}, \"7\": {\"Si\": 1.0}, \"8\": {\"Si\": 1.0}, \"9\": {\"Si\": 1.0}, \"10\": {\"Si\": 1.0}, \"11\": {\"Si\": 1.0}, \"12\": {\"Si\": 1.0}, \"13\": {\"Si\": 1.0}, \"14\": {\"Si\": 1.0}, \"15\": {\"Si\": 1.0}, \"16\": {\"Si\": 1.0}, \"17\": {\"Si\": 1.0}, \"18\": {\"Si\": 1.0}, \"19\": {\"Si\": 1.0}, \"20\": {\"Si\": 1.0}, \"21\": {\"Si\": 1.0}, \"22\": {\"Si\": 1.0}, \"23\": {\"Si\": 1.0}, \"24\": {\"Si\": 1.0}, \"25\": {\"Si\": 1.0}, \"26\": {\"Si\": 1.0}, \"27\": {\"Si\": 1.0}, \"28\": {\"Si\": 1.0}, \"29\": {\"Si\": 1.0}, \"30\": {\"Si\": 1.0}, \"31\": {\"Si\": 1.0}, \"32\": {\"Si\": 1.0}, \"33\": {\"Si\": 1.0}, \"34\": {\"Si\": 1.0}, \"35\": {\"Si\": 1.0}, \"36\": {\"Si\": 1.0}, \"37\": {\"Si\": 1.0}, \"38\": {\"Si\": 1.0}, \"39\": {\"Si\": 1.0}, \"40\": {\"Si\": 1.0}, \"41\": {\"Si\": 1.0}, \"42\": {\"Si\": 1.0}, \"43\": {\"Si\": 1.0}, \"44\": {\"Si\": 1.0}, \"45\": {\"Si\": 1.0}, \"46\": {\"Si\": 1.0}, \"47\": {\"Si\": 1.0}, \"48\": {\"Si\": 1.0}, \"49\": {\"Si\": 1.0}, \"50\": {\"Si\": 1.0}, \"51\": {\"Si\": 1.0}, \"52\": {\"Si\": 1.0}}" energy=-458.48259692842794 stress="0.008023577138819347 0.0017218708819717295 0.0009196801671895289 0.0017218708819717295 0.011127203914722546 -0.0018789214258534079 0.0009196801671895289 -0.0018789214258534079 0.015050237468386485" free_energy=-458.48259692842794 pbc="T T T"
Si       6.87694848       3.85976015       2.79507076      -1.88423912       0.02089656      -0.79166512      -0.73204289      -0.21858346       0.67637689      -8.76141332
Si       8.66817519       5.04398294       5.89463650      -0.18057940      -0.04178833       0.13071218       0.54949092      -1.20740274       0.44033890      -8.71826617
Si      10.56251097       6.08619557       9.05919718      -0.39818528       0.70118751       0.30010687      -0.10602843       0.53458092       0.27674346      -8.67115213
Si       8.64145352       7.20861723       2.76751307       0.56591266      -1.09606161      -0.11692165      -0.27481525       0.19293546      -0.33867935      -8.72257869
Si      10.49947597       8.36611032       5.83391582      -0.58872189       1.25784033       1.25447910       0.04379921      -0.14438883       1.43096042      -8.71445406
Si      12.39149271       9.46203060       9.16655831      -0.08231780       0.04481969      -0.42703312       0.97410982      -0.50605020      -0.75012123      -8.62333802
Si      10.54438933      10.57847387       2.75472446      -0.62919387      -0.77064673       0.21547779      -0.51883526       0.19744934       0.20139733      -8.75218936
Si      12.55874502      11.60721597       6.00204526      -0.55602475       0.74493946      -0.16215981      -0.82767224      -0.38593186      -0.49194615      -8.73516746
Si      14.47651035      12.70921664       9.13971218      -0.41485063       0.94085706       0.85612238       0.17776158       0.92499447      -0.16695670      -7.89568110
Si      10.58264829       3.83793963       2.72732169       0.86068288      -0.56413226       0.98311012       0.42335276       0.04474289       0.16341713      -8.67517862
Si      12.46997100       5.08347318       5.95269629      -0.53045346      -0.18791345      -0.39369579       0.67412320      -0.84118012      -0.59811825      -8.75030672
Si      14.43278941       6.14303156       8.93300216      -0.31821524       1.36934407      -0.21148614      -0.11716704       0.34131541       0.60761503      -8.70421263
Si      12.37539662       7.31021320       2.87199496      -1.14990344       0.64553827      -0.91341147       0.76017110      -0.90614224      -0.43940056      -8.71147029
Si      14.52824872       8.27177922       5.80149928      -0.18439166      -0.75125986       1.16061209      -0.58589776       1.01468769       0.79680783      -8.70245016
Si      16.41920236       9.41838904       9.05398518       0.60322026      -1.24667726      -1.71670527       0.22623789      -0.25063962      -0.01228154      -8.66716490
Si      14.46208748      10.53870859       2.80559053       0.36979296       0.90553408      -0.43584662      -0.66768441       0.73610708      -0.41121612      -8.65123533
Si      16.39006728      11.63763905       5.99545009       0.82190526      -0.11443957       2.47516375      -0.35821655       0.24878099      -0.73114213      -8.71239177
Si      18.35339513      12.81550091       9.02059699       0.87057837       0.47114846      -0.57408481       0.30947205      -0.38357190       0.11039829      -8.66958148
Si      14.37107816       3.99447323       2.65538540       0.67678534       0.19832343      -0.07888779       0.69848058      -0.56895268       0.39673031      -8.71320569
Si      16.42721553       4.86545950       5.85954097       1.51643669      -0.45403827      -0.99854265      -0.35959678       1.28969015      -0.73687718      -8.66745930
Si      18.25942118       5.80885250       9.18211851      -0.39776351       0.47562735      -0.65828606      -0.03885222      -0.28462765      -0.68349723      -8.08636703
Si      16.30171188       7.30131255       2.70236252      -0.64123807       0.73120133       0.27718526       0.70015357      -0.63981993       0.32052495      -8.70094202
Si      18.33559672       8.28138945       5.80805147      -0.40971460      -0.44097952      -1.29310824      -0.45047342       0.07226902      -0.12707598      -8.68390262
Si      20.10859014       9.42622526       9.13987957       1.35402900      -0.67705745       0.19414782       1.06724009       0.30937390      -0.93698739      -8.66949326
Si      18.21416046      10.64459942       2.23652798      -1.23214847      -0.98958264       0.68396076       0.04868982      -0.17003207       0.44505287      -8.11289375
Si      20.24751550      11.73469520       5.80985500      -0.23178262       0.57275848       0.00592149      -0.63173938      -0.65345489      -0.01892542      -8.63289547
Si      22.26195127      12.98463286       9.11862867      -1.16277640      -0.67061912      -0.24371719       0.24358110      -0.28591965      -0.13328437      -8.04813486
Si       2.74139078       1.69728941       3.33747618       0.60669768      -0.66779826       0.07216093       0.52126695       0.17589952       0.54087394      -8.60540620
Si       4.86001991       2.76915333       6.74231762      -1.07500997      -0.59688128      -0.74198605       0.01931451      -0.61321534       0.19573095      -8.73697907
Si       2.73021968       3.83707161       0.32313831      -1.10772668      -0.08897185       0.05237830       0.84039957      -0.11688764       0.26765312      -8.70162963
Si       4.88707963       4.97596548       3.41361801       0.02322489       0.63366776       1.75868473      -0.47184114       0.43451747       0.63332496      -8.64542546
Si       6.78147364       6.01647537       6.70500603       1.99432749       0.82182548      -1.35839969      -0.85283505       0.51183122       0.45037780      -8.64209329
Si       4.76594242       7.39810696       0.38895384      -0.50592322       0.19771684      -0.07235576      -0.39951256      -0.56974316      -0.23408811      -8.70036456
Si       6.73542166       8.48102635       3.36113250       1.21122342      -0.26810264       0.29434463      -0.25280527      -0.35407422       0.36188440      -8.60035485
Si       8.55500299       9.46354182       6.72442030       0.48980347       0.08620027       0.09184212       0.74264563       0.54125286      -0.13662529      -8.67793146
Si       4.90625813       0.56398133       0.45190036       1.29501231      -0.75470238      -0.46999520      -0.69244419      -0.46689647      -0.71417208      -8.75934490
Si       6.63464498       1.63815482       3.61392531       0.04717662       0.29694990       0.27139667       1.41317193       0.06673735       0.21884062      -8.67883410
Si       8.60999985       2.75986413       6.77040143       0.56345190      -0.11637772       0.08185416       1.01898265       0.44407565      -0.05449595      -8.71211127
Si       6.74003996       3.83077952       0.53483104      -0.03579812      -0.06484948      -0.41273305      -0.09629446       0.54294209      -1.72456400      -8.71219647
Si       8.74924441       5.02362805       3.58376883      -0.54706135       0.24992020       0.66070372      -0.21288921      -0.22844872      -0.31381745      -8.75875396
Si      10.59141969       6.11829838       6.68056386      -0.13395635      -0.91904609      -0.17090499      -0.62190959       0.72237263       0.39182331      -8.73090959
Si       8.70119700       7.19850253       0.42089336       1.45026525      -0.38663442      -0.58918145      -0.48134225      -0.72216774      -0.15007862      -8.75289858
Si      10.48510678       8.37141666       3.55908623       0.43198763       1.91218559       0.59328546      -0.25034387       0.46551919      -0.34246788      -8.75378080
Si      12.48303269       9.32744512       6.69977889      -0.00239344       1.07315137      -0.14620970       0.54358238       0.34505517       0.41684732      -8.64114362
Si       8.73780056       0.65572340       0.37776302       1.47183128      -1.21662847       1.38764388      -0.45726457      -0.44884111       0.42783360      -8.71571880
Si      10.65686156       1.60428792       3.57256594       0.68461374       0.08172762       0.39383737      -0.13396293       0.19110890      -0.22837231      -8.64038760
Si      12.51634769       2.81416652       6.62470609      -1.11306196       0.21640479      -0.25567282       0.40185645       0.10745987       0.64020361      -8.75877852
Si      10.64722452       3.76900292       0.32934159      -0.08884884      -0.61855859      -0.01088520      -0.37142404       0.77731464       0.40510306      -8.71054089
Si      12.49632707       5.03680536       3.60015647      -0.85878857      -0.12984171      -1.37454336      -0.54023993       0.14271988      -0.44392401      -8.70518882
Si      14.46509714       6.12080708       6.58869165      -0.45034300       1.25489335       0.27741749       0.48662388      -0.79376437       0.24226828      -8.73919234
Si      12.55862041       7.24775303       0.53822881      -0.67564107      -1.50306789       0.87907851      -1.19452534       0.48078990      -0.62552188      -8.72170534
Si      14.37062725       8.32058642       3.49267537       0.36951160      -0.57350304       0.44039528       0.18301967       0.19568517       0.18161419      -8.77631614
Si      16.45358874       9.41057907       6.66066419      -0.69141793       0.00550065      -1.17360389      -0.36887130      -0.29147223       0.30389462      -8.75108443
